NAME : mamut-hong_kong-n10-poi
COMMENT : Mamut2026 euclidean metric; city hong_kong; 3-decimal seconds/meters; ENU ref in mamut-hong_kong-n10-poi.vrp.json
TYPE : CVRP
DIMENSION : 11
EDGE_WEIGHT_TYPE : EXPLICIT
EDGE_WEIGHT_FORMAT : FULL_MATRIX
CAPACITY : 124
EDGE_WEIGHT_SECTION
0.000 6650.744 7017.479 7082.553 11767.697 7948.561 2206.440 2335.414 3956.538 2260.152 4645.086
6650.744 0.000 12355.082 11796.433 9942.814 14344.146 6291.047 8957.018 8942.145 8904.725 9793.124
7017.479 12355.082 0.000 1349.477 18752.868 3868.685 6150.518 5444.213 3430.987 5676.463 2579.993
7082.553 11796.433 1349.477 0.000 18839.349 5215.934 5816.904 5902.977 3173.836 6140.684 2438.726
11767.697 9942.814 18752.868 18839.349 0.000 18784.962 13258.852 13467.057 15679.481 13259.584 16407.454
7948.561 14344.146 3868.685 5215.934 18784.962 0.000 8151.838 5673.741 5930.288 5819.162 5255.469
2206.440 6291.047 6150.518 5816.904 13258.852 8151.838 0.000 3439.388 2723.519 3520.668 3570.963
2335.414 8957.018 5444.213 5902.977 13467.057 5673.741 3439.388 0.000 3325.117 237.709 3630.239
3956.538 8942.145 3430.987 3173.836 15679.481 5930.288 2723.519 3325.117 0.000 3542.942 852.682
2260.152 8904.725 5676.463 6140.684 13259.584 5819.162 3520.668 237.709 3542.942 0.000 3863.659
4645.086 9793.124 2579.993 2438.726 16407.454 5255.469 3570.963 3630.239 852.682 3863.659 0.000
NODE_COORD_SECTION
1 1438.942575 -1211.855723
2 -4415.099914 1944.501146
3 2778.714044 -8100.253578
4 1443.277292 -8294.407818
5 606.034796 10526.327715
6 6561.511056 -7289.594582
7 -181.747946 -2709.100330
8 3257.491473 -2677.133727
9 1031.663679 -5147.375549
10 3329.414601 -2450.566266
11 1505.217621 -5856.468499
DEMAND_SECTION
1 0
2 7
3 84
4 5
5 2
6 9
7 79
8 100
9 1
10 92
11 7
DEPOT_SECTION
1
-1
EOF
