NAME : mamut-lyon-n25-hyb
COMMENT : Mamut2026 fastest metric; city lyon; 3-decimal seconds/meters; ENU ref in mamut-lyon-n25-hyb.vrp.json
TYPE : CVRP
DIMENSION : 26
EDGE_WEIGHT_TYPE : EXPLICIT
EDGE_WEIGHT_FORMAT : FULL_MATRIX
CAPACITY : 121
EDGE_WEIGHT_SECTION
0.000 265.002 203.443 99.293 146.706 129.845 47.842 189.152 46.075 258.159 66.467 89.864 89.869 142.106 300.624 176.860 259.191 232.194 390.640 86.687 184.499 193.366 331.220 176.854 298.788 280.210
262.094 0.000 262.457 195.470 215.768 198.774 256.528 281.951 279.133 409.694 302.356 322.921 322.926 377.995 399.073 235.874 460.234 75.371 591.683 202.455 196.093 221.613 564.192 269.653 365.762 516.100
161.360 278.453 0.000 148.786 169.084 44.990 182.997 119.771 178.398 252.101 201.621 222.187 222.191 277.261 225.794 50.884 394.346 245.645 525.795 138.702 197.951 216.371 438.034 107.473 219.124 365.789
104.804 219.039 210.704 0.000 100.743 137.106 92.949 222.877 121.842 333.926 144.666 165.631 165.636 220.306 334.348 184.121 296.656 186.231 428.105 60.823 138.536 147.403 400.613 210.578 332.512 358.410
123.028 148.458 163.021 50.115 0.000 99.339 111.173 182.516 140.066 310.259 162.890 183.855 183.860 238.530 299.638 136.439 314.879 115.650 446.329 59.148 67.956 93.476 418.837 170.217 292.692 376.634
126.285 243.378 73.598 113.711 134.009 0.000 147.922 93.092 143.323 220.836 166.546 187.112 187.117 242.186 210.214 47.015 359.271 210.571 490.720 103.627 162.876 181.296 402.959 80.794 208.378 330.714
55.114 271.448 229.520 120.938 153.153 155.922 0.000 215.229 72.152 284.236 92.544 115.941 115.946 168.183 326.701 202.937 264.525 238.640 395.974 112.764 190.946 199.813 357.297 202.931 324.865 306.287
163.889 335.944 140.210 203.683 223.981 119.192 210.204 0.000 160.391 167.798 208.037 178.356 178.361 228.598 153.576 133.601 421.553 303.136 553.002 193.599 255.441 271.268 371.855 51.083 171.544 299.610
85.931 349.406 260.954 183.698 231.111 201.939 132.247 243.883 0.000 312.890 136.338 129.681 129.686 211.977 355.355 248.954 343.596 316.598 475.045 171.092 268.904 277.770 400.959 231.585 353.519 348.987
267.208 471.876 277.093 339.615 359.913 256.074 313.523 200.263 263.710 0.000 311.356 281.675 281.680 292.071 304.828 270.484 524.872 439.068 656.321 329.531 391.373 407.200 472.689 187.965 322.795 363.082
102.775 338.108 250.302 187.598 219.812 191.287 88.337 233.231 97.914 302.238 0.000 68.985 68.990 90.894 344.703 238.303 285.247 305.300 416.696 187.935 257.605 266.472 280.007 220.933 342.867 228.998
114.457 361.188 261.984 210.679 242.893 202.969 111.418 231.186 109.596 291.201 81.821 0.000 57.248 93.041 356.385 249.984 308.328 328.381 439.777 199.617 280.686 289.553 321.861 218.888 354.549 231.146
84.894 338.513 232.421 182.660 220.218 173.406 88.743 201.623 80.033 261.639 59.146 27.680 0.000 88.013 326.822 220.422 285.653 305.706 417.102 170.055 258.011 266.878 310.973 189.325 324.986 226.117
176.391 439.866 323.918 274.157 321.570 264.903 222.706 257.420 171.530 277.632 214.860 189.495 189.499 0.000 385.009 311.919 434.055 407.058 565.504 261.551 359.363 368.230 350.635 245.122 402.976 140.085
325.415 381.129 261.712 352.675 372.972 279.159 371.731 211.543 321.918 329.324 369.563 339.883 339.887 390.125 0.000 295.128 583.080 324.176 714.529 342.590 401.839 420.259 533.381 212.609 30.808 461.137
147.492 264.585 82.284 134.918 155.215 61.403 169.129 144.580 164.530 272.323 187.753 208.319 208.323 263.393 255.822 0.000 380.478 231.777 511.927 124.834 184.083 202.503 452.506 132.281 220.739 382.201
296.586 438.928 453.492 288.419 320.633 389.809 270.164 454.763 313.624 523.770 264.135 304.506 304.511 339.775 566.235 426.909 0.000 406.121 178.109 317.350 358.426 367.293 399.763 442.465 564.399 477.879
252.391 111.592 252.754 185.767 206.065 189.071 246.825 272.248 269.430 399.991 292.653 313.218 313.223 368.292 374.599 226.171 450.531 0.000 581.980 192.752 186.390 211.910 554.489 259.950 339.516 506.397
426.632 568.974 583.538 418.465 450.679 519.855 400.210 584.809 443.670 653.816 394.182 434.552 434.557 469.821 696.281 556.955 180.414 536.167 0.000 447.396 488.472 497.339 521.877 572.511 694.445 607.925
102.976 210.303 182.182 43.339 96.951 118.499 104.397 201.677 120.014 329.420 143.237 163.803 163.807 218.876 318.798 155.600 308.103 177.495 439.552 0.000 129.801 144.238 407.990 189.378 316.962 356.981
208.775 164.420 209.188 135.862 85.746 145.506 196.920 228.683 225.813 356.426 248.637 269.601 269.606 324.276 345.805 182.606 400.626 131.612 532.075 144.894 0.000 49.481 504.584 216.384 338.859 462.381
191.700 189.940 231.694 118.788 68.672 168.011 179.846 251.188 208.739 378.931 231.563 252.527 252.532 307.202 368.310 205.111 383.552 157.133 515.001 127.820 49.481 0.000 487.509 238.890 361.365 445.307
331.642 534.593 461.715 384.084 416.298 404.012 338.781 392.559 326.780 452.574 309.184 319.429 319.434 306.159 520.148 451.027 411.313 501.786 542.762 413.015 454.091 462.958 0.000 380.261 538.115 369.053
176.187 342.157 129.713 212.490 232.788 108.694 222.503 12.298 172.690 180.096 220.335 190.655 190.659 240.897 165.875 123.104 433.852 309.350 565.301 202.406 261.655 280.075 384.153 0.000 183.842 311.909
294.607 420.230 232.864 323.827 344.124 249.910 340.922 180.734 291.109 298.516 338.755 309.074 309.079 359.316 60.630 264.320 552.271 364.008 683.720 313.743 372.992 391.412 502.573 181.801 0.000 430.328
282.294 527.310 394.171 379.279 415.347 336.467 328.609 325.014 277.433 345.226 307.000 295.397 295.402 136.667 452.603 383.482 533.507 494.502 664.956 366.673 446.808 462.635 426.034 312.716 470.570 0.000
NODE_COORD_SECTION
1 135.757630 21.597263
2 3542.924186 -3498.976949
3 2378.501341 -106.401732
4 577.731483 -1047.951247
5 1226.581033 -1760.138503
6 1771.250502 -81.851878
7 -146.600283 -193.682285
8 2296.066935 1293.648913
9 108.209150 434.072969
10 2694.475540 2808.463799
11 -513.535333 835.955223
12 -56.314718 994.540691
13 -130.845128 918.428515
14 -349.894645 1828.751710
15 4729.131917 546.815932
16 2203.939126 -265.583425
17 -3590.556000 -1485.748189
18 3689.178445 -2829.337167
19 -4254.420239 -2927.640916
20 985.827064 -960.972375
21 1603.029256 -1990.614725
22 1574.470187 -2155.863100
23 -3241.010193 2869.966634
24 2174.970370 1276.599934
25 4532.836084 481.182186
26 -1206.080983 2782.544397
DEMAND_SECTION
1 0
2 3
3 9
4 9
5 8
6 1
7 10
8 3
9 1
10 56
11 70
12 8
13 3
14 51
15 6
16 4
17 50
18 5
19 3
20 8
21 8
22 1
23 1
24 1
25 87
26 2
DEPOT_SECTION
1
-1
EOF
