NAME : mamut-hong_kong-n100-poi
COMMENT : Mamut2026 euclidean metric; city hong_kong; 3-decimal seconds/meters; ENU ref in mamut-hong_kong-n100-poi.vrp.json
TYPE : CVRP
DIMENSION : 101
EDGE_WEIGHT_TYPE : EXPLICIT
EDGE_WEIGHT_FORMAT : FULL_MATRIX
CAPACITY : 178
EDGE_WEIGHT_SECTION
0.000 8221.597 8767.451 6859.848 7134.504 4788.681 1811.064 7170.902 6764.616 8071.708 4398.979 5031.002 4621.195 8085.628 6761.052 6860.979 3399.648 4439.655 5923.918 5983.928 10761.459 7696.119 7087.265 3497.118 6887.781 6843.243 10813.082 8254.911 6804.780 1612.168 3972.173 2735.057 7359.703 6563.650 9058.793 8977.335 8103.391 1679.458 7026.766 6860.172 7056.158 6621.498 4910.372 6934.855 11982.497 7014.508 2779.806 3476.913 12230.667 3644.519 2762.985 4572.509 4645.086 11010.851 6962.963 6081.731 10475.190 2881.997 6943.771 4739.355 6891.199 4821.895 3751.611 7311.782 7957.505 11185.998 2892.519 6107.820 1979.137 7742.270 4707.367 4593.939 3780.874 15498.708 4996.148 2380.984 4912.579 2152.276 4561.747 4097.449 8196.426 6960.694 7383.582 7037.583 5016.957 1931.999 7008.785 2821.921 11090.709 11020.550 3137.170 1905.515 3236.528 4467.760 6870.415 6727.685 6942.107 6576.585 1219.432 6386.406 7110.667
8221.597 0.000 8971.123 4212.748 12892.470 3532.695 6873.889 1789.672 2958.746 3845.472 3953.679 3529.891 3672.507 6854.073 1604.187 4306.037 5087.949 3861.039 13083.468 6085.305 17445.289 3378.562 2931.238 4991.291 5583.382 1585.105 4622.686 4310.617 4843.394 8127.639 4592.605 5756.225 2121.886 13652.540 16548.219 3954.938 3745.812 6943.251 1715.235 13793.482 5658.957 4468.075 3545.011 13917.498 20125.717 2136.591 5736.182 4856.302 20354.960 9474.050 6481.985 3762.067 3806.709 17701.295 1332.002 2456.623 3846.396 6226.173 3941.420 3798.080 13799.485 3992.823 4786.381 2153.642 3813.568 15042.282 7956.489 5914.408 6794.540 3442.754 4102.710 6681.533 11865.215 22863.446 3620.626 7205.642 3424.328 8647.674 3997.203 4576.573 6547.986 2141.200 1926.566 2240.706 3602.485 6818.320 1272.184 6381.090 14930.900 17790.887 5552.698 6894.288 11214.167 7706.536 5505.403 4441.300 1589.374 14278.756 7214.681 5806.757 3922.017
8767.451 8971.123 0.000 11542.573 15898.660 8534.513 9289.424 9728.534 6080.326 5296.644 7134.803 9085.112 8427.652 14087.061 8922.883 11613.800 8912.212 7304.477 8842.261 3442.191 11245.761 5645.142 6049.062 8911.952 12544.399 9052.018 7002.218 12452.713 11971.900 10125.843 9053.947 6999.008 10204.896 15142.076 11794.231 5712.792 5408.913 9212.312 9491.845 15482.684 12702.592 11569.273 8878.246 15535.800 16691.651 9918.113 6945.967 7202.627 16785.651 12287.762 9920.077 7203.843 8855.091 11463.571 8806.582 7139.179 12813.187 6282.166 11393.163 9027.316 15520.795 9461.321 9004.518 10194.519 5286.842 6712.023 5952.522 3490.887 9396.585 5592.416 9451.002 4299.293 10000.256 23444.817 9176.626 6408.661 8591.600 10790.789 9058.101 9236.797 13955.794 9870.385 10050.936 10038.919 9182.076 7065.273 8780.006 6249.405 6607.789 11643.156 6596.949 9427.452 9345.410 4319.714 12480.070 11623.503 9221.978 10558.226 8967.171 3427.823 11492.031
6859.848 4212.748 11542.573 0.000 9295.146 3096.289 5065.666 2450.457 5830.480 7323.651 4522.926 2543.100 3242.664 2737.371 3028.893 93.420 3631.835 4344.703 12681.575 8143.017 17456.144 6762.372 6027.535 3554.785 1371.141 2942.835 8787.384 1396.327 632.628 5959.088 3128.828 5604.152 2095.339 10562.612 15914.199 7770.963 7256.874 5191.336 2595.046 10609.552 1449.658 339.817 2757.777 10749.455 18563.833 2110.530 5625.939 4861.931 18839.858 6434.062 4200.759 4410.145 2874.072 17710.871 3284.918 4545.999 3991.212 6427.774 279.698 2698.494 10602.339 2348.153 3315.438 2060.701 7246.110 16536.636 8119.788 8064.182 4908.126 6838.890 2420.930 7923.718 10586.422 19566.723 2478.228 7172.468 3012.235 6200.655 2759.956 2946.660 2503.117 2122.427 2287.476 1992.031 2466.436 6437.724 3344.686 6567.730 16428.052 17744.950 5739.086 4994.925 10089.804 8706.556 1293.366 258.948 2826.960 13436.423 5640.679 8115.398 376.665
7134.504 12892.470 15898.660 9295.146 0.000 9649.172 6938.818 11209.153 12789.634 14349.957 10247.774 9450.771 9582.750 8139.427 11307.740 9224.465 8234.854 10178.375 10803.997 12950.693 15047.491 13857.271 13110.402 8305.498 8221.988 11310.988 16776.357 10298.478 8769.516 5848.271 8547.802 9276.593 11078.357 2506.968 12422.977 15158.864 14346.133 6967.528 11213.639 2215.801 8277.924 8956.790 9500.390 2350.167 12406.195 10892.122 9332.811 9566.955 12744.669 3750.543 6758.972 10340.392 9280.998 15244.648 11597.577 11668.457 13144.944 9780.259 9551.353 9228.377 2167.912 8943.106 8415.944 11029.621 14238.013 17537.123 10004.012 13039.961 6898.069 13921.500 8844.366 11670.481 7758.532 10328.978 9345.099 9493.329 9716.843 5162.305 9044.651 8490.828 8507.086 10866.299 11221.224 10827.593 9360.322 8893.970 11663.245 9770.264 17457.680 15148.116 9732.689 6829.607 7954.324 11601.373 8274.936 9039.276 11304.953 10247.405 7071.681 13288.446 9671.807
4788.681 3532.695 8534.513 3096.289 9649.172 0.000 3342.588 2404.713 3350.497 4968.152 1430.528 557.655 182.504 5552.843 1988.153 3154.384 1558.440 1253.029 10144.577 5102.068 14782.827 4420.730 3638.142 1463.614 4010.084 2061.057 7150.175 4259.825 3454.957 4595.797 1111.257 2729.925 2663.012 10187.517 13529.189 5658.748 4935.397 3415.316 2244.449 10352.570 4168.139 3067.003 345.180 10470.783 16767.495 2299.557 2735.925 1866.568 17011.837 6063.368 2999.637 1334.422 396.526 15039.851 2217.351 2083.154 5867.472 3474.482 3006.823 528.747 10362.466 965.552 1277.946 2620.154 4867.116 13468.139 5247.108 5043.657 3261.880 4493.523 993.928 4831.136 8530.192 19407.482 642.431 4337.484 127.046 5129.656 649.221 1159.525 5426.391 2241.989 2649.655 2350.435 648.777 3722.149 2270.767 3626.017 13358.906 15096.973 2752.452 3361.598 7922.213 5645.506 3945.558 3133.294 2153.929 11142.279 3710.734 5129.955 3139.355
1811.064 6873.889 9289.424 5065.666 6938.818 3342.588 0.000 5611.857 5986.226 7481.873 3433.888 3456.327 3202.047 6327.006 5321.248 5063.113 1804.013 3405.353 7722.081 6101.714 12551.765 7021.732 6314.089 1903.839 5085.060 5383.369 10058.439 6461.980 4994.489 1282.454 2352.794 2368.213 5739.380 7019.814 10866.202 8332.146 7489.198 135.296 5498.036 7233.665 5254.839 4818.674 3378.637 7338.247 13618.114 5413.306 2424.580 2653.875 13879.933 3188.410 976.010 3563.138 3107.648 12802.538 5559.133 5032.555 8772.615 3007.452 5162.359 3163.051 7251.460 3155.041 2137.150 5689.530 7368.042 12590.606 3947.638 6167.332 173.818 7080.546 3035.604 4991.478 5526.070 16207.535 3399.100 3101.832 3454.653 1903.904 2969.128 2437.174 6417.198 5363.297 5788.264 5419.133 3419.882 2308.361 5613.167 3043.894 12490.171 12817.239 2818.461 144.248 5025.620 5236.293 5065.608 4925.460 5456.511 8377.479 609.452 6397.084 5329.610
7170.902 1789.672 9728.534 2450.457 11209.153 2404.713 5611.857 0.000 3710.978 5048.653 3414.979 2157.945 2582.623 5149.506 807.383 2543.792 3816.966 3262.989 12511.444 6501.665 17087.918 4504.253 3837.783 3716.640 3814.352 676.806 6337.180 2822.959 3074.769 6796.200 3259.089 5062.814 481.274 12114.707 15916.901 5395.500 4969.211 5703.421 239.135 12228.471 3899.982 2688.282 2261.410 12357.856 19153.192 347.159 5059.697 4154.077 19401.340 7912.146 5052.171 3235.673 2529.119 17345.194 950.412 2602.287 3545.715 5721.725 2188.154 2452.256 12230.615 2499.018 3475.788 480.612 4984.962 15327.062 7513.875 6374.995 5502.847 4578.973 2618.751 6696.090 10928.518 21291.410 2212.921 6647.169 2277.895 7242.933 2643.457 3185.371 4870.614 353.882 327.062 458.620 2192.180 6092.749 993.426 5878.784 15216.112 17411.959 4996.239 5603.162 10325.724 7640.097 3736.111 2668.084 506.650 13542.778 6048.590 6351.790 2192.035
6764.616 2958.746 6080.326 5830.480 12789.634 3350.497 5986.226 3710.978 0.000 1617.947 2558.695 3771.682 3349.826 8542.669 2925.729 5914.675 4566.388 2613.515 10698.709 3144.228 14798.311 1079.628 328.502 4503.352 7043.911 3046.557 4082.799 6514.471 6365.854 7244.807 4342.343 4030.696 4192.251 12998.030 14173.633 2369.332 1589.375 5999.394 3482.249 13219.191 7176.001 5945.717 3622.010 13322.402 18152.323 3945.556 3987.654 3370.365 18350.890 9082.893 6030.894 2451.517 3746.747 15051.391 2765.507 1319.174 6759.836 4134.546 5627.539 3868.080 13237.408 4281.628 4430.144 4189.102 1516.686 12092.771 5612.878 2964.868 5981.498 1149.568 4331.467 3950.315 10002.497 22149.303 3886.116 5072.533 3334.645 7889.703 3998.998 4451.381 8332.086 3905.022 4023.039 4072.622 3881.105 4973.129 2730.995 4264.979 11981.456 15158.976 3654.299 6065.898 9301.696 4994.105 6969.853 5972.474 3209.017 12065.302 6085.424 2848.145 5692.434
8071.708 3845.472 5296.644 7323.651 14349.957 4968.152 7481.873 5048.653 1617.947 0.000 4102.826 5380.646 4967.238 10056.264 4323.436 7411.277 6153.682 4180.103 11350.556 3218.393 15111.210 564.486 1339.740 6095.212 8583.508 4428.412 2812.621 7868.894 7886.144 8713.624 5953.376 5360.206 5520.326 14453.800 14783.716 922.087 112.677 7482.285 4839.816 14692.097 8707.830 7466.857 5235.981 14789.929 19028.260 5328.732 5310.751 4830.443 19205.750 10623.324 7599.862 4018.847 5364.491 15358.020 4107.026 2915.651 7663.758 5273.247 7102.464 5484.415 14712.930 5894.756 6033.946 5526.962 114.738 11754.377 6468.673 3000.682 7492.662 488.017 5946.915 4494.581 11039.605 23548.404 5495.637 6117.861 4950.575 9375.473 5616.819 6066.323 9824.065 5296.613 5333.778 5457.815 5489.890 6188.642 4058.220 5378.102 11644.683 15487.512 4937.350 7572.000 10325.009 5477.523 8507.971 7484.673 4573.610 12836.536 7519.528 2749.379 7150.421
4398.979 3953.679 7134.803 4522.926 10247.774 1430.528 3433.888 3414.979 2558.695 4102.826 0.000 1988.053 1302.494 6959.951 2744.874 4582.783 2080.600 178.293 9185.520 3693.984 13689.151 3613.104 2885.190 2035.234 5419.144 2862.775 6624.560 5641.631 4882.986 4702.369 2009.070 1803.938 3786.843 10452.618 12631.765 4920.204 4098.420 3453.499 3200.625 10667.129 5580.790 4497.322 1774.415 10772.113 16188.079 3424.951 1782.708 927.594 16412.656 6528.587 3498.511 192.708 1722.509 13946.375 2850.900 1682.814 6960.510 2330.806 4422.339 1896.874 10684.516 2327.382 2027.323 3753.458 3991.338 12082.591 4115.614 3649.682 3424.126 3675.881 2316.560 3423.924 7932.892 19626.427 2067.482 3289.993 1510.732 5337.646 1923.865 2169.413 6846.708 3366.470 3716.853 3509.061 2075.743 2865.076 2877.412 2488.555 11972.787 14018.448 1621.506 3509.672 7271.012 4287.406 5356.999 4563.799 3011.581 10331.848 3577.960 3760.654 4548.388
5031.002 3529.891 9085.112 2543.100 9450.771 557.655 3456.327 2157.945 3771.682 5380.646 1988.053 0.000 700.073 5004.928 1928.718 2599.549 1659.032 1810.651 10537.640 5655.792 15215.601 4824.172 4041.736 1558.711 3462.469 1968.144 7432.110 3736.154 2897.969 4659.752 1104.947 3185.964 2330.390 10122.933 13892.699 6025.142 5340.044 3546.137 2042.712 10267.251 3618.476 2509.356 214.742 10390.211 17007.950 1983.569 3197.937 2364.150 17259.322 5951.615 2959.469 1890.286 402.955 15472.290 2199.049 2466.396 5494.412 3964.814 2462.993 294.376 10274.075 529.400 1319.187 2283.136 5283.836 14007.317 5717.382 5594.356 3351.605 4898.690 611.439 5380.939 8802.991 19335.975 115.732 4791.994 494.327 5140.765 487.870 1054.780 4872.412 1930.026 2353.758 2008.675 109.457 4133.973 2260.861 4112.852 13898.317 15523.930 3252.101 3452.129 8217.902 6180.068 3396.743 2575.995 2019.394 11479.968 3892.800 5674.962 2600.240
4621.195 3672.507 8427.652 3242.664 9582.750 182.504 3202.047 2582.623 3349.826 4967.238 1302.494 700.073 0.000 5660.978 2145.791 3298.191 1436.032 1127.668 9962.191 4990.281 14600.885 4425.592 3645.365 1344.727 4119.117 2223.279 7201.963 4425.287 3582.337 4463.195 1035.025 2548.446 2845.067 10081.237 13347.685 5678.410 4938.478 3270.801 2418.916 10251.856 4279.742 3200.861 486.062 10368.703 16597.321 2481.340 2554.897 1689.865 16840.728 5973.955 2899.419 1224.354 435.086 14857.898 2366.302 2110.602 6049.898 3297.439 3161.949 600.884 10262.598 1039.861 1179.888 2802.332 4864.254 13309.053 5067.553 4938.040 3127.098 4497.347 1048.127 4681.093 8356.899 19300.618 768.807 4156.302 308.407 5008.714 670.768 1112.236 5544.312 2423.688 2830.310 2532.794 778.693 3539.672 2417.787 3448.414 13199.970 14914.819 2576.964 3226.248 7746.437 5483.386 4056.233 3270.407 2321.284 10962.383 3555.069 5033.196 3297.456
8085.628 6854.073 14087.061 2737.371 8139.427 5552.843 6327.006 5149.506 8542.669 10056.264 6959.951 5004.928 5660.978 0.000 5765.306 2647.907 5507.229 6787.341 13999.568 10651.252 18841.529 9493.870 8751.323 5465.723 1542.768 5676.683 11468.986 2753.742 2176.915 6760.637 5174.954 7639.055 4744.082 9946.538 16974.306 10506.886 9991.054 6462.149 5313.613 9886.259 1387.965 2596.984 5209.754 10035.357 18937.868 4820.990 7674.337 7074.247 19240.425 6313.185 5351.000 6883.637 5237.544 19089.459 6017.134 7240.985 5380.053 8493.701 2975.591 5063.212 9864.545 4634.675 5290.339 4718.341 9977.009 18641.073 10004.093 10596.340 6153.190 9570.457 4656.327 10221.632 11492.247 18428.135 4911.176 9060.293 5499.218 6720.110 5047.673 4979.239 397.895 4839.268 4942.769 4696.901 4906.226 8256.315 6075.643 8612.008 18535.522 19092.418 7884.292 6209.601 11131.319 10877.234 1608.316 2572.671 5555.182 14462.147 6934.883 10679.850 2957.672
6761.052 1604.187 8922.883 3028.893 11307.740 1988.153 5321.248 807.383 2925.729 4323.436 2744.874 1928.718 2145.791 5765.306 0.000 3119.480 3521.366 2609.065 11915.040 5697.855 16432.349 3769.011 3072.285 3422.834 4347.076 133.047 5845.354 3589.026 3622.184 6558.154 3006.232 4474.977 1282.065 12049.427 15346.277 4742.075 4250.462 5398.420 569.298 12189.328 4453.937 3211.221 1957.160 12313.444 18725.913 1020.383 4465.376 3557.389 18965.374 7869.901 4886.219 2557.041 2224.120 16689.534 295.226 1795.204 4259.631 5074.710 2792.899 2202.419 12195.301 2389.352 3206.764 1272.985 4252.777 14544.419 6860.340 5569.301 5232.185 3844.853 2498.679 5934.316 10473.891 21259.368 2017.354 6024.867 1870.562 7060.915 2402.137 2979.840 5514.599 981.807 1133.061 1148.153 1999.019 5527.022 362.347 5232.473 14433.343 16762.758 4358.592 5332.533 9847.590 6896.636 4269.403 3213.291 305.199 13007.664 5698.749 5544.476 2831.173
6860.979 4306.037 11613.800 93.420 9224.465 3154.384 5063.113 2543.792 5914.675 7411.277 4582.783 2599.549 3298.191 2647.907 3119.480 0.000 3653.304 4404.662 12693.360 8210.853 17472.848 6849.727 6113.425 3577.897 1278.082 3034.137 8880.660 1403.299 540.257 5940.847 3157.747 5641.165 2188.313 10506.890 15917.504 7861.529 7344.895 5189.675 2687.827 10550.950 1356.273 282.825 2814.290 10691.222 18543.415 2203.702 5663.741 4907.660 18820.439 6386.010 4189.243 4472.471 2923.925 17727.383 3376.454 4627.755 4040.245 6467.930 370.170 2747.597 10543.342 2388.816 3341.019 2153.823 7333.357 16584.735 8152.814 8133.606 4904.225 6926.262 2458.155 7978.448 10580.332 19501.087 2531.854 7204.460 3072.584 6172.783 2803.430 2973.509 2417.730 2215.384 2380.635 2085.342 2520.596 6465.054 3436.387 6606.930 16476.273 17760.219 5782.543 4990.050 10088.416 8754.793 1200.367 186.330 2919.039 13437.133 5641.567 8187.103 451.447
3399.648 5087.949 8912.212 3631.835 8234.854 1558.440 1804.013 3816.966 4566.388 6153.682 2080.600 1659.032 1436.032 5507.229 3521.366 3653.304 0.000 1979.823 9073.415 5507.210 13828.399 5641.814 4883.163 100.343 4050.378 3580.838 8548.028 4993.949 3736.540 3040.021 572.588 2133.121 3970.814 8649.876 12364.079 6933.990 6140.918 1889.131 3696.746 8826.248 4225.381 3456.986 1574.627 8941.448 15360.139 3633.679 2169.995 1710.401 15614.439 4571.906 1488.582 2139.073 1303.643 14083.517 3765.250 3442.477 7077.682 2987.676 3662.392 1364.712 8838.049 1426.078 351.984 3922.041 6044.338 13137.562 4548.727 5510.085 1710.820 5708.647 1314.635 4796.178 7180.240 17868.094 1610.260 3596.700 1663.724 3573.162 1175.604 710.061 5491.787 3581.741 4006.727 3648.816 1631.166 2826.555 3820.952 3104.780 13031.570 14120.740 2410.880 1811.174 6617.121 5379.166 4007.642 3554.410 3652.522 9918.801 2237.534 5673.871 3824.931
4439.655 3861.039 7304.477 4344.703 10178.375 1253.029 3405.353 3262.989 2613.515 4180.103 178.293 1810.651 1127.668 6787.341 2609.065 4404.662 1979.823 0.000 9310.098 3864.819 13832.014 3679.019 2937.135 1928.115 5246.014 2724.295 6660.410 5465.097 4706.452 4680.921 1870.891 1898.602 3627.235 10424.670 12750.440 4981.464 4171.301 3431.823 3051.872 10633.256 5407.133 4320.002 1597.256 10739.981 16268.851 3264.110 1881.691 996.168 16495.942 6469.846 3421.731 162.053 1550.857 14089.270 2727.304 1656.558 6808.552 2467.344 4244.136 1724.199 10649.731 2156.844 1902.674 3593.026 4069.764 12258.124 4256.786 3817.342 3386.697 3743.706 2149.062 3600.855 8010.218 19609.166 1891.016 3416.711 1332.486 5306.524 1757.006 2024.890 6671.872 3205.494 3561.499 3346.043 1899.037 2961.121 2756.644 2625.029 12148.369 14159.570 1749.552 3474.810 7354.276 4459.022 5183.495 4386.154 2869.650 10438.534 3579.322 3923.225 4370.383
5923.918 13083.468 8842.261 12681.575 10803.997 10144.577 7722.081 12511.444 10698.709 11350.556 9185.520 10537.640 9962.191 13999.568 11915.040 12693.360 9073.415 9310.098 0.000 8204.185 4842.460 11233.616 10947.769 9159.046 12807.061 12026.131 14087.421 14060.972 12687.440 7294.009 9617.958 7450.125 12806.156 8900.615 3478.133 12228.830 11431.629 7587.788 12320.321 9313.705 12976.530 12471.332 10368.225 9288.522 7902.223 12441.122 7455.540 8364.105 8026.987 8616.327 8685.391 9377.344 10134.778 5089.902 12035.892 10644.015 16011.985 6865.038 12731.281 10271.216 9368.831 10469.598 9410.585 12764.019 11257.187 7110.942 5136.253 8419.200 7893.583 11243.476 10367.997 6861.370 3057.404 15380.925 10536.446 5895.591 10270.410 7517.669 10128.858 9779.960 14118.853 12383.031 12781.153 12494.981 10555.806 6423.459 12062.932 6708.508 7054.139 5096.633 7564.024 7825.077 3050.291 5878.714 12787.599 12574.784 12163.517 1722.866 7115.519 8710.314 12895.201
5983.928 6085.305 3442.191 8143.017 12950.693 5102.068 6101.714 6501.665 3144.228 3218.393 3693.984 5655.792 4990.281 10651.252 5697.855 8210.853 5507.210 3864.819 8204.185 0.000 11898.724 3237.734 3253.918 5500.074 9109.198 5830.527 5886.741 9124.951 8550.379 7102.512 5619.741 3738.255 6963.253 12545.410 11603.620 4051.313 3312.527 6045.362 6262.541 12844.045 9268.981 8152.912 5446.773 12918.510 15990.017 6648.294 3682.311 3799.238 16149.792 9235.482 6617.599 3768.441 5415.660 12146.597 5631.732 3908.651 9817.716 3172.268 8008.189 5588.796 12874.857 6021.255 5579.029 6946.129 3139.278 8957.274 3650.515 218.335 6184.542 3224.888 6009.447 1520.567 8265.329 21333.454 5744.486 3655.486 5164.028 7788.469 5616.493 5800.358 10528.110 6596.446 6828.658 6762.167 5750.676 4086.993 5617.374 3193.530 8845.880 12273.282 3299.418 6230.681 7549.899 2341.707 9045.831 8211.291 6002.878 9752.815 5883.942 509.554 8115.932
10761.459 17445.289 11245.761 17456.144 15047.491 14782.827 12551.765 17087.918 14798.311 15111.210 13689.151 15215.601 14600.885 18841.529 16432.349 17472.848 13828.399 13832.014 4842.460 11898.724 0.000 15121.978 14998.196 13909.424 17635.363 16551.611 17639.064 18821.699 17492.012 12129.624 14356.284 12053.900 17420.301 12831.642 2860.757 15902.264 15208.099 12416.964 16882.112 13237.632 17805.870 17259.983 15033.698 13175.397 7236.971 17053.549 12050.292 12944.294 7144.711 13333.355 13519.453 13875.678 14815.616 257.276 16517.985 14990.192 20625.885 11366.775 17490.031 14962.684 13295.619 15195.713 14156.067 17381.249 15035.796 6173.867 9575.365 12114.923 12724.147 15114.809 15099.831 10848.537 7641.392 17163.861 15225.639 10450.224 14905.868 12324.122 14834.279 14526.905 18957.875 16994.806 17375.607 17118.833 15244.159 11083.066 16536.786 11209.502 6196.052 398.031 12091.680 12658.043 7813.480 9804.630 17613.978 17361.737 16700.513 4812.755 11943.383 12362.124 17651.653
7696.119 3378.562 5645.142 6762.372 13857.271 4420.730 7021.732 4504.253 1079.628 564.486 3613.104 4824.172 4425.592 9493.870 3769.011 6849.727 5641.814 3679.019 11233.616 3237.734 15121.978 0.000 783.333 5580.130 8019.376 3876.177 3119.531 7326.733 7322.917 8267.667 5421.793 4967.109 4978.649 14017.301 14687.559 1310.414 515.897 7028.323 4291.951 14247.207 8144.054 6903.499 4682.813 14347.747 18836.595 4778.468 4919.958 4381.346 19022.262 10141.631 7100.378 3517.048 4817.255 15371.308 3558.860 2357.873 7218.764 4952.651 6542.853 4933.781 14266.736 5340.578 5509.479 4983.765 484.214 11981.231 6259.949 3026.552 7024.822 76.622 5394.899 4377.304 10777.516 23141.128 4939.386 5837.409 4399.652 8921.814 5069.891 5529.575 9263.616 4745.151 4794.381 4907.523 4933.272 5844.060 3511.762 5067.747 11870.788 15493.240 4560.047 7106.777 10066.976 5393.660 7943.889 6921.907 4024.020 12678.295 7088.260 2814.247 6592.694
7087.265 2931.238 6049.062 6027.535 13110.402 3638.142 6314.089 3837.783 328.502 1339.740 2885.190 4041.736 3645.365 8751.323 3072.285 6113.425 4883.163 2937.135 10947.769 3253.918 14998.196 783.333 0.000 4818.646 7264.871 3187.171 3754.450 6656.101 6576.459 7573.197 4647.177 4352.605 4317.723 13326.423 14419.577 2050.872 1299.056 6327.627 3615.578 13547.247 7392.971 6156.409 3899.525 13650.585 18436.238 4091.298 4308.982 3698.678 18632.240 9406.977 6351.431 2775.260 4034.662 15250.434 2887.408 1576.023 6765.319 4436.912 5816.017 4150.517 13565.390 4557.445 4740.116 4318.229 1246.127 12171.064 5881.950 3062.981 6308.651 857.222 4611.566 4159.710 10301.811 22477.545 4156.857 5365.984 3616.379 8217.671 4287.353 4751.572 8530.645 4054.003 4141.305 4219.671 4150.908 5286.125 2846.828 4564.600 12059.913 15361.706 3971.380 6393.300 9598.892 5200.984 7189.991 6178.751 3343.555 12332.662 6413.730 2916.313 5873.563
3497.118 4991.291 8911.952 3554.785 8305.498 1463.614 1903.839 3716.640 4503.352 6095.212 2035.234 1558.711 1344.727 5465.723 3422.834 3577.897 100.343 1928.115 9159.046 5500.074 13909.424 5580.130 4818.646 0.000 3999.513 3481.718 8474.081 4912.289 3671.548 3137.330 475.366 2173.591 3871.407 8738.065 12454.731 6869.473 6080.967 1989.367 3596.475 8912.312 4174.230 3385.573 1474.840 9028.061 15459.466 3533.821 2208.617 1709.734 15713.543 4651.423 1568.133 2085.959 1203.943 14164.680 3667.698 3366.919 6981.487 3028.117 3580.616 1264.384 8923.781 1331.571 256.124 3822.692 5986.346 13184.069 4609.267 5498.986 1809.494 5647.484 1221.396 4815.352 7277.439 17956.897 1510.300 3657.125 1567.484 3666.451 1075.510 621.136 5443.765 3481.810 3906.763 3549.373 1531.207 2893.931 3723.638 3148.311 13077.847 14202.888 2436.084 1909.911 6712.528 5414.647 3955.377 3482.025 3552.811 10011.574 2337.303 5658.113 3742.520
6887.781 5583.382 12544.399 1371.141 8221.988 4010.084 5085.060 3814.352 7043.911 8583.508 5419.144 3462.469 4119.117 1542.768 4347.076 1278.082 4050.378 5246.014 12807.061 9109.198 17635.363 8019.376 7264.871 3999.513 0.000 4271.559 10146.808 2076.544 740.197 5721.163 3675.001 6168.083 3466.386 9704.908 15901.361 9077.385 8523.014 5219.509 3947.545 9708.968 175.402 1136.750 3667.004 9853.646 18195.531 3471.116 6200.341 5561.798 18485.506 5732.560 4125.243 5341.225 3697.254 17886.559 4615.785 5733.300 4923.017 7020.532 1645.933 3522.278 9695.937 3096.336 3806.609 3431.838 8500.287 17181.646 8589.109 9053.634 4913.483 8095.979 3122.361 8704.423 10463.435 18543.901 3368.418 7638.870 3956.790 5812.392 3512.016 3478.563 1450.952 3479.070 3658.586 3355.835 3363.515 6849.744 4677.878 7144.894 17075.139 17902.253 6389.511 4983.011 10039.972 9388.047 78.269 1146.614 4167.590 13395.666 5692.490 9137.427 1690.347
6843.243 1585.105 9052.018 2942.835 11310.988 2061.057 5383.369 676.806 3046.557 4428.412 2862.775 1968.144 2223.279 5676.683 133.047 3034.137 3580.838 2724.295 12026.131 5830.527 16551.611 3876.177 3187.171 3481.718 4271.559 0.000 5901.439 3470.317 3542.819 6613.210 3056.829 4582.476 1153.790 12079.684 15454.147 4830.654 4353.814 5462.934 440.030 12215.402 4374.933 3134.868 2010.031 12340.407 18813.504 904.436 4573.832 3665.256 19054.264 7894.496 4927.582 2675.954 2279.286 16808.820 344.327 1926.975 4131.310 5191.174 2701.781 2247.903 12220.757 2412.361 3260.830 1146.299 4359.445 14677.060 6978.326 5701.601 5290.995 3951.780 2524.231 6065.186 10564.357 21285.834 2051.823 6138.279 1940.914 7107.447 2447.601 3022.419 5420.668 869.168 1001.595 1033.125 2032.887 5632.008 407.653 5348.912 14565.991 16881.222 4473.310 5391.471 9941.384 7025.740 4193.664 3133.264 172.351 13110.312 5770.710 5675.814 2734.485
10813.082 4622.686 7002.218 8787.384 16776.357 7150.175 10058.439 6337.180 4082.799 2812.621 6624.560 7432.110 7201.963 11468.986 5845.354 8880.660 8548.028 6660.410 14087.421 5886.741 17639.064 3119.531 3754.450 8474.081 10146.808 5901.439 0.000 8917.399 9408.909 11323.511 8235.752 8080.886 6725.241 17076.062 17488.581 1893.168 2756.382 10076.081 6199.717 17291.482 10236.506 9013.724 7341.536 17396.673 21819.458 6677.343 8034.646 7453.128 21991.639 13111.413 10034.129 6500.341 7533.386 17879.704 5559.751 5108.098 7767.162 8063.547 8524.826 7611.626 17308.600 7960.814 8360.932 6752.019 2920.376 13710.628 9276.061 5670.369 10046.114 3077.281 8040.599 7264.792 13852.038 26231.900 7545.767 8926.060 7095.797 11962.196 7780.133 8307.690 11168.807 6667.918 6526.777 6795.401 7534.321 8962.421 5494.593 8174.170 13605.441 18023.941 7678.501 10133.022 13137.583 8210.877 10068.545 9000.421 5988.697 15608.712 10168.176 5384.738 8520.850
8254.911 4310.617 12452.713 1396.327 10298.478 4259.825 6461.980 2822.959 6514.471 7868.894 5641.631 3736.154 4425.287 2753.742 3589.026 1403.299 4993.949 5465.097 14060.972 9124.951 18821.699 7326.733 6656.101 4912.289 2076.544 3470.317 8917.399 0.000 1632.797 7340.435 4468.910 6892.651 2348.589 11740.647 17307.029 8174.206 7787.665 6587.546 3040.795 11759.048 2027.774 1665.244 3943.984 11902.418 19938.835 2568.915 6909.814 6099.350 20217.339 7685.769 5592.531 5503.908 4108.131 19076.968 3771.734 5324.468 2846.846 7693.835 1331.673 3941.381 11747.747 3646.714 4666.135 2343.005 7806.768 17721.277 9422.839 9022.857 6304.399 7401.284 3734.410 9065.414 11982.256 20619.958 3694.997 8482.901 4157.034 7555.952 4036.336 4295.305 2386.620 2609.980 2536.160 2441.998 3679.602 7771.388 3816.304 7839.290 17611.713 19114.689 6986.513 6391.030 11485.837 9904.565 2025.106 1557.009 3312.548 14831.441 7035.989 9037.156 1170.770
6804.780 4843.394 11971.900 632.628 8769.516 3454.957 4994.489 3074.769 6365.854 7886.144 4882.986 2897.969 3582.337 2176.915 3622.184 540.257 3736.540 4706.452 12687.440 8550.379 17492.012 7322.917 6576.459 3671.548 740.197 3542.819 9408.909 1632.797 0.000 5777.308 3290.676 5799.831 2727.607 10127.149 15859.713 8360.036 7822.845 5125.378 3210.852 10156.181 832.117 420.184 3109.909 10298.255 18349.750 2732.135 5826.965 5121.758 18632.218 6053.673 4075.889 4788.144 3180.002 17745.279 3886.608 5064.628 4416.981 6641.855 910.083 3002.093 10146.530 2602.882 3452.064 2692.549 7805.388 16793.066 8279.354 8483.408 4828.915 7399.534 2651.408 8236.425 10474.000 19067.561 2815.505 7327.421 3387.115 5953.600 3025.092 3097.638 1990.842 2741.023 2919.147 2616.182 2807.435 6563.040 3947.927 6774.667 16685.416 17770.809 5978.813 4908.527 10009.791 8971.564 662.104 409.810 3434.714 13366.375 5589.354 8551.557 970.560
1612.168 8127.639 10125.843 5959.088 5848.271 4595.797 1282.454 6796.200 7244.807 8713.624 4702.369 4659.752 4463.195 6760.637 6558.154 5940.847 3040.021 4680.921 7294.009 7102.512 12129.624 8267.667 7573.197 3137.330 5721.163 6613.210 11323.511 7340.435 5777.308 0.000 3558.227 3455.568 6883.349 5753.226 10217.176 9577.202 8725.791 1249.298 6698.889 5979.836 5878.466 5675.212 4603.197 6080.133 12606.262 6574.058 3511.027 3886.642 12881.024 2161.965 1792.441 4837.354 4334.517 12373.641 6805.021 6313.899 9813.797 3933.353 6096.889 4371.219 5999.923 4303.769 3352.386 6832.565 8599.263 12797.660 4411.215 7192.356 1336.852 8324.456 4183.305 5851.562 4748.985 14928.508 4591.355 3738.001 4703.331 687.549 4172.926 3612.817 6919.160 6527.084 6949.202 6567.815 4611.715 3067.295 6860.926 3928.460 12702.549 12365.201 3911.377 1238.696 4371.352 5902.577 5717.645 5783.460 6676.335 7705.383 1230.875 7443.429 6262.464
3972.173 4592.605 9053.947 3128.828 8547.802 1111.257 2352.794 3259.089 4342.343 5953.376 2009.070 1104.947 1035.025 5174.954 3006.232 3157.747 572.588 1870.891 9617.958 5619.741 14356.284 5421.793 4647.177 475.366 3675.001 3056.829 8235.752 4468.910 3290.676 3558.227 0.000 2509.885 3401.080 9085.525 12923.769 6690.696 5930.771 2445.189 3147.657 9245.809 3847.667 2980.892 1049.249 9365.002 15930.758 3066.858 2538.178 1904.167 16185.693 4952.338 1897.186 2015.542 786.146 14611.888 3262.276 3136.933 6506.183 3355.752 3138.542 813.668 9255.139 858.578 220.942 3352.065 5847.580 13516.030 4998.763 5600.500 2246.659 5491.884 751.467 5051.465 7752.658 18305.050 1046.670 4048.731 1195.394 4055.864 617.098 196.438 5125.711 3015.634 3440.807 3079.303 1067.498 3309.238 3320.733 3485.952 13408.981 14652.705 2714.541 2347.182 7187.579 5713.093 3625.204 3073.312 3118.127 10483.991 2806.946 5737.266 3298.141
2735.057 5756.225 6999.008 5604.152 9276.593 2729.925 2368.213 5062.814 4030.696 5360.206 1803.938 3185.964 2548.446 7639.055 4474.977 5641.165 2133.121 1898.602 7450.125 3738.255 12053.900 4967.109 4352.605 2173.591 6168.083 4582.476 8080.886 6892.651 5799.831 3455.568 2509.885 0.000 5372.321 9126.202 10871.676 6256.969 5386.342 2320.138 4870.209 9383.520 6342.256 5480.526 2993.733 9474.266 14387.003 5005.823 56.437 917.645 14610.115 5534.864 2921.172 1994.651 2795.101 12310.983 4614.526 3442.839 8581.112 854.680 5580.634 2955.467 9407.790 3258.168 2362.374 5332.059 5245.569 11013.593 2532.901 3799.589 2446.489 5015.159 3183.343 2747.484 6136.393 18188.301 3210.161 1608.440 2852.332 4140.547 2857.251 2704.312 7615.041 4947.278 5337.715 5067.316 3227.193 1062.601 4647.073 977.234 10907.058 12369.817 456.479 2494.471 5469.319 3249.014 6121.857 5569.409 4716.207 8542.638 2226.017 4029.407 5731.684
7359.703 2121.886 10204.896 2095.339 11078.357 2663.012 5739.380 481.274 4192.251 5520.326 3786.843 2330.390 2845.067 4744.082 1282.065 2188.313 3970.814 3627.235 12806.156 6963.253 17420.301 4978.649 4317.723 3871.407 3466.386 1153.790 6725.241 2348.589 2727.607 6883.349 3401.080 5372.321 0.000 12078.557 16191.094 5846.277 5439.385 5838.696 713.805 12176.535 3538.159 2365.297 2467.940 12308.786 19330.855 366.754 5373.173 4476.011 19584.426 7875.864 5111.640 3614.261 2723.963 17677.517 1430.485 3072.672 3208.901 6064.594 1821.482 2620.619 12176.401 2586.881 3621.589 51.367 5458.306 15761.639 7855.272 6840.076 5619.535 5053.066 2707.096 7116.327 11133.333 21224.555 2363.984 6970.608 2536.663 7293.777 2799.014 3302.476 4450.921 425.502 198.983 322.175 2343.135 6382.763 1471.536 6220.556 15650.835 17739.627 5336.747 5718.895 10546.707 8044.801 3388.677 2330.488 985.906 13795.523 6207.877 6822.125 1800.529
6563.650 13652.540 15142.076 10562.612 2506.968 10187.517 7019.814 12114.707 12998.030 14453.800 10452.618 10122.933 10081.237 9946.538 12049.427 10506.890 8649.876 10424.670 8900.615 12545.410 12831.642 14017.301 13326.423 8738.065 9704.908 12079.684 17076.062 11740.647 10127.149 5753.226 9085.525 9126.202 12078.557 0.000 10118.499 15325.679 14469.539 6999.981 12071.158 413.948 9796.430 10225.652 10119.750 405.462 9903.487 11832.705 9179.020 9636.312 10241.176 4203.896 7188.904 10582.829 9867.562 13014.443 12321.957 12038.913 14539.336 9430.525 10788.659 9859.567 470.345 9669.040 8909.572 12027.571 14339.185 15884.155 9198.906 12671.382 7041.384 14073.045 9555.841 11125.199 5976.776 9219.967 10032.121 8909.385 10279.365 5118.684 9661.906 9082.439 10278.470 11796.635 12191.303 11792.298 10050.410 8484.898 12383.528 9380.491 15814.070 12900.414 9571.143 6951.208 6347.329 10835.980 9743.541 10321.700 12108.654 8098.507 6934.317 12949.769 10930.942
9058.793 16548.219 11794.231 15914.199 12422.977 13529.189 10866.202 15916.901 14173.633 14783.716 12631.765 13892.699 13347.685 16974.306 15346.277 15917.504 12364.079 12750.440 3478.133 11603.620 2860.757 14687.559 14419.577 12454.731 15901.361 15454.147 17488.581 17307.029 15859.713 10217.176 12923.769 10871.676 16191.094 10118.499 0.000 15648.618 14868.012 10736.364 15733.074 10517.043 16064.770 15680.026 13733.608 10444.899 5115.037 15828.610 10880.908 11789.050 5134.203 11101.569 11792.647 12824.204 13490.368 2992.204 15477.650 14114.944 19385.384 10323.230 15987.906 13617.326 10575.156 13781.833 12709.884 16147.382 14693.264 8144.859 8611.598 11820.852 11030.908 14694.932 13674.849 10310.355 5489.945 14427.249 13882.589 9347.020 13655.920 10287.005 13463.913 13074.136 17136.046 15771.139 16176.775 15875.682 13902.508 9826.497 15506.894 10167.719 8134.289 2838.022 11011.789 10951.361 5861.438 9306.651 15890.404 15786.048 15586.831 2512.162 10277.776 12103.922 16154.058
8977.335 3954.938 5712.792 7770.963 15158.864 5658.748 8332.146 5395.500 2369.332 922.087 4920.204 6025.142 5678.410 10506.886 4742.075 7861.529 6933.990 4981.464 12228.830 4051.313 15902.264 1310.414 2050.872 6869.473 9077.385 4830.654 1893.168 8174.206 8360.036 9577.202 6690.696 6256.969 5846.277 15325.679 15648.618 0.000 875.984 8338.542 5208.813 15556.930 9190.343 7945.577 5899.744 15657.116 19933.792 5704.415 6208.549 5690.611 20108.551 11448.480 8400.215 4819.412 6053.988 16146.748 4491.873 3576.010 7640.897 6191.864 7532.430 6159.061 15576.606 6550.013 6788.500 5860.528 1032.389 12316.184 7383.405 3833.133 8334.885 1252.767 6613.073 5386.027 11960.666 24440.742 6140.873 7039.935 5626.592 10232.103 6306.486 6788.991 10249.636 5680.183 5651.281 5831.960 6132.882 7103.034 4434.987 6298.154 12207.885 16282.287 5840.555 8417.032 11245.792 6350.369 9000.329 7952.351 4957.116 13731.980 8394.640 3561.268 7562.190
8103.391 3745.812 5408.913 7256.874 14346.133 4935.397 7489.198 4969.211 1589.375 112.677 4098.420 5340.044 4938.478 9991.054 4250.462 7344.895 6140.918 4171.301 11431.629 3312.527 15208.099 515.897 1299.056 6080.967 8523.014 4353.814 2756.382 7787.665 7822.845 8725.791 5930.771 5386.342 5439.385 14469.539 14868.012 875.984 0.000 7491.640 4762.323 14705.234 8645.969 7403.925 5198.580 14803.926 19098.639 5252.500 5337.454 4840.357 19277.472 10623.514 7592.697 4009.665 5331.904 15455.179 4030.053 2873.709 7559.795 5316.482 7033.559 5449.193 14725.654 5856.438 6015.135 5446.752 174.789 11865.860 6534.158 3095.180 7497.380 442.001 5910.546 4573.062 11096.713 23573.078 5455.267 6169.935 4915.091 9385.280 5584.478 6040.749 9755.903 5221.165 5251.855 5381.561 5449.134 6227.069 3980.323 5423.601 11756.139 15583.908 4967.218 7577.632 10382.766 5561.373 8447.252 7420.406 4497.245 12911.735 7535.928 2847.471 7079.515
1679.458 6943.251 9212.312 5191.336 6967.528 3415.316 135.296 5703.421 5999.394 7482.285 3453.499 3546.137 3270.801 6462.149 5398.420 5189.675 1889.131 3431.823 7587.788 6045.362 12416.964 7028.323 6327.627 1989.367 5219.509 5462.934 10076.081 6587.546 5125.378 1249.298 2445.189 2320.138 5838.696 6999.981 10736.364 8338.542 7491.640 0.000 5585.814 7220.480 5389.409 4946.555 3462.482 7323.055 13509.801 5509.881 2376.574 2651.847 13770.309 3219.478 1111.153 3588.091 3191.315 12667.790 5632.667 5068.047 8884.095 2932.831 5285.322 3252.226 7239.302 3257.325 2227.655 5789.049 7368.210 12466.704 3830.898 6115.193 309.038 7086.185 3138.384 4913.181 5404.433 16177.371 3491.826 2994.925 3529.298 1893.756 3059.965 2536.437 6552.482 5459.337 5884.471 5517.916 3512.664 2208.723 5685.883 2963.550 12366.481 12682.746 2773.560 264.413 4898.753 5137.539 5199.819 5053.176 5539.156 8249.125 474.221 6349.002 5452.541
7026.766 1715.235 9491.845 2595.046 11213.639 2244.449 5498.036 239.135 3482.249 4839.816 3200.625 2042.712 2418.916 5313.613 569.298 2687.827 3696.746 3051.872 12320.321 6262.541 16882.112 4291.951 3615.578 3596.475 3947.545 440.030 6199.717 3040.795 3210.852 6698.889 3147.657 4870.209 713.805 12071.158 15733.074 5208.813 4762.323 5585.814 0.000 12192.623 4040.711 2814.045 2127.828 12320.522 19008.601 495.606 4865.496 3957.951 19254.385 7872.370 4971.925 3019.134 2398.252 17139.383 733.095 2363.565 3761.684 5515.367 2341.149 2335.167 12195.892 2421.111 3361.173 707.362 4773.918 15091.147 7306.910 6135.902 5394.316 4367.069 2539.145 6463.972 10774.608 21260.002 2107.549 6447.461 2118.624 7162.029 2530.566 3086.439 5044.305 474.364 566.132 623.378 2087.175 5906.771 782.134 5672.707 14980.171 17207.804 4791.493 5494.838 10165.241 7412.040 3869.300 2801.689 273.238 13367.991 5919.312 6113.202 2358.132
6860.172 13793.482 15482.684 10609.552 2215.801 10352.570 7233.665 12228.471 13219.191 14692.097 10667.129 10267.251 10251.856 9886.259 12189.328 10550.950 8826.248 10633.256 9313.705 12844.045 13237.632 14247.207 13547.247 8912.312 9708.968 12215.402 17291.482 11759.048 10156.181 5979.836 9245.809 9383.520 12176.535 413.948 10517.043 15556.930 14705.234 7220.480 12192.623 0.000 9794.057 10271.119 10272.208 150.058 10197.543 11939.909 9437.000 9866.462 10536.962 4321.689 7353.409 10792.514 10024.004 13419.277 12465.324 12234.789 14572.810 9714.243 10841.757 10009.136 58.116 9803.045 9075.609 12125.784 14577.637 16291.682 9534.038 12965.949 7246.580 14304.211 9691.609 11436.914 6383.864 9070.439 10173.760 9219.123 10441.119 5329.778 9812.765 9234.509 10226.839 11905.425 12294.621 11895.388 10191.646 8772.141 12527.701 9668.922 16221.200 13303.797 9831.679 7158.771 6745.213 11171.003 9750.462 10365.093 12238.881 8509.899 7177.620 13241.321 10980.621
7056.158 5658.957 12702.592 1449.658 8277.924 4168.139 5254.839 3899.982 7176.001 8707.830 5580.790 3618.476 4279.742 1387.965 4453.937 1356.273 4225.381 5407.133 12976.530 9268.981 17805.870 8144.054 7392.971 4174.230 175.402 4374.933 10236.506 2027.774 832.117 5878.466 3847.667 6342.256 3538.159 9796.430 16064.770 9190.343 8645.969 5389.409 4040.711 9794.057 0.000 1244.912 3824.379 9939.338 18336.152 3559.193 6374.357 5732.414 18627.170 5850.475 4293.280 5500.595 3859.765 18056.936 4718.724 5868.253 4872.683 7194.502 1717.631 3684.231 9780.135 3260.527 3980.518 3505.387 8625.748 17355.849 8764.484 9211.708 5083.025 8220.674 3288.711 8873.850 10622.948 18604.022 3525.967 7814.218 4112.631 5959.577 3677.455 3651.233 1279.624 3569.640 3732.453 3441.465 3520.608 7025.144 4780.015 7319.150 17249.302 18072.056 6562.040 5151.882 10203.335 9560.756 224.631 1241.802 4266.409 13558.305 5862.643 9292.965 1746.361
6621.498 4468.075 11569.273 339.817 8956.790 3067.003 4818.674 2688.282 5945.717 7466.857 4497.322 2509.356 3200.861 2596.984 3211.221 282.825 3456.986 4320.002 12471.332 8152.912 17259.983 6903.499 6156.409 3385.573 1136.750 3134.868 9013.724 1665.244 420.184 5675.212 2980.892 5480.526 2365.297 10225.652 15680.026 7945.577 7403.925 4946.555 2814.045 10271.119 1244.912 0.000 2722.938 10411.184 18274.547 2342.917 5505.249 4773.447 18552.550 6103.187 3932.500 4396.754 2808.935 17514.105 3479.070 4645.080 4322.938 6315.201 599.687 2631.132 10263.742 2248.380 3155.251 2327.234 7385.833 16451.878 7979.559 8082.668 4657.814 6980.119 2307.195 7870.213 10328.988 19226.925 2432.121 7029.118 2994.070 5898.116 2668.817 2792.140 2404.455 2348.258 2551.969 2230.955 2422.810 6278.684 3541.130 6451.368 16343.815 17544.435 5640.163 4742.110 9844.088 8624.623 1058.808 108.261 3031.287 13195.657 5402.286 8146.516 715.809
4910.372 3545.011 8878.246 2757.777 9500.390 345.180 3378.637 2261.410 3622.010 5235.981 1774.415 214.742 486.062 5209.754 1957.160 2814.290 1574.627 1597.256 10368.225 5446.773 15033.698 4682.813 3899.525 1474.840 3667.004 2010.031 7341.536 3943.984 3109.909 4603.197 1049.249 2993.733 2467.940 10119.750 13733.608 5899.744 5198.580 3462.482 2127.828 10272.208 3824.379 2722.938 0.000 10393.353 16892.156 2113.074 3004.025 2159.781 17141.038 5964.465 2938.093 1679.519 271.169 15290.511 2213.824 2328.832 5651.874 3763.631 2675.997 272.327 10280.236 660.081 1250.811 2422.192 5137.366 13794.673 5522.585 5387.360 3282.415 4756.687 713.519 5166.422 8674.163 19337.191 298.625 4601.489 298.726 5104.908 460.588 1037.756 5081.476 2057.648 2477.264 2148.359 303.928 3955.988 2272.845 3912.700 13685.623 15343.924 3048.042 3382.957 8080.880 5968.219 3602.060 2790.184 2078.003 11329.337 3791.577 5471.322 2812.104
6934.855 13917.498 15535.800 10749.455 2350.167 10470.783 7338.247 12357.856 13322.402 14789.929 10772.113 10390.211 10368.703 10035.357 12313.444 10691.222 8941.448 10739.981 9288.522 12918.510 13175.397 14347.747 13650.585 9028.061 9853.646 12340.407 17396.673 11902.418 10298.255 6080.133 9365.002 9474.266 12308.786 405.462 10444.899 15657.116 14803.926 7323.055 12320.522 150.058 9939.338 10411.184 10393.353 0.000 10071.119 12070.491 9527.513 9966.515 10410.968 4448.421 7471.226 10898.938 10144.204 13355.167 12588.715 12345.274 14714.628 9794.842 10980.859 10130.900 185.073 9928.150 9193.403 12257.991 14675.411 16282.564 9590.011 13042.223 7353.689 14404.350 9816.329 11505.204 6376.150 8945.961 10297.291 9288.158 10560.130 5434.501 9934.212 9355.598 10375.562 12035.712 12425.937 12026.712 10315.266 8851.150 12650.921 9747.549 16212.881 13237.538 9921.311 7265.176 6751.590 11227.153 9894.867 10505.434 12365.027 8459.911 7272.850 13318.922 11120.194
11982.497 20125.717 16691.651 18563.833 12406.195 16767.495 13618.114 19153.192 18152.323 19028.260 16188.079 17007.950 16597.321 18937.868 18725.913 18543.415 15360.139 16268.851 7902.223 15990.017 7236.971 18836.595 18436.238 15459.466 18195.531 18813.504 21819.458 19938.835 18349.750 12606.262 15930.758 14387.003 19330.855 9903.487 5115.037 19933.792 19098.639 13509.801 19008.601 10197.543 18336.152 18274.547 16892.156 10071.119 0.000 18990.719 14412.145 15272.691 344.009 12630.818 14384.147 16376.815 16625.870 7217.753 18912.840 17817.668 22387.857 14052.959 18702.804 16714.863 10248.410 16763.251 15709.978 19282.157 18927.095 13174.691 12576.756 16199.048 13753.259 18857.464 16645.214 14557.086 8260.754 10543.690 16967.926 13088.982 16892.203 12398.628 16532.637 16038.846 19188.144 18937.710 19361.707 19008.786 16988.814 13333.481 18954.640 13911.745 13173.821 6981.762 14645.982 13657.274 8917.706 13648.775 18205.586 18382.635 18918.082 6251.314 13124.081 16499.571 18868.551
7014.508 2136.591 9918.113 2110.530 10892.122 2299.557 5413.306 347.159 3945.556 5328.732 3424.951 1983.569 2481.340 4820.990 1020.383 2203.702 3633.679 3264.110 12441.122 6648.294 17053.549 4778.468 4091.298 3533.821 3471.116 904.436 6677.343 2568.915 2732.135 6574.058 3066.858 5005.823 366.754 11832.705 15828.610 5704.415 5252.500 5509.881 495.606 11939.909 3559.193 2342.917 2113.074 12070.491 18990.719 0.000 5006.548 4109.260 19242.655 7628.848 4813.119 3253.959 2372.545 17310.764 1222.836 2778.962 3575.299 5698.362 1851.969 2276.013 11941.129 2270.543 3286.524 329.252 5261.248 15419.437 7488.840 6530.303 5297.438 4853.881 2391.043 6767.856 10784.667 20997.850 2023.639 6603.862 2172.967 7000.935 2458.832 2976.919 4549.331 58.843 375.426 129.084 2002.734 6017.664 1274.823 5854.248 15308.736 17372.894 4970.464 5397.246 10193.916 7689.595 3392.853 2324.535 755.257 13436.401 5871.107 6521.710 1864.168
2779.806 5736.182 6945.967 5625.939 9332.811 2735.925 2424.580 5059.697 3987.654 5310.751 1782.708 3197.937 2554.897 7674.337 4465.376 5663.741 2169.995 1881.691 7455.540 3682.311 12050.292 4919.958 4308.982 2208.617 6200.341 4573.832 8034.646 6909.814 5826.965 3511.027 2538.178 56.437 5373.173 9179.020 10880.908 6208.549 5337.454 2376.574 4865.496 9437.000 6374.357 5505.249 3004.025 9527.513 14412.145 5006.548 0.000 908.843 14634.339 5591.224 2974.110 1974.116 2808.939 12307.419 4601.744 3413.505 8581.634 820.286 5599.806 2970.738 9461.371 3278.898 2393.907 5333.250 5196.140 10981.787 2519.479 3743.316 2502.563 4967.638 3205.608 2697.905 6163.822 18238.034 3224.070 1601.654 2857.623 4196.160 2875.752 2733.093 7647.988 4947.940 5336.504 5069.309 3240.894 1082.419 4633.591 947.822 10875.114 12367.324 400.588 2550.736 5494.493 3209.984 6153.640 5593.560 4708.861 8557.294 2281.261 3972.986 5750.175
3476.913 4856.302 7202.627 4861.931 9566.955 1866.568 2653.875 4154.077 3370.365 4830.443 927.594 2364.150 1689.865 7074.247 3557.389 4907.660 1710.401 996.168 8364.105 3799.238 12944.294 4381.346 3698.678 1709.734 5561.798 3665.256 7453.128 6099.350 5121.758 3886.642 1904.167 917.645 4476.011 9636.312 11789.050 5690.611 4840.357 2651.847 3957.951 9866.462 5732.414 4773.447 2159.781 9966.515 15272.691 4109.260 908.843 0.000 15499.849 5821.220 2909.830 1109.897 1995.301 13201.512 3698.166 2606.977 7682.524 1607.918 4810.717 2167.283 9886.372 2525.083 1819.462 4437.088 4716.363 11678.989 3386.355 3808.399 2674.247 4437.850 2470.465 3148.071 7014.286 18778.979 2405.414 2495.304 1983.486 4545.139 2105.670 2098.099 7012.038 4050.514 4434.258 4175.821 2420.330 1974.929 3731.488 1759.818 11570.794 13264.253 888.262 2749.216 6358.289 3851.298 5508.479 4854.823 3800.019 9458.110 2715.060 3984.215 4954.361
12230.667 20354.960 16785.651 18839.858 12744.669 17011.837 13879.933 19401.340 18350.890 19205.750 16412.656 17259.322 16840.728 19240.425 18965.374 18820.439 15614.439 16495.942 8026.987 16149.792 7144.711 19022.262 18632.240 15713.543 18485.506 19054.264 21991.639 20217.339 18632.218 12881.024 16185.693 14610.115 19584.426 10241.176 5134.203 20108.551 19277.472 13770.309 19254.385 10536.962 18627.170 18552.550 17141.038 10410.968 344.009 19242.655 14634.339 15499.849 0.000 12936.572 14655.188 16601.987 16875.498 7113.733 19149.287 18035.582 22651.810 14261.422 18976.143 16966.644 10587.978 17021.030 15964.813 19535.927 19105.433 13137.583 12764.202 16359.972 14016.818 19041.999 16903.332 14727.151 8493.778 10800.590 17220.787 13293.847 17136.878 12683.774 16785.578 16296.108 19488.017 19189.336 19612.915 19262.280 17241.662 13554.170 19190.393 14118.865 13139.610 6875.531 14862.247 13921.325 9141.891 13808.086 18494.775 18660.698 19160.599 6399.623 13379.980 16659.243 19142.127
3644.519 9474.050 12287.762 6434.062 3750.543 6063.368 3188.410 7912.146 9082.893 10623.324 6528.587 5951.615 5973.955 6313.185 7869.901 6386.010 4571.906 6469.846 8616.327 9235.482 13333.355 10141.631 9406.977 4651.423 5732.560 7894.496 13111.413 7685.769 6053.673 2161.965 4952.338 5534.864 7875.864 4203.896 11101.569 11448.480 10623.514 3219.478 7872.370 4321.689 5850.475 6103.187 5964.465 4448.421 12630.818 7628.848 5591.224 5821.220 12936.572 0.000 3083.512 6631.720 5721.939 13563.564 8147.569 8012.313 10425.256 6077.336 6644.444 5698.625 4326.409 5482.216 4794.082 7824.816 10510.587 14679.495 6525.315 9315.964 3148.956 10204.032 5371.421 8011.311 5695.559 13391.858 5856.313 5894.283 6145.983 1507.526 5504.029 4928.562 6578.928 7592.917 7987.515 7588.559 5873.930 5227.791 8210.400 6080.306 14589.169 13521.372 5990.066 3079.325 5566.139 8052.253 5758.250 6203.944 7917.198 8636.408 3353.805 9557.547 6793.678
2762.985 6481.985 9920.077 4200.759 6758.972 2999.637 976.010 5052.171 6030.894 7599.862 3498.511 2959.469 2899.419 5351.000 4886.219 4189.243 1488.582 3421.731 8685.391 6617.599 13519.453 7100.378 6351.431 1568.133 4125.243 4927.582 10034.129 5592.531 4075.889 1792.441 1897.186 2921.172 5111.640 7188.904 11792.647 8400.215 7592.697 1111.153 4971.925 7353.409 4293.280 3932.500 2938.093 7471.226 14384.147 4813.119 2974.110 2909.830 14655.188 3083.512 0.000 3583.579 2681.329 13769.648 5150.080 4930.499 8022.230 3683.427 4323.670 2684.411 7363.720 2553.562 1722.217 5060.556 7488.844 13508.258 4837.861 6655.395 802.196 7165.358 2434.318 5655.587 6400.349 16408.736 2877.970 3947.953 3090.465 2190.888 2484.992 1906.387 5443.499 4768.383 5186.829 4799.676 2897.436 3131.542 5209.929 3750.464 13406.616 13781.799 3331.327 861.817 5936.518 6019.506 4108.875 4040.479 4974.029 9294.212 1584.325 6856.473 4490.236
4572.509 3762.067 7203.843 4410.145 10340.392 1334.422 3563.138 3235.673 2451.517 4018.847 192.708 1890.286 1224.354 6883.637 2557.041 4472.471 2139.073 162.053 9377.344 3768.441 13875.678 3517.048 2775.260 2085.959 5341.225 2675.954 6500.341 5503.908 4788.144 4837.354 2015.542 1994.651 3614.261 10582.829 12824.204 4819.412 4009.665 3588.091 3019.134 10792.514 5500.595 4396.754 1679.519 10898.938 16376.815 3253.959 1974.116 1109.897 16601.987 6631.720 3583.579 0.000 1655.079 14132.882 2659.651 1513.463 6780.303 2520.693 4300.579 1824.942 10809.142 2262.034 2054.548 3581.804 3908.639 12227.691 4303.438 3713.823 3546.125 3581.803 2260.820 3564.265 8120.587 19765.053 1976.567 3481.758 1402.758 5465.076 1870.990 2164.741 6760.717 3195.674 3540.152 3340.683 1983.193 3056.331 2685.682 2678.399 12117.695 14205.725 1813.457 3633.818 7460.170 4445.566 5277.549 4460.071 2826.270 10524.438 3728.942 3810.528 4422.884
4645.086 3806.709 8855.091 2874.072 9280.998 396.526 3107.648 2529.119 3746.747 5364.491 1722.509 402.955 435.086 5237.544 2224.120 2923.925 1303.643 1550.857 10134.778 5415.660 14815.616 4817.255 4034.662 1203.943 3697.254 2279.286 7533.386 4108.131 3180.002 4334.517 786.146 2795.101 2723.963 9867.562 13490.368 6053.988 5331.904 3191.315 2398.252 10024.004 3859.765 2808.935 271.169 10144.204 16625.870 2372.545 2808.939 1995.301 16875.498 5721.939 2681.329 1655.079 0.000 15072.249 2476.966 2478.041 5896.030 3585.805 2815.569 177.966 10032.655 606.977 982.647 2677.421 5263.303 13662.766 5327.890 5366.812 3012.153 4890.038 613.590 5061.297 8412.247 19086.335 415.131 4398.439 437.894 4841.182 252.768 794.923 5129.019 2317.847 2739.363 2403.075 432.107 3733.132 2535.055 3731.851 13554.129 15123.189 2880.129 3112.675 7822.749 5832.754 3635.708 2883.644 2348.883 11079.547 3521.600 5465.437 2959.168
11010.851 17701.295 11463.571 17710.871 15244.648 15039.851 12802.538 17345.194 15051.391 15358.020 13946.375 15472.290 14857.898 19089.459 16689.534 17727.383 14083.517 14089.270 5089.902 12146.597 257.276 15371.308 15250.434 14164.680 17886.559 16808.820 17879.704 19076.968 17745.279 12373.641 14611.888 12310.983 17677.517 13014.443 2992.204 16146.748 15455.179 12667.790 17139.383 13419.277 18056.936 17514.105 15290.511 13355.167 7217.753 17310.764 12307.419 13201.512 7113.733 13563.564 13769.648 14132.882 15072.249 0.000 16775.018 15246.333 20883.136 11624.048 17745.296 15219.190 13477.311 15451.651 14411.476 17638.453 15283.016 6294.471 9832.629 12362.618 12974.817 15363.818 15355.642 11101.874 7869.660 17223.758 15482.191 10707.401 15162.915 12563.433 15090.569 14782.308 19207.129 17252.023 17632.869 17376.007 15500.723 11339.607 16793.774 11466.776 6320.595 241.882 12348.955 12908.367 8051.367 10057.987 17865.408 17615.944 16957.748 5020.979 12194.328 12608.760 17906.995
6962.963 1332.002 8806.582 3284.918 11597.577 2217.351 5559.133 950.412 2765.507 4107.026 2850.900 2199.049 2366.302 6017.134 295.226 3376.454 3765.250 2727.304 12035.892 5631.732 16517.985 3558.860 2887.408 3667.698 4615.785 344.327 5559.751 3771.734 3886.608 6805.021 3262.276 4614.526 1430.485 12321.957 15477.650 4491.873 4030.053 5632.667 733.095 12465.324 4718.724 3479.070 2213.824 12588.715 18912.840 1222.836 4601.744 3698.166 19149.287 8147.569 5150.080 2659.651 2476.966 16775.018 0.000 1725.564 4243.924 5179.450 3041.650 2466.079 12471.785 2671.060 3458.259 1430.959 4040.844 14518.848 6955.973 5494.312 5474.859 3633.974 2778.528 5943.962 10655.712 21534.616 2291.585 6140.670 2104.544 7318.050 2665.221 3244.572 5757.907 1193.429 1257.637 1351.820 2273.784 5672.843 67.132 5337.043 14407.619 16852.108 4472.080 5574.945 10021.508 6923.867 4537.875 3476.978 467.983 13156.223 5920.689 5453.783 3070.652
6081.731 2456.623 7139.179 4545.999 11668.457 2083.154 5032.555 2602.287 1319.174 2915.651 1682.814 2466.396 2110.602 7240.985 1795.204 4627.755 3442.477 1656.558 10644.015 3908.651 14990.192 2357.873 1576.023 3366.919 5733.300 1926.975 5108.098 5324.468 5064.628 6313.899 3136.933 3442.839 3072.672 12038.913 14114.944 3576.010 2873.709 5068.047 2363.565 12234.789 5868.253 4645.080 2328.832 12345.274 17817.668 2778.962 3413.505 2606.977 18035.582 8012.313 4930.499 1513.463 2478.041 15246.333 1725.564 0.000 5950.881 3810.608 4355.894 2584.711 12249.166 2984.536 3254.357 3059.762 2820.495 12799.412 5510.226 3775.849 4999.560 2432.536 3042.151 4273.116 9576.466 21239.022 2581.685 4792.790 2051.354 6922.557 2730.492 3222.800 7041.058 2731.257 2928.264 2899.856 2575.449 4485.907 1715.038 3962.277 12688.119 15334.921 3174.207 5091.627 8902.452 5280.525 5659.876 4676.453 2099.034 11879.650 5233.689 3749.740 4432.047
10475.190 3846.396 12813.187 3991.212 13144.944 5867.472 8772.615 3545.715 6759.836 7663.758 6960.510 5494.412 6049.898 5380.053 4259.631 4040.245 7077.682 6808.552 16011.985 9817.716 20625.885 7218.764 6765.319 6981.487 4923.017 4131.310 7767.162 2846.846 4416.981 9813.797 6506.183 8581.112 3208.901 14539.336 19385.384 7640.897 7559.795 8884.095 3761.684 14572.810 4872.683 4322.938 5651.874 14714.628 22387.857 3575.299 8581.634 7682.524 22651.810 10425.256 8022.230 6780.303 5896.030 20883.136 4243.924 5950.881 0.000 9263.364 3788.870 5773.884 14563.373 5653.345 6725.887 3249.738 7640.596 18747.922 11055.453 9663.849 8635.020 7280.908 5767.909 10186.003 14255.884 23464.220 5509.608 10177.758 5741.789 10126.343 5935.684 6377.863 4983.552 3633.834 3250.934 3517.297 5489.354 9589.432 4244.619 9420.026 18636.579 20946.771 8536.521 8730.708 13693.182 11155.896 4870.247 4223.606 3969.511 16973.144 9288.548 9586.837 3634.889
2881.997 6226.173 6282.166 6427.774 9780.259 3474.482 3007.452 5721.725 4134.546 5273.247 2330.806 3964.814 3297.439 8493.701 5074.710 6467.930 2987.676 2467.344 6865.038 3172.268 11366.775 4952.651 4436.912 3028.117 7020.532 5191.174 8063.547 7693.835 6641.855 3933.353 3355.752 854.680 6064.594 9430.525 10323.230 6191.864 5316.482 2932.831 5515.367 9714.243 7194.502 6315.201 3763.631 9794.842 14052.959 5698.362 820.286 1607.918 14261.422 6077.336 3683.427 2520.693 3585.805 11624.048 5179.450 3810.608 9263.364 0.000 6392.762 3752.912 9742.775 4079.672 3213.992 6027.285 5160.883 10161.949 1792.220 3271.824 3115.399 4989.794 4010.871 1986.417 5868.702 18367.808 3999.662 982.230 3591.177 4618.102 3670.192 3551.138 8468.272 5639.520 6012.470 5770.012 4015.514 950.022 5204.009 157.766 10055.197 11692.903 728.024 3145.286 5170.663 2398.837 6973.675 6402.076 5336.968 8069.074 2723.950 3535.772 6540.438
6943.771 3941.420 11393.163 279.698 9551.353 3006.823 5162.359 2188.154 5627.539 7102.464 4422.339 2462.993 3161.949 2975.591 2792.899 370.170 3662.392 4244.136 12731.281 8008.189 17490.031 6542.853 5816.017 3580.616 1645.933 2701.781 8524.826 1331.673 910.083 6096.889 3138.542 5580.634 1821.482 10788.659 15987.906 7532.430 7033.559 5285.322 2341.149 10841.757 1717.631 599.687 2675.997 10980.859 18702.804 1851.969 5599.806 4810.717 18976.143 6644.444 4323.670 4300.579 2815.569 17745.296 3041.650 4355.894 3788.870 6392.762 0.000 2643.742 10835.380 2325.157 3334.680 1788.027 7026.979 16470.271 8106.340 7923.225 5008.848 6619.241 2408.697 7837.417 10688.235 19812.711 2408.936 7163.166 2914.748 6362.954 2724.246 2963.883 2722.889 1867.052 2015.055 1730.880 2395.303 6443.990 3100.053 6535.710 16361.289 17783.114 5694.003 5098.174 10178.649 8642.335 1568.512 533.875 2579.745 13518.137 5726.781 7965.386 167.264
4739.355 3798.080 9027.316 2698.494 9228.377 528.747 3163.051 2452.256 3868.080 5484.415 1896.874 294.376 600.884 5063.212 2202.419 2747.597 1364.712 1724.199 10271.216 5588.796 14962.684 4933.781 4150.517 1264.384 3522.278 2247.903 7611.626 3941.381 3002.093 4371.219 813.668 2955.467 2620.619 9859.567 13617.326 6159.061 5449.193 3252.226 2335.167 10009.136 3684.231 2631.132 272.327 10130.900 16714.863 2276.013 2970.738 2167.283 16966.644 5698.625 2684.411 1824.942 177.966 15219.190 2466.079 2584.711 5773.884 3752.912 2643.742 0.000 10016.769 440.735 1026.013 2572.961 5384.576 13838.142 5488.238 5538.219 3059.685 5007.192 465.971 5239.080 8513.064 19075.643 265.456 4555.533 534.150 4859.735 199.781 778.499 4952.494 2222.848 2646.982 2298.606 285.207 3879.672 2526.411 3897.940 13729.560 15268.546 3050.407 3160.242 7930.886 6008.063 3460.311 2706.128 2305.356 11199.265 3598.601 5634.065 2788.817
6891.199 13799.485 15520.795 10602.339 2167.912 10362.466 7251.460 12230.615 13237.408 14712.930 10684.516 10274.075 10262.598 9864.545 12195.301 10543.342 8838.049 10649.731 9368.831 12874.857 13295.619 14266.736 13565.390 8923.781 9695.937 12220.757 17308.600 11747.747 10146.530 5999.923 9255.139 9407.790 12176.401 470.345 10575.156 15576.606 14725.654 7239.302 12195.892 58.116 9780.135 10263.742 10280.236 185.073 10248.410 11941.129 9461.371 9886.372 10587.978 4326.409 7363.720 10809.142 10032.655 13477.311 12471.785 12249.166 14563.373 9742.775 10835.380 10016.769 0.000 9808.411 9085.822 12125.689 14598.501 16344.420 9571.409 12996.066 7263.047 14323.935 9697.249 11470.041 6436.576 9065.505 10180.200 9252.074 10450.511 5347.720 9820.615 9242.621 10206.229 11906.877 12295.247 11896.018 10198.025 8801.355 12534.276 9698.239 16273.808 13361.872 9856.418 7175.619 6795.387 11208.254 9737.817 10357.414 12243.427 8567.352 7200.003 13270.917 10973.749
4821.895 3992.823 9461.321 2348.153 8943.106 965.552 3155.041 2499.018 4281.628 5894.756 2327.382 529.400 1039.861 4634.675 2389.352 2388.816 1426.078 2156.844 10469.598 6021.255 15195.713 5340.578 4557.445 1331.571 3096.336 2412.361 7960.814 3646.714 2602.882 4303.769 858.578 3258.168 2586.881 9669.040 13781.833 6550.013 5856.438 3257.325 2421.111 9803.045 3260.527 2248.380 660.081 9928.150 16763.251 2270.543 3278.898 2525.083 17021.030 5482.216 2553.562 2262.034 606.977 15451.651 2671.060 2984.536 5653.345 4079.672 2325.157 440.735 9808.411 0.000 1075.447 2536.662 5796.548 14203.815 5781.299 5973.515 3032.928 5414.666 120.502 5634.462 8602.701 18873.480 415.075 4838.140 953.635 4744.450 422.218 725.650 4533.567 2223.320 2645.845 2268.264 426.698 4126.888 2735.114 4219.641 14095.689 15495.192 3394.802 3132.163 8043.094 6376.250 3036.109 2330.145 2440.375 11342.472 3642.291 6072.281 2479.230
3751.611 4786.381 9004.518 3315.438 8415.944 1277.946 2137.150 3475.788 4430.144 6033.946 2027.323 1319.187 1179.888 5290.339 3206.764 3341.019 351.984 1902.674 9410.585 5579.029 14156.067 5509.479 4740.116 256.124 3806.609 3260.830 8360.932 4666.135 3452.064 3352.386 220.942 2362.374 3621.589 8909.572 12709.884 6788.500 6015.135 2227.655 3361.173 9075.609 3980.518 3155.251 1250.811 9193.403 15709.978 3286.524 2393.907 1819.462 15964.813 4794.082 1722.217 2054.548 982.647 14411.476 3458.259 3254.357 6725.887 3213.992 3334.680 1026.013 9085.822 1075.447 0.000 3572.634 5926.674 13375.658 4828.052 5568.276 2034.501 5578.380 965.532 4955.286 7532.223 18129.537 1264.750 3876.490 1372.232 3861.817 832.347 370.848 5255.059 3235.074 3660.216 3299.747 1285.623 3124.617 3515.686 3339.573 13269.012 14450.793 2594.710 2135.079 6968.447 5587.498 3759.734 3250.014 3326.135 10267.540 2586.312 5715.615 3495.720
7311.782 2153.642 10194.519 2060.701 11029.621 2620.154 5689.530 480.612 4189.102 5526.962 3753.458 2283.136 2802.332 4718.341 1272.985 2153.823 3922.041 3593.026 12764.019 6946.129 17381.249 4983.765 4318.229 3822.692 3431.838 1146.299 6752.019 2343.005 2692.549 6832.565 3352.065 5332.059 51.367 12027.571 16147.382 5860.528 5446.752 5789.049 707.362 12125.784 3505.387 2327.234 2422.192 12257.991 19282.157 329.252 5333.250 4437.088 19535.927 7824.816 5060.556 3581.804 2677.421 17638.453 1430.959 3059.762 3249.738 6027.285 1788.027 2572.961 12125.689 2536.662 3572.634 0.000 5464.048 15736.904 7817.560 6824.228 5569.422 5058.364 2656.841 7089.234 11085.899 21174.158 2315.824 6931.285 2493.959 7242.545 2750.737 3252.742 4427.848 388.056 227.076 274.466 2294.987 6340.755 1473.862 6183.107 15626.133 17700.126 5299.352 5668.750 10500.062 8014.991 3354.029 2293.983 980.475 13750.504 6158.945 6808.491 1770.822
7957.505 3813.568 5286.842 7246.110 14238.013 4867.116 7368.042 4984.962 1516.686 114.738 3991.338 5283.836 4864.254 9977.009 4252.777 7333.357 6044.338 4069.764 11257.187 3139.278 15035.796 484.214 1246.127 5986.346 8500.287 4359.445 2920.376 7806.768 7805.388 8599.263 5847.580 5245.569 5458.306 14339.185 14693.264 1032.389 174.789 7368.210 4773.918 14577.637 8625.748 7385.833 5137.366 14675.411 18927.095 5261.248 5196.140 4716.363 19105.433 10510.587 7488.844 3908.639 5263.303 15283.016 4040.844 2820.495 7640.596 5160.883 7026.979 5384.576 14598.501 5796.548 5926.674 5464.048 0.000 11717.832 6364.594 2922.095 7379.198 408.034 5847.624 4399.003 10931.685 23433.741 5398.671 6007.999 4850.968 9261.329 5515.472 5961.761 9747.568 5228.271 5273.032 5390.319 5393.151 6075.342 3993.122 5266.284 11607.961 15411.359 4822.941 7458.399 10217.347 5386.632 8424.943 7404.823 4506.532 12738.561 7404.901 2676.286 7076.904
11185.998 15042.282 6712.023 16536.636 17537.123 13468.139 12590.606 15327.062 12092.771 11754.377 12082.591 14007.317 13309.053 18641.073 14544.419 16584.735 13137.562 12258.124 7110.942 8957.274 6173.867 11981.231 12171.064 13184.069 17181.646 14677.060 13710.628 17721.277 16793.066 12797.660 13516.030 11013.593 15761.639 15884.155 8144.859 12316.184 11865.860 12466.704 15091.147 16291.682 17355.849 16451.878 13794.673 16282.564 13174.691 15419.437 10981.787 11678.989 13137.583 14679.495 13508.258 12227.691 13662.766 6294.471 14518.848 12799.412 18747.922 10161.949 16470.271 13838.142 16344.420 14203.815 13375.658 15736.904 11717.832 0.000 8677.657 9128.974 12753.023 11945.109 14145.937 8664.785 9907.844 22252.722 14063.250 9601.274 13566.869 13279.461 13784.634 13711.862 18627.772 15363.424 15651.314 15520.458 14076.251 10417.620 14512.463 10036.773 111.417 6530.131 10814.310 12730.412 9600.194 7830.082 17135.369 16533.793 14847.481 8458.772 12041.564 9254.971 16606.455
2892.519 7956.489 5952.522 8119.788 10004.012 5247.108 3947.638 7513.875 5612.878 6468.673 4115.614 5717.382 5067.553 10004.093 6860.340 8152.814 4548.727 4256.786 5136.253 3650.515 9575.365 6259.949 5881.950 4609.267 8589.109 6978.326 9276.061 9422.839 8279.354 4411.215 4998.763 2532.901 7855.272 9198.906 8611.598 7383.405 6534.158 3830.898 7306.910 9534.038 8764.484 7979.559 5522.585 9590.011 12576.756 7488.840 2519.479 3386.355 12764.202 6525.315 4837.861 4303.438 5327.890 9832.629 6955.973 5510.226 11055.453 1792.220 8106.340 5488.238 9571.409 5781.299 4828.052 7817.560 6364.594 8677.657 0.000 3830.971 4102.856 6281.460 5701.125 2129.985 4628.291 17752.113 5742.985 952.149 5366.555 5020.854 5386.504 5187.754 10018.902 7430.007 7804.527 7558.951 5759.950 1748.415 6977.957 1635.427 8574.964 9903.059 2519.050 4090.520 3910.761 1637.143 8549.495 8072.007 7125.922 6452.425 3442.247 4137.576 8259.217
6107.820 5914.408 3490.887 8064.182 13039.961 5043.657 6167.332 6374.995 2964.868 3000.682 3649.682 5594.356 4938.040 10596.340 5569.301 8133.606 5510.085 3817.342 8419.200 218.335 12114.923 3026.552 3062.981 5498.986 9053.634 5701.601 5670.369 9022.857 8483.408 7192.356 5600.500 3799.589 6840.076 12671.382 11820.852 3833.133 3095.180 6115.193 6135.902 12965.949 9211.708 8082.668 5387.360 13042.223 16199.048 6530.303 3743.316 3808.399 16359.972 9315.964 6655.395 3713.823 5366.812 12362.618 5494.312 3775.849 9663.849 3271.824 7923.225 5538.219 12996.066 5973.515 5568.276 6824.228 2922.095 9128.974 3830.971 0.000 6244.940 3012.430 5965.986 1703.015 8452.204 21487.350 5685.741 3798.985 5101.007 7879.313 5573.457 5778.040 10465.689 6479.255 6701.689 6645.817 5691.193 4198.710 5477.967 3302.317 9017.626 12489.803 3354.060 6294.052 7736.007 2552.441 8989.213 8138.719 5873.868 9963.896 5969.026 307.432 8027.736
1979.137 6794.540 9396.585 4908.126 6898.069 3261.880 173.818 5502.847 5981.498 7492.662 3424.126 3351.605 3127.098 6153.190 5232.185 4904.225 1710.820 3386.697 7893.583 6184.542 12724.147 7024.822 6308.651 1809.494 4913.483 5290.995 10046.114 6304.399 4828.915 1336.852 2246.659 2446.489 5619.535 7041.384 11030.908 8334.885 7497.380 309.038 5394.316 7246.580 5083.025 4657.814 3282.415 7353.689 13753.259 5297.438 2502.563 2674.247 14016.818 3148.956 802.196 3546.125 3012.153 12974.817 5474.859 4999.560 8635.020 3115.399 5008.848 3059.685 7263.047 3032.928 2034.501 5569.422 7379.198 12753.023 4102.856 6244.940 0.000 7084.828 2912.940 5101.604 5679.838 16240.302 3290.337 3246.615 3371.098 1923.212 2863.753 2320.780 6243.673 5248.199 5672.732 5300.178 3311.008 2446.122 5529.967 3158.458 12652.351 12989.056 2891.449 100.580 5186.508 5370.490 4894.473 4764.836 5359.873 8540.153 782.922 6469.553 5176.110
7742.270 3442.754 5592.416 6838.890 13921.500 4493.523 7080.546 4578.973 1149.568 488.017 3675.881 4898.690 4497.347 9570.457 3844.853 6926.262 5708.647 3743.706 11243.476 3224.888 15114.809 76.622 857.222 5647.484 8095.979 3951.780 3077.281 7401.284 7399.534 8324.456 5491.884 5015.159 5053.066 14073.045 14694.932 1252.767 442.001 7086.185 4367.069 14304.211 8220.674 6980.119 4756.687 14404.350 18857.464 4853.881 4967.638 4437.850 19041.999 10204.032 7165.358 3581.803 4890.038 15363.818 3633.974 2432.536 7280.908 4989.794 6619.241 5007.192 14323.935 5414.666 5578.380 5058.364 408.034 11945.109 6281.460 3012.430 7084.828 0.000 5468.583 4384.710 10807.676 23192.809 5013.863 5869.067 4473.091 8979.838 5142.632 5600.555 9340.078 4820.697 4868.512 4982.942 5007.821 5885.145 3586.667 5103.433 11834.752 15486.782 4605.508 7166.388 10096.460 5397.195 8020.497 6998.509 4099.327 12694.065 7142.661 2794.486 6668.915
4707.367 4102.710 9451.002 2420.930 8844.366 993.928 3035.604 2618.751 4331.467 5946.915 2316.560 611.439 1048.127 4656.327 2498.679 2458.155 1314.635 2149.062 10367.997 6009.447 15099.831 5394.899 4611.566 1221.396 3122.361 2524.231 8040.599 3734.410 2651.408 4183.305 751.467 3183.343 2707.096 9555.841 13674.849 6613.073 5910.546 3138.384 2539.145 9691.609 3288.711 2307.195 713.519 9816.329 16645.214 2391.043 3205.608 2470.465 16903.332 5371.421 2434.318 2260.820 613.590 15355.642 2778.528 3042.151 5767.909 4010.871 2408.697 465.971 9697.249 120.502 965.532 2656.841 5847.624 14145.937 5701.125 5965.986 2912.940 5468.583 0.000 5593.006 8487.976 18761.963 501.767 4755.888 996.955 4625.180 392.976 609.955 4565.089 2343.795 2766.346 2388.617 516.280 4037.011 2842.169 4149.061 14038.015 15398.071 3333.038 3012.115 7930.552 6321.091 3064.084 2392.068 2555.045 11232.959 3525.316 6070.556 2564.961
4593.939 6681.533 4299.293 7923.718 11670.481 4831.136 4991.478 6696.090 3950.315 4494.581 3423.924 5380.939 4681.093 10221.632 5934.316 7978.448 4796.178 3600.855 6861.370 1520.567 10848.537 4377.304 4159.710 4815.352 8704.423 6065.186 7264.792 9065.414 8236.425 5851.562 5051.465 2747.484 7116.327 11125.199 10310.355 5386.027 4573.062 4913.181 6463.972 11436.914 8873.850 7870.213 5166.422 11505.204 14557.086 6767.856 2697.905 3148.071 14727.151 8011.311 5655.587 3564.265 5061.297 11101.874 5943.962 4273.116 10186.003 1986.417 7837.417 5239.080 11470.041 5634.462 4955.286 7089.234 4399.003 8664.785 2129.985 1703.015 5101.604 4384.710 5593.006 0.000 6749.266 19837.131 5446.624 2218.210 4923.168 6526.158 5212.389 5245.907 10153.002 6711.069 7016.423 6865.314 5457.867 2784.343 5946.793 1950.135 8554.629 11208.684 2391.788 5130.217 6032.998 1043.910 8649.490 7944.461 6232.240 8345.988 4673.943 2010.240 7967.356
3780.874 11865.215 10000.256 10586.422 7758.532 8530.192 5526.070 10928.518 10002.497 11039.605 7932.892 8802.991 8356.899 11492.247 10473.891 10580.332 7180.240 8010.218 3057.404 8265.329 7641.392 10777.516 10301.811 7277.439 10463.435 10564.357 13852.038 11982.256 10474.000 4748.985 7752.658 6136.393 11133.333 5976.776 5489.945 11960.666 11096.713 5404.433 10774.608 6383.864 10622.948 10328.988 8674.163 6376.150 8260.754 10784.667 6163.822 7014.286 8493.778 5695.559 6400.349 8120.587 8412.247 7869.660 10655.712 9576.466 14255.884 5868.702 10688.235 8513.064 6436.576 8602.701 7532.223 11085.899 10931.685 9907.844 4628.291 8452.204 5679.838 10807.676 8487.976 6749.266 0.000 13455.275 8771.940 4942.328 8655.998 4797.279 8338.535 7878.025 11663.365 10730.089 11151.206 10811.480 8792.679 5092.168 10696.659 5737.676 9837.386 7825.816 6417.283 5591.808 717.863 6044.038 10457.125 10436.625 10673.493 2982.619 4975.962 8759.490 10855.495
15498.708 22863.446 23444.817 19566.723 10328.978 19407.482 16207.535 21291.410 22149.303 23548.404 19626.427 19335.975 19300.618 18428.135 21259.368 19501.087 17868.094 19609.166 15380.925 21333.454 17163.861 23141.128 22477.545 17956.897 18543.901 21285.834 26231.900 20619.958 19067.561 14928.508 18305.050 18188.301 21224.555 9219.967 14427.249 24440.742 23573.078 16177.371 21260.002 9070.439 18604.022 19226.925 19337.191 8945.961 10543.690 20997.850 18238.034 18778.979 10800.590 13391.858 16408.736 19765.053 19086.335 17223.758 21534.616 21239.022 23464.220 18367.808 19812.711 19075.643 9065.505 18873.480 18129.537 21174.158 23433.741 22252.722 17752.113 21487.350 16240.302 23192.809 18761.963 19837.131 13455.275 0.000 19243.238 17693.420 19499.191 14318.712 18878.567 18299.518 18805.357 20964.773 21348.447 20949.440 19261.223 17421.078 21596.762 18292.277 22217.234 17013.871 18615.772 16147.609 14099.574 19330.725 18594.928 19314.855 21308.929 13834.024 16063.966 21783.014 19942.310
4996.148 3620.626 9176.626 2478.228 9345.099 642.431 3399.100 2212.921 3886.116 5495.637 2067.482 115.732 768.807 4911.176 2017.354 2531.854 1610.260 1891.016 10536.446 5744.486 15225.639 4939.386 4156.857 1510.300 3368.418 2051.823 7545.767 3694.997 2815.505 4591.355 1046.670 3210.161 2363.984 10032.121 13882.589 6140.873 5455.267 3491.826 2107.549 10173.760 3525.967 2432.121 298.625 10297.291 16967.926 2023.639 3224.070 2405.414 17220.787 5856.313 2877.970 1976.567 415.131 15482.191 2291.585 2581.685 5509.608 3999.662 2408.936 265.456 10180.200 415.075 1264.750 2315.824 5398.671 14063.250 5742.985 5685.741 3290.337 5013.863 501.767 5446.624 8771.940 19243.238 0.000 4812.969 593.080 5063.209 435.298 979.584 4784.151 1971.514 2396.469 2041.810 20.907 4142.587 2354.163 4146.157 13954.420 15532.071 3291.786 3390.721 8192.399 6234.170 3303.559 2501.700 2096.291 11463.583 3847.508 5769.924 2550.010
2380.984 7205.642 6408.661 7172.468 9493.329 4337.484 3101.832 6647.169 5072.533 6117.861 3289.993 4791.994 4156.302 9060.293 6024.867 7204.460 3596.700 3416.711 5895.591 3655.486 10450.224 5837.409 5365.984 3657.125 7638.870 6138.279 8926.060 8482.901 7327.421 3738.001 4048.731 1608.440 6970.608 8909.385 9347.020 7039.935 6169.935 2994.925 6447.461 9219.123 7814.218 7029.118 4601.489 9288.158 13088.982 6603.862 1601.654 2495.304 13293.847 5894.283 3947.953 3481.758 4398.439 10707.401 6140.670 4792.790 10177.758 982.230 7163.166 4555.533 9252.074 4838.140 3876.490 6931.285 6007.999 9601.274 952.149 3798.985 3246.615 5869.067 4755.888 2218.210 4942.328 17693.420 4812.969 0.000 4459.277 4390.293 4447.769 4237.033 9070.673 6545.158 6929.406 6668.609 4830.398 819.592 6167.389 831.416 9497.503 10769.109 1668.589 3246.064 4235.205 2170.309 7598.787 7122.015 6279.601 7086.990 2652.803 4091.378 7317.205
4912.579 3424.328 8591.600 3012.235 9716.843 127.046 3454.653 2277.895 3334.645 4950.575 1510.732 494.327 308.407 5499.218 1870.562 3072.584 1663.724 1332.486 10270.410 5164.028 14905.868 4399.652 3616.379 1567.484 3956.790 1940.914 7095.797 4157.034 3387.115 4703.331 1195.394 2852.332 2536.663 10279.365 13655.920 5626.592 4915.091 3529.298 2118.624 10441.119 4112.631 2994.070 298.726 10560.130 16892.203 2172.967 2857.623 1983.486 17136.878 6145.983 3090.465 1402.758 437.894 15162.915 2104.544 2051.354 5741.789 3591.177 2914.748 534.150 10450.511 953.635 1372.232 2493.959 4850.968 13566.869 5366.555 5101.007 3371.098 4473.091 996.955 4923.168 8655.998 19499.191 593.080 4459.277 0.000 5230.742 685.314 1226.968 5364.968 2115.343 2522.659 2224.583 595.594 3847.667 2159.045 3743.301 13457.507 15220.512 2867.711 3471.051 8048.702 5747.572 3891.001 3057.446 2031.145 11269.322 3829.838 5180.649 3044.327
2152.276 8647.674 10790.789 6200.655 5162.305 5129.656 1903.904 7242.933 7889.703 9375.473 5337.646 5140.765 5008.714 6720.110 7060.915 6172.783 3573.162 5306.524 7517.669 7788.469 12324.122 8921.814 8217.671 3666.451 5812.392 7107.447 11962.196 7555.952 5953.600 687.549 4055.864 4140.547 7293.777 5118.684 10287.005 10232.103 9385.280 1893.756 7162.029 5329.778 5959.577 5898.116 5104.908 5434.501 12398.628 7000.935 4196.160 4545.139 12683.774 1507.526 2190.888 5465.076 4841.182 12563.433 7318.050 6922.557 10126.343 4618.102 6362.954 4859.735 5347.720 4744.450 3861.817 7242.545 9261.329 13279.461 5020.854 7879.313 1923.212 8979.838 4625.180 6526.158 4797.279 14318.712 5063.209 4390.293 5230.742 0.000 4659.975 4086.017 6914.512 6956.925 7373.827 6984.391 5082.968 3742.448 7376.233 4610.447 13186.603 12542.154 4596.665 1832.534 4513.802 6545.333 5818.112 6005.505 7159.153 7779.303 1917.696 8130.862 6525.311
4561.747 3997.203 9058.101 2759.956 9044.651 649.221 2969.128 2643.457 3998.998 5616.819 1923.865 487.870 670.768 5047.673 2402.137 2803.430 1175.604 1757.006 10128.858 5616.493 14834.279 5069.891 4287.353 1075.510 3512.016 2447.601 7780.133 4036.336 3025.092 4172.926 617.098 2857.251 2799.014 9661.906 13463.913 6306.486 5584.478 3059.965 2530.566 9812.765 3677.455 2668.817 460.588 9934.212 16532.637 2458.832 2875.752 2105.670 16785.578 5504.029 2484.992 1870.990 252.768 15090.569 2665.221 2730.492 5935.684 3670.192 2724.246 199.781 9820.615 422.218 832.347 2750.737 5515.472 13784.634 5386.504 5573.457 2863.753 5142.632 392.976 5212.389 8338.535 18878.567 435.298 4447.769 685.314 4659.975 0.000 579.742 4952.287 2406.555 2831.406 2476.841 456.193 3754.294 2725.358 3812.080 13676.411 15137.554 2979.281 2964.273 7761.658 5956.172 3452.886 2749.293 2504.192 11039.106 3412.462 5679.440 2874.490
4097.449 4576.573 9236.797 2946.660 8490.828 1159.525 2437.174 3185.371 4451.381 6066.323 2169.413 1054.780 1112.236 4979.239 2979.840 2973.509 710.061 2024.890 9779.960 5800.358 14526.905 5529.575 4751.572 621.136 3478.563 3022.419 8307.690 4295.305 3097.638 3612.817 196.438 2704.312 3302.476 9082.439 13074.136 6788.991 6040.749 2536.437 3086.439 9234.509 3651.233 2792.140 1037.756 9355.598 16038.846 2976.919 2733.093 2098.099 16296.108 4928.562 1906.387 2164.741 794.923 14782.308 3244.572 3222.800 6377.863 3551.138 2963.883 778.499 9242.621 725.650 370.848 3252.742 5961.761 13711.862 5187.754 5778.040 2320.780 5600.555 609.955 5245.907 7878.025 18299.518 979.584 4237.033 1226.968 4086.017 579.742 0.000 4929.278 2927.474 3352.126 2982.014 999.745 3491.566 3304.892 3680.759 13604.848 14821.519 2910.974 2420.735 7321.723 5909.529 3428.789 2885.624 3073.497 10627.859 2916.834 5910.566 3124.873
8196.426 6547.986 13955.794 2503.117 8507.086 5426.391 6417.198 4870.614 8332.086 9824.065 6846.708 4872.412 5544.312 397.895 5514.599 2417.730 5491.787 6671.872 14118.853 10528.110 18957.875 9263.616 8530.645 5443.765 1450.952 5420.668 11168.807 2386.620 1990.842 6919.160 5125.711 7615.041 4450.921 10278.470 17136.046 10249.636 9755.903 6552.482 5044.305 10226.839 1279.624 2404.455 5081.476 10375.562 19188.144 4549.331 7647.988 7012.038 19488.017 6578.928 5443.499 6760.717 5129.019 19207.129 5757.907 7041.058 4983.552 8468.272 2722.889 4952.494 10206.229 4533.567 5255.059 4427.848 9747.568 18627.772 10018.902 10465.689 6243.673 9340.078 4565.089 10153.002 11663.365 18805.357 4784.151 9070.673 5364.968 6914.512 4952.287 4929.278 0.000 4571.056 4649.903 4423.257 4777.637 8274.856 5814.664 8591.304 18521.482 19214.879 7840.252 6305.146 11282.811 10838.590 1503.680 2365.790 5292.627 14624.454 7026.591 10538.680 2687.493
6960.694 2141.200 9870.385 2122.427 10866.299 2241.989 5363.297 353.882 3905.022 5296.613 3366.470 1930.026 2423.688 4839.268 981.807 2215.384 3581.741 3205.494 12383.031 6596.446 16994.806 4745.151 4054.003 3481.810 3479.070 869.168 6667.918 2609.980 2741.023 6527.084 3015.634 4947.278 425.502 11796.635 15771.139 5680.183 5221.165 5459.337 474.364 11905.425 3569.640 2348.258 2057.648 12035.712 18937.710 58.843 4947.940 4050.514 19189.336 7592.917 4768.383 3195.674 2317.847 17252.023 1193.429 2731.257 3633.834 5639.520 1867.052 2222.848 11906.877 2223.320 3235.074 388.056 5228.271 15363.424 7430.007 6479.255 5248.199 4820.697 2343.795 6711.069 10730.089 20964.773 1971.514 6545.158 2115.343 6956.925 2406.555 2927.474 4571.056 0.000 425.179 168.876 1950.606 5959.573 1247.141 5795.408 15252.738 17314.204 4911.623 5348.081 10138.522 7631.887 3400.802 2332.550 725.481 13379.676 5818.999 6472.102 1884.263
7383.582 1926.566 10050.936 2287.476 11221.224 2649.655 5788.264 327.062 4023.039 5333.778 3716.853 2353.758 2830.310 4942.769 1133.061 2380.635 4006.727 3561.499 12781.153 6828.658 17375.607 4794.381 4141.305 3906.763 3658.586 1001.595 6526.777 2536.160 2919.147 6949.202 3440.807 5337.715 198.983 12191.303 16176.775 5651.281 5251.855 5884.471 566.132 12294.621 3732.453 2551.969 2477.264 12425.937 19361.707 375.426 5336.504 4434.258 19612.915 7987.515 5186.829 3540.152 2739.363 17632.869 1257.637 2928.264 3250.934 6012.470 2015.055 2646.982 12295.247 2645.845 3660.216 227.076 5273.032 15651.314 7804.527 6701.689 5672.732 4868.512 2766.346 7016.423 11151.206 21348.447 2396.469 6929.406 2522.659 7373.827 2831.406 3352.126 4649.903 425.179 0.000 399.233 2375.563 6358.662 1294.876 6169.102 15540.392 17697.541 5285.587 5772.561 10557.104 7955.756 3580.747 2519.901 830.111 13791.480 6243.867 6677.395 1997.380
7037.583 2240.706 10038.919 1992.031 10827.593 2350.435 5419.133 458.620 4072.622 5457.815 3509.061 2008.675 2532.794 4696.901 1148.153 2085.342 3648.816 3346.043 12494.981 6762.167 17118.833 4907.523 4219.671 3549.373 3355.835 1033.125 6795.401 2441.998 2616.182 6567.815 3079.303 5067.316 322.175 11792.298 15875.682 5831.960 5381.561 5517.916 623.378 11895.388 3441.465 2230.955 2148.359 12026.712 19008.786 129.084 5069.309 4175.821 19262.280 7588.559 4799.676 3340.683 2403.075 17376.007 1351.820 2899.856 3517.297 5770.012 1730.880 2298.606 11896.018 2268.264 3299.747 274.466 5390.319 15520.458 7558.951 6645.817 5300.178 4982.942 2388.617 6865.314 10811.480 20949.440 2041.810 6668.609 2224.583 6984.391 2476.841 2982.014 4423.257 168.876 399.233 0.000 2020.962 6072.155 1403.575 5925.422 15409.825 17436.631 5041.988 5399.657 10225.654 7781.052 3277.601 2209.692 884.316 13477.182 5885.988 6639.787 1739.450
5016.957 3602.485 9182.076 2466.436 9360.322 648.777 3419.882 2192.180 3881.105 5489.890 2075.743 109.457 778.693 4906.226 1999.019 2520.596 1631.166 1899.037 10555.806 5750.676 15244.159 4933.272 4150.908 1531.207 3363.515 2032.887 7534.321 3679.602 2807.435 4611.715 1067.498 3227.193 2343.135 10050.410 13902.508 6132.882 5449.134 3512.664 2087.175 10191.646 3520.608 2422.810 303.928 10315.266 16988.814 2002.734 3240.894 2420.330 17241.662 5873.930 2897.436 1983.193 432.107 15500.723 2273.784 2575.449 5489.354 4015.514 2395.303 285.207 10198.025 426.698 1285.623 2294.987 5393.151 14076.251 5759.950 5691.193 3311.008 5007.821 516.280 5457.867 8792.679 19261.223 20.907 4830.398 595.594 5082.968 456.193 999.745 4777.637 1950.606 2375.563 2020.962 0.000 4161.136 2336.477 4162.202 13967.393 15550.748 3306.988 3411.387 8212.981 6247.400 3298.391 2491.762 2076.702 11483.815 3868.415 5774.327 2535.807
1931.999 6818.320 7065.273 6437.724 8893.970 3722.149 2308.361 6092.749 4973.129 6188.642 2865.076 4133.973 3539.672 8256.315 5527.022 6465.054 2826.555 2961.121 6423.459 4086.993 11083.066 5844.060 5286.125 2893.931 6849.744 5632.008 8962.421 7771.388 6563.040 3067.295 3309.238 1062.601 6382.763 8484.898 9826.497 7103.034 6227.069 2208.723 5906.771 8772.141 7025.144 6278.684 3955.988 8851.150 13333.481 6017.664 1082.419 1974.929 13554.170 5227.791 3131.542 3056.331 3733.132 11339.607 5672.843 4485.907 9589.432 950.022 6443.990 3879.672 8801.355 4126.888 3124.617 6340.755 6075.342 10417.620 1748.415 4198.710 2446.122 5885.145 4037.011 2784.343 5092.168 17421.078 4142.587 819.592 3847.667 3742.448 3754.294 3491.566 8274.856 5959.573 6358.662 6072.155 4161.136 0.000 5706.406 897.038 10314.142 11390.063 1331.148 2452.351 4416.781 2928.824 6811.779 6374.228 5761.911 7483.408 1908.281 4470.139 6601.530
7008.785 1272.184 8780.006 3344.686 11663.245 2270.767 5613.167 993.426 2730.995 4058.220 2877.412 2260.861 2417.787 6075.643 362.347 3436.387 3820.952 2756.644 12062.932 5617.374 16536.786 3511.762 2846.828 3723.638 4677.878 407.653 5494.593 3816.304 3947.927 6860.926 3320.733 4647.073 1471.536 12383.528 15506.894 4434.987 3980.323 5685.883 782.134 12527.701 4780.015 3541.130 2272.845 12650.921 18954.640 1274.823 4633.591 3731.488 19190.393 8210.400 5209.929 2685.682 2535.055 16793.774 67.132 1715.038 4244.619 5204.009 3100.053 2526.411 12534.276 2735.114 3515.686 1473.862 3993.122 14512.463 6977.957 5477.967 5529.967 3586.667 2842.169 5946.793 10696.659 21596.762 2354.163 6167.389 2159.045 7376.233 2725.358 3304.892 5814.664 1247.141 1294.876 1403.575 2336.477 5706.406 0.000 5361.504 14401.205 16871.740 4498.911 5629.982 10060.714 6930.402 4599.928 3538.218 522.286 13189.480 5971.129 5433.836 3127.202
2821.921 6381.090 6249.405 6567.730 9770.264 3626.017 3043.894 5878.784 4264.979 5378.102 2488.555 4112.852 3448.414 8612.008 5232.473 6606.930 3104.780 2625.029 6708.508 3193.530 11209.502 5067.747 4564.600 3148.311 7144.894 5348.912 8174.170 7839.290 6774.667 3928.460 3485.952 977.234 6220.556 9380.491 10167.719 6298.154 5423.601 2963.550 5672.707 9668.922 7319.150 6451.368 3912.700 9747.549 13911.745 5854.248 947.822 1759.818 14118.865 6080.306 3750.464 2678.399 3731.851 11466.776 5337.043 3962.277 9420.026 157.766 6535.710 3897.940 9698.239 4219.641 3339.573 6183.107 5266.284 10036.773 1635.427 3302.317 3158.458 5103.433 4149.061 1950.135 5737.676 18292.277 4146.157 831.416 3743.301 4610.447 3812.080 3680.759 8591.304 5795.408 6169.102 5925.422 4162.202 897.038 5361.504 0.000 9930.332 11535.413 883.830 3183.665 5037.079 2298.640 7098.899 6539.030 5494.632 7918.006 2731.487 3573.101 6684.169
11090.709 14930.900 6607.789 16428.052 17457.680 13358.906 12490.171 15216.112 11981.456 11644.683 11972.787 13898.317 13199.970 18535.522 14433.343 16476.273 13031.570 12148.369 7054.139 8845.880 6196.052 11870.788 12059.913 13077.847 17075.139 14565.991 13605.441 17611.713 16685.416 12702.549 13408.981 10907.058 15650.835 15814.070 8134.289 12207.885 11756.139 12366.481 14980.171 16221.200 17249.302 16343.815 13685.623 16212.881 13173.821 15308.736 10875.114 11570.794 13139.610 14589.169 13406.616 12117.695 13554.129 6320.595 14407.619 12688.119 18636.579 10055.197 16361.289 13729.560 16273.808 14095.689 13269.012 15626.133 11607.961 111.417 8574.964 9017.626 12652.351 11834.752 14038.015 8554.629 9837.386 22217.234 13954.420 9497.503 13457.507 13186.603 13676.411 13604.848 18521.482 15252.738 15540.392 15409.825 13967.393 10314.142 14401.205 9930.332 0.000 6555.302 10706.619 12630.112 9524.146 7721.532 17028.742 16425.615 14736.427 8415.675 11942.198 9143.795 16497.338
11020.550 17790.887 11643.156 17744.950 15148.116 15096.973 12817.239 17411.959 15158.976 15487.512 14018.448 15523.930 14914.819 19092.418 16762.758 17760.219 14120.740 14159.570 5096.633 12273.282 398.031 15493.240 15361.706 14202.888 17902.253 16881.222 18023.941 19114.689 17770.809 12365.201 14652.705 12369.817 17739.627 12900.414 2838.022 16282.287 15583.908 12682.746 17207.804 13303.797 18072.056 17544.435 15343.924 13237.538 6981.762 17372.894 12367.324 13264.253 6875.531 13521.372 13781.799 14205.725 15123.189 241.882 16852.108 15334.921 20946.771 11692.903 17783.114 15268.546 13361.872 15495.192 14450.793 17700.126 15411.359 6530.131 9903.059 12489.803 12989.056 15486.782 15398.071 11208.684 7825.816 17013.871 15532.071 10769.109 15220.512 12542.154 15137.554 14821.519 19214.879 17314.204 17697.541 17436.631 15550.748 11390.063 16871.740 11535.413 6555.302 0.000 12416.375 12921.210 8028.384 10164.873 17882.122 17646.766 17028.953 4946.012 12209.894 12738.918 17945.371
3137.170 5552.698 6596.949 5739.086 9732.689 2752.452 2818.461 4996.239 3654.299 4937.350 1621.506 3252.101 2576.964 7884.292 4358.592 5782.543 2410.880 1749.552 7564.024 3299.418 12091.680 4560.047 3971.380 2436.084 6389.511 4473.310 7678.501 6986.513 5978.813 3911.377 2714.541 456.479 5336.747 9571.143 11011.789 5840.555 4967.218 2773.560 4791.493 9831.679 6562.040 5640.163 3048.042 9921.311 14645.982 4970.464 400.588 888.262 14862.247 5990.066 3331.327 1813.457 2880.129 12348.955 4472.080 3174.207 8536.521 728.024 5694.003 3050.407 9856.418 3394.802 2594.710 5299.352 4822.941 10814.310 2519.050 3354.060 2891.449 4605.508 3333.038 2391.788 6417.283 18615.772 3291.786 1668.589 2867.711 4596.665 2979.281 2910.974 7840.252 4911.623 5285.587 5041.988 3306.988 1331.148 4498.911 883.830 10706.619 12416.375 0.000 2942.517 5735.132 2998.975 6339.339 5724.061 4616.916 8726.324 2681.337 3578.998 5839.031
1905.515 6894.288 9427.452 4994.925 6829.607 3361.598 144.248 5603.162 6065.898 7572.000 3509.672 3452.129 3226.248 6209.601 5332.533 4990.050 1811.174 3474.810 7825.077 6230.681 12658.043 7106.777 6393.300 1909.911 4983.011 5391.471 10133.022 6391.030 4908.527 1238.696 2347.182 2494.471 5718.895 6951.208 10951.361 8417.032 7577.632 264.413 5494.838 7158.771 5151.882 4742.110 3382.957 7265.176 13657.274 5397.246 2550.736 2749.216 13921.325 3079.325 861.817 3633.818 3112.675 12908.367 5574.945 5091.627 8730.708 3145.286 5098.174 3160.242 7175.619 3132.163 2135.079 5668.750 7458.399 12730.412 4090.520 6294.052 100.580 7166.388 3012.115 5130.217 5591.808 16147.609 3390.721 3246.064 3471.051 1832.534 2964.273 2420.735 6305.146 5348.081 5772.561 5399.657 3411.387 2452.351 5629.982 3183.665 12630.112 12921.210 2942.517 0.000 5103.622 5380.065 4965.112 4849.313 5460.439 8458.616 726.636 6521.504 5265.425
3236.528 11214.167 9345.410 10089.804 7954.324 7922.213 5025.620 10325.724 9301.696 10325.009 7271.012 8217.902 7746.437 11131.319 9847.590 10088.416 6617.121 7354.276 3050.291 7549.899 7813.480 10066.976 9598.892 6712.528 10039.972 9941.384 13137.583 11485.837 10009.791 4371.352 7187.579 5469.319 10546.707 6347.329 5861.438 11245.792 10382.766 4898.753 10165.241 6745.213 10203.335 9844.088 8080.880 6751.590 8917.706 10193.916 5494.493 6358.289 9141.891 5566.139 5936.518 7460.170 7822.749 8051.367 10021.508 8902.452 13693.182 5170.663 10178.649 7930.886 6795.387 8043.094 6968.447 10500.062 10217.347 9600.194 3910.761 7736.007 5186.508 10096.460 7930.552 6032.998 717.863 14099.574 8192.399 4235.205 8048.702 4513.802 7761.658 7321.723 11282.811 10138.522 10557.104 10225.654 8212.981 4416.781 10060.714 5037.079 9524.146 8028.384 5735.132 5103.622 0.000 5339.852 10029.273 9950.973 10055.122 3357.880 4451.868 8043.232 10345.666
4467.760 7706.536 4319.714 8706.556 11601.373 5645.506 5236.293 7640.097 4994.105 5477.523 4287.406 6180.068 5483.386 10877.234 6896.636 8754.793 5379.166 4459.022 5878.714 2341.707 9804.630 5393.660 5200.984 5414.647 9388.047 7025.740 8210.877 9904.565 8971.564 5902.577 5713.093 3249.014 8044.801 10835.980 9306.651 6350.369 5561.373 5137.539 7412.040 11171.003 9560.756 8624.623 5968.219 11227.153 13648.775 7689.595 3209.984 3851.298 13808.086 8052.253 6019.506 4445.566 5832.754 10057.987 6923.867 5280.525 11155.896 2398.837 8642.335 6008.063 11208.254 6376.250 5587.498 8014.991 5386.632 7830.082 1637.143 2552.441 5370.490 5397.195 6321.091 1043.910 6044.038 19330.725 6234.170 2170.309 5747.572 6545.333 5956.172 5909.529 10838.590 7631.887 7955.756 7781.052 6247.400 2928.824 6930.402 2298.640 7721.532 10164.873 2998.975 5380.065 5339.852 0.000 9338.184 8705.421 7189.826 7411.465 4817.914 2851.178 8780.233
6870.415 5505.403 12480.070 1293.366 8274.936 3945.558 5065.608 3736.111 6969.853 8507.971 5356.999 3396.743 4056.233 1608.316 4269.403 1200.367 4007.642 5183.495 12787.599 9045.831 17613.978 7943.889 7189.991 3955.377 78.269 4193.664 10068.545 2025.106 662.104 5717.645 3625.204 6121.857 3388.677 9743.541 15890.404 9000.329 8447.252 5199.819 3869.300 9750.462 224.631 1058.808 3602.060 9894.867 18205.586 3392.853 6153.640 5508.479 18494.775 5758.250 4108.875 5277.549 3635.708 17865.408 4537.875 5659.876 4870.247 6973.675 1568.512 3460.311 9737.817 3036.109 3759.734 3354.029 8424.943 17135.369 8549.495 8989.213 4894.473 8020.497 3064.084 8649.490 10457.125 18594.928 3303.559 7598.787 3891.001 5818.112 3452.886 3428.789 1503.680 3400.802 3580.747 3277.601 3298.391 6811.779 4599.928 7098.899 17028.742 17882.122 6339.339 4965.112 10029.273 9338.184 0.000 1068.347 4089.486 13385.702 5672.278 9071.589 1614.440
6727.685 4441.300 11623.503 258.948 9039.276 3133.294 4925.460 2668.084 5972.474 7484.673 4563.799 2575.995 3270.407 2572.671 3213.291 186.330 3554.410 4386.154 12574.784 8211.291 17361.737 6921.907 6178.751 3482.025 1146.614 3133.264 9000.421 1557.009 409.810 5783.460 3073.312 5569.409 2330.488 10321.700 15786.048 7952.351 7420.406 5053.176 2801.689 10365.093 1241.802 108.261 2790.184 10505.434 18382.635 2324.535 5593.560 4854.823 18660.698 6203.944 4040.479 4460.071 2883.644 17615.944 3476.978 4676.453 4223.606 6402.076 533.875 2706.128 10357.414 2330.145 3250.014 2293.983 7404.823 16533.793 8072.007 8138.719 4764.836 6998.509 2392.068 7944.461 10436.625 19314.855 2501.700 7122.015 3057.446 6005.505 2749.293 2885.624 2365.790 2332.550 2519.901 2209.692 2491.762 6374.228 3538.218 6539.030 16425.615 17646.766 5724.061 4849.313 9950.973 8705.421 1068.347 0.000 3024.910 13302.211 5508.399 8199.104 633.736
6942.107 1589.374 9221.978 2826.960 11304.953 2153.929 5456.511 506.650 3209.017 4573.610 3011.581 2019.394 2321.284 5555.182 305.199 2919.039 3652.522 2869.650 12163.517 6002.878 16700.513 4024.020 3343.555 3552.811 4167.590 172.351 5988.697 3312.548 3434.714 6676.335 3118.127 4716.207 985.906 12108.654 15586.831 4957.116 4497.245 5539.156 273.238 12238.881 4266.409 3031.287 2078.003 12365.027 18918.082 755.257 4708.861 3800.019 19160.599 7917.198 4974.029 2826.270 2348.883 16957.748 467.983 2099.034 3969.511 5336.968 2579.745 2305.356 12243.427 2440.375 3326.135 980.475 4506.532 14847.481 7125.922 5873.868 5359.873 4099.327 2555.045 6232.240 10673.493 21308.929 2096.291 6279.601 2031.145 7159.153 2504.192 3073.497 5292.627 725.481 830.111 884.316 2076.702 5761.911 522.286 5494.632 14736.427 17028.953 4616.916 5460.439 10055.122 7189.826 4089.486 3024.910 0.000 13235.857 5856.523 5847.551 2605.135
6576.585 14278.756 10558.226 13436.423 10247.405 11142.279 8377.479 13542.778 12065.302 12836.536 10331.848 11479.968 10962.383 14462.147 13007.664 13437.133 9918.801 10438.534 1722.866 9752.815 4812.755 12678.295 12332.662 10011.574 13395.666 13110.312 15608.712 14831.441 13366.375 7705.383 10483.991 8542.638 13795.523 8098.507 2512.162 13731.980 12911.735 8249.125 13367.991 8509.899 13558.305 13195.657 11329.337 8459.911 6251.314 13436.401 8557.294 9458.110 6399.623 8636.408 9294.212 10524.438 11079.547 5020.979 13156.223 11879.650 16973.144 8069.074 13518.137 11199.265 8567.352 11342.472 10267.540 13750.504 12738.561 8458.772 6452.425 9963.896 8540.153 12694.065 11232.959 8345.988 2982.619 13834.024 11463.583 7086.990 11269.322 7779.303 11039.106 10627.859 14624.454 13379.676 13791.480 13477.182 11483.815 7483.408 13189.480 7918.006 8415.675 4946.012 8726.324 8458.616 3357.880 7411.465 13385.702 13302.211 13235.857 0.000 7795.785 10262.070 13684.808
1219.432 7214.681 8967.171 5640.679 7071.681 3710.734 609.452 6048.590 6085.424 7519.528 3577.960 3892.800 3555.069 6934.883 5698.749 5641.567 2237.534 3579.322 7115.519 5883.942 11943.383 7088.260 6413.730 2337.303 5692.490 5770.710 10168.176 7035.989 5589.354 1230.875 2806.946 2226.017 6207.877 6934.317 10277.776 8394.640 7535.928 474.221 5919.312 7177.620 5862.643 5402.286 3791.577 7272.850 13124.081 5871.107 2281.261 2715.060 13379.980 3353.805 1584.325 3728.942 3521.600 12194.328 5920.689 5233.689 9288.548 2723.950 5726.781 3598.601 7200.003 3642.291 2586.312 6158.945 7404.901 12041.564 3442.247 5969.026 782.922 7142.661 3525.316 4673.943 4975.962 16063.966 3847.508 2652.803 3829.838 1917.696 3412.462 2916.834 7026.591 5818.999 6243.867 5885.988 3868.415 1908.281 5971.129 2731.487 11942.198 12209.894 2681.337 726.636 4451.868 4817.914 5672.278 5508.399 5856.523 7795.785 0.000 6216.880 5893.800
6386.406 5806.757 3427.823 8115.398 13288.446 5129.955 6397.084 6351.790 2848.145 2749.379 3760.654 5674.962 5033.196 10679.850 5544.476 8187.103 5673.871 3923.225 8710.314 509.554 12362.124 2814.247 2916.313 5658.113 9137.427 5675.814 5384.738 9037.156 8551.557 7443.429 5737.266 4029.407 6822.125 12949.769 12103.922 3561.268 2847.471 6349.002 6113.202 13241.321 9292.965 8146.516 5471.322 13318.922 16499.571 6521.710 3972.986 3984.215 16659.243 9557.547 6856.473 3810.528 5465.437 12608.760 5453.783 3749.740 9586.837 3535.772 7965.386 5634.065 13270.917 6072.281 5715.615 6808.491 2676.286 9254.971 4137.576 307.432 6469.553 2794.486 6070.556 2010.240 8759.490 21783.014 5769.924 4091.378 5180.649 8130.862 5679.440 5910.566 10538.680 6472.102 6677.395 6639.787 5774.327 4470.139 5433.836 3573.101 9143.795 12738.918 3578.998 6521.504 8043.232 2851.178 9071.589 8199.104 5847.551 10262.070 6216.880 0.000 8064.842
7110.667 3922.017 11492.031 376.665 9671.807 3139.355 5329.610 2192.035 5692.434 7150.421 4548.388 2600.240 3297.456 2957.672 2831.173 451.447 3824.931 4370.383 12895.201 8115.932 17651.653 6592.694 5873.563 3742.520 1690.347 2734.485 8520.850 1170.770 970.560 6262.464 3298.141 5731.684 1800.529 10930.942 16154.058 7562.190 7079.515 5452.541 2358.132 10980.621 1746.361 715.809 2812.104 11120.194 18868.551 1864.168 5750.175 4954.361 19142.127 6793.678 4490.236 4422.884 2959.168 17906.995 3070.652 4432.047 3634.889 6540.438 167.264 2788.817 10973.749 2479.230 3495.720 1770.822 7076.904 16606.455 8259.217 8027.736 5176.110 6668.915 2564.961 7967.356 10855.495 19942.310 2550.010 7317.205 3044.327 6525.311 2874.490 3124.873 2687.493 1884.263 1997.380 1739.450 2535.807 6601.530 3127.202 6684.169 16497.338 17945.371 5839.031 5265.425 10345.666 8780.233 1614.440 633.736 2605.135 13684.808 5893.800 8064.842 0.000
NODE_COORD_SECTION
1 1438.942575 -1211.855723
2 3278.208088 -9225.079611
3 9966.993990 -3246.685220
4 -664.563633 -7741.233693
5 -5562.690695 158.644981
6 1882.012250 -5979.995779
7 685.670733 -2858.832792
8 1701.729849 -8377.941472
9 5104.508006 -6897.246236
10 6649.977998 -7376.073488
11 3126.371279 -5274.317745
12 1390.069746 -6242.620690
13 1937.377083 -5806.091845
14 -3401.428209 -7688.597794
15 2359.628087 -7909.926907
16 -753.633820 -7713.058889
17 1158.113725 -4599.884550
18 2979.641186 -5375.602107
19 4612.696990 3790.152442
20 6647.541321 -4157.681407
21 7450.568068 7713.914141
22 6086.272206 -7346.395422
23 5332.300168 -7133.941396
24 1174.163829 -4698.935317
25 -1932.080781 -7218.330047
26 2266.436792 -8004.884116
27 7848.260937 -9920.666361
28 -1030.255247 -9088.823464
29 -1235.618147 -7468.992322
30 -56.870542 -1813.212673
31 1119.949307 -5171.199471
32 2971.776950 -3477.016506
33 1260.172315 -8569.387165
34 -4150.066202 2229.726464
35 4624.736212 7268.264846
36 7093.755903 -8184.346216
37 6587.226889 -7469.659462
38 768.002165 -2751.471642
39 1885.097125 -8224.443048
40 -4551.942348 2130.487420
41 -2057.780175 -7340.663993
42 -816.627861 -7437.338998
43 1566.751062 -6120.563652
44 -4552.330846 2280.544981
45 884.872373 10757.824113
46 1389.494526 -8226.189538
47 3025.447652 -3494.468987
48 2855.244261 -4387.232134
49 1113.921911 11014.492265
50 -2194.809285 -1491.793630
51 53.291686 -3602.264901
52 3113.725551 -5466.610504
53 1505.217621 -5856.468499
54 7536.755976 7956.323570
55 2603.170310 -8076.797326
56 3787.491580 -6821.825862
57 269.626302 -11621.577177
58 3689.195135 -3012.485751
59 -433.247861 -7898.473095
60 1354.091444 -5950.451530
61 -4602.879614 2102.508558
62 916.794717 -6005.396640
63 1125.105900 -4950.317188
64 1242.905609 -8521.008912
65 6567.851512 -7295.948038
66 11702.106575 3237.190405
67 4328.698959 -1338.243107
68 6663.625287 -4375.422869
69 573.863757 -2991.918276
70 6162.892412 -7345.944408
71 892.407550 -5887.388541
72 5675.466128 -2988.410804
73 1818.125250 2549.956478
74 -9602.034377 9665.036853
75 1280.456270 -6205.489853
76 3674.817495 -2030.360575
77 1865.117719 -6105.913752
78 -688.074612 -1540.623692
79 1267.560669 -5770.382733
80 956.968533 -5280.859555
81 -3154.229262 -8000.388369
82 1413.584964 -8172.503541
83 1457.445279 -8595.414514
84 1262.135303 -8247.217718
85 1281.828501 -6226.352071
86 2950.887162 -2414.620834
87 2659.333168 -8113.573634
88 3729.564917 -2859.972289
89 11637.408454 3146.482613
90 7339.340862 8096.088437
91 3383.859731 -3673.386402
92 546.095168 -2895.247898
93 2190.472556 1936.209709
94 5843.925895 -1958.182873
95 -1856.906343 -7240.120617
96 -832.802802 -7544.384754
97 2137.073368 -8118.770210
98 3440.475563 5052.754302
99 1043.244016 -2365.301411
100 6831.889757 -4632.718821
101 -467.447198 -8062.203379
DEMAND_SECTION
1 0
2 2
3 1
4 1
5 5
6 1
7 4
8 2
9 10
10 10
11 2
12 1
13 5
14 10
15 1
16 1
17 7
18 1
19 10
20 3
21 3
22 10
23 4
24 10
25 10
26 7
27 8
28 5
29 4
30 2
31 2
32 4
33 90
34 2
35 6
36 4
37 7
38 4
39 5
40 10
41 3
42 8
43 4
44 5
45 5
46 8
47 6
48 9
49 1
50 5
51 2
52 63
53 9
54 8
55 3
56 4
57 9
58 10
59 7
60 10
61 10
62 3
63 8
64 6
65 53
66 4
67 52
68 85
69 78
70 3
71 5
72 10
73 4
74 10
75 4
76 8
77 1
78 4
79 7
80 8
81 10
82 1
83 5
84 6
85 10
86 10
87 51
88 1
89 9
90 2
91 5
92 8
93 3
94 1
95 4
96 1
97 8
98 6
99 6
100 75
101 78
DEPOT_SECTION
1
-1
EOF
