NAME : mamut-san_francisco-n25-hyb
COMMENT : Mamut2026 shortest metric; city san_francisco; 3-decimal seconds/meters; ENU ref in mamut-san_francisco-n25-hyb.vrp.json
TYPE : CVRP
DIMENSION : 26
EDGE_WEIGHT_TYPE : EXPLICIT
EDGE_WEIGHT_FORMAT : FULL_MATRIX
CAPACITY : 129
EDGE_WEIGHT_SECTION
0.000 18434.649 2260.711 2625.577 6922.237 6723.717 20785.831 3745.835 19601.117 1616.509 3144.123 1062.800 2604.669 13547.080 14490.076 12518.010 6900.579 14255.049 6096.526 17444.253 17447.128 8018.771 1780.224 3559.444 14664.793 23426.455
19086.364 0.000 18182.688 20722.170 23481.016 25291.097 2351.182 21493.536 2833.212 18798.843 20420.274 19059.192 20188.996 30105.859 31871.982 29899.916 23409.051 31636.955 23532.972 34003.032 34005.907 24527.242 20208.260 19294.885 5334.831 5756.667
2384.302 17803.459 0.000 2886.115 8378.703 7750.560 20154.640 3406.989 18969.927 746.762 2333.728 1686.665 4245.418 15003.545 16130.825 14158.759 7861.154 15895.798 5446.425 18900.719 18903.594 8979.346 3519.997 3867.228 14033.603 22795.264
2449.097 19968.836 3150.824 0.000 8493.330 4894.867 22320.018 1489.066 21135.304 2186.961 3413.900 2325.364 3266.820 15105.415 14725.944 12753.878 8616.640 14490.917 3471.558 19002.589 19005.464 9734.832 1539.486 5601.375 16198.980 24960.642
6761.374 23063.378 8521.573 8588.755 0.000 12214.719 25414.559 9757.358 24229.846 7960.312 9633.180 7483.047 5440.742 6721.925 10194.621 8222.555 1813.719 9959.594 12060.313 10619.099 10621.974 2189.568 7144.059 6409.363 19293.522 28055.183
6434.002 24332.637 7898.748 4819.493 11910.155 0.000 26683.818 6194.918 25499.105 6934.885 8100.347 6513.813 7038.994 18498.719 12622.883 11682.589 12598.474 12387.857 6188.164 20063.717 19150.036 13685.541 5461.663 9597.347 20562.781 29324.442
21363.647 2590.748 20459.971 22999.453 25758.299 27568.380 0.000 23770.819 2055.784 21076.126 22697.557 21336.475 22466.279 32383.142 34149.265 32177.199 25686.334 33914.238 25810.255 36280.315 36283.190 26804.525 22485.543 21572.168 7612.114 4297.580
3552.992 20636.407 3324.454 1489.066 9634.242 6288.193 22987.589 0.000 21802.876 3045.905 1933.836 3414.278 4375.104 16259.085 16114.156 14142.090 9720.535 15879.129 2455.048 20156.258 20159.133 10838.726 2736.231 6612.786 16866.552 25628.213
19788.345 3107.534 18884.668 21424.150 24182.996 25993.077 2064.526 22195.516 0.000 19500.823 21122.254 19761.172 20890.976 30807.839 32573.962 30601.896 24111.031 32338.935 24234.952 34705.012 34707.887 25229.222 20910.240 19996.865 6833.785 4331.640
1811.606 18084.392 1037.740 2228.843 7831.823 7101.131 20435.574 3032.865 19250.861 0.000 2099.227 1031.773 3690.044 14456.666 15575.451 13603.385 7741.637 15340.424 5211.925 18353.839 18356.714 8859.829 2964.623 3787.419 14314.537 23076.198
3021.907 19666.961 2355.008 3425.110 9506.682 8195.309 22018.142 2024.043 20833.429 2208.538 0.000 2668.232 5189.114 16131.524 17074.521 15102.455 9592.975 16839.494 3664.532 20028.698 20031.573 10711.166 4289.490 5643.340 15897.105 24658.766
780.855 18343.070 2022.238 2066.118 7265.630 6231.935 20694.252 3186.377 19509.538 1063.539 2583.810 0.000 2948.062 13890.472 14833.469 12861.403 7351.923 14598.442 5537.067 17787.646 17790.521 8470.114 2057.668 3847.889 14573.215 23334.876
2384.452 19726.883 4326.920 3254.651 5420.612 7180.876 22078.064 4374.909 20893.351 3732.434 5256.259 3255.170 0.000 12032.697 11978.336 10006.270 5768.828 11743.309 6725.600 15929.870 15932.745 6887.019 1761.610 4043.323 15957.027 24718.688
13261.538 29203.956 14739.018 15088.919 6622.847 18431.238 31555.138 16257.522 30370.425 14460.476 16133.344 13983.211 11940.906 0.000 13403.860 11431.794 7275.181 13168.833 18560.477 8521.977 8524.852 7296.677 13644.223 12065.019 25434.101 34195.762
14254.100 31462.677 16196.567 14709.479 10197.895 12592.588 33813.858 16054.311 32629.145 15602.081 17125.906 15124.817 12004.819 10684.950 0.000 1976.797 11957.468 1467.185 17566.695 9735.030 8419.364 12380.009 13554.602 15651.225 27692.821 36454.482
12277.303 29485.880 14219.771 12732.683 8221.099 11133.465 31837.062 14077.515 30652.348 13625.285 15149.109 13148.020 10028.023 9018.525 1972.066 0.000 9980.671 1737.039 15589.899 8498.362 7584.682 10403.212 11577.806 13674.428 25716.025 34477.686
6713.117 22118.629 7653.691 8738.485 1812.242 12685.161 24469.811 9858.744 23285.097 7717.348 9549.558 7240.084 5709.449 7553.910 11979.081 10007.015 0.000 11744.054 12209.434 11451.083 11453.958 1235.972 7265.523 4979.692 18348.773 27110.435
14056.571 31265.149 15999.039 14511.951 10000.367 12395.059 33616.330 15856.783 32431.617 15404.553 16928.377 14927.289 11807.291 9833.469 1270.386 1779.268 11759.939 0.000 17369.167 8596.547 7280.881 12182.481 13357.074 15453.696 27495.293 36256.954
5944.110 22804.495 5492.542 3495.247 11983.241 6500.459 25155.677 2395.571 23970.963 5346.073 3691.434 5804.364 6762.068 18600.663 17650.739 15678.674 12111.653 17415.713 0.000 22497.836 22500.711 13229.844 5034.733 8780.874 19034.640 27796.301
16124.347 32066.765 17601.827 17951.728 9485.656 19181.380 34417.947 19120.330 33233.233 17323.284 18996.153 16846.020 14803.714 3500.289 9432.405 8266.986 10137.990 8337.542 21423.286 0.000 2791.861 10159.486 16507.032 14927.828 28296.909 37058.571
17291.560 33233.979 18769.041 19118.942 10652.870 18615.898 35585.160 20287.544 34400.447 18490.498 20163.367 18013.234 15970.928 4667.503 8437.076 7701.504 11305.203 7342.213 22590.500 2797.403 0.000 11326.700 17674.246 16095.042 29464.123 38225.785
7828.919 23234.431 8769.493 9854.288 2188.092 13785.684 25585.613 10974.546 24400.899 8833.150 10665.360 8355.886 6825.251 7598.368 12375.811 10403.745 1235.972 12140.784 13325.236 11495.542 11498.417 0.000 8381.325 6095.494 19464.576 28226.237
1419.519 19820.016 3646.078 1529.092 7040.534 5597.887 22171.197 2725.068 20986.484 3036.028 4283.555 2480.178 1762.816 13652.619 13512.603 11540.537 7179.479 13277.576 5000.041 17549.792 17552.668 8297.671 0.000 4864.929 16050.160 24811.821
3806.876 17985.042 3520.103 5580.159 6325.098 9745.975 20336.223 6489.232 19151.510 3698.984 5415.971 3514.040 4019.390 12336.809 15691.199 13719.133 5016.134 15456.172 8528.668 16233.983 16236.858 6134.325 4829.358 0.000 14215.186 22976.847
14818.504 5259.927 13914.828 16454.310 19213.156 21023.237 7611.108 17225.675 6746.943 14530.983 16152.414 14791.332 15921.136 25837.999 27604.122 25632.056 19141.190 27369.095 19265.112 29735.172 29738.047 20259.382 15940.400 15027.025 0.000 10572.280
23745.749 5892.564 22842.072 25381.555 28140.401 29950.481 4205.197 26152.920 4322.898 23458.227 25079.659 23718.577 24848.380 34765.243 36531.366 34559.300 28068.435 36296.339 28192.356 38662.417 38665.292 29186.627 24867.645 23954.269 10791.189 0.000
NODE_COORD_SECTION
1 27567.380647 -311.862562
2 38257.799860 9676.787791
3 28538.966090 1016.693012
4 25888.914386 405.943791
5 28540.425734 -6244.715858
6 21553.927040 -512.874100
7 38424.235110 11826.298885
8 25872.749559 1715.523159
9 36957.000240 11166.634803
10 27910.377166 859.836616
11 27055.629237 2556.391717
12 27590.995832 222.692284
13 26855.440353 -2190.735905
14 30079.263644 -12410.035017
15 21628.207005 -11634.268768
16 23001.815504 -10624.798929
17 29894.807566 -5655.919675
18 22355.373881 -12033.672188
19 25092.789939 2582.964149
20 28326.578033 -14918.053311
21 27502.683222 -15445.102092
22 30311.322838 -6472.820801
23 26415.372131 -694.666816
24 30234.935720 -1177.051005
25 38289.055259 5129.499080
26 36230.288805 14740.874347
DEMAND_SECTION
1 0
2 2
3 4
4 2
5 3
6 5
7 52
8 7
9 5
10 7
11 70
12 4
13 1
14 79
15 10
16 3
17 1
18 82
19 4
20 9
21 9
22 6
23 62
24 9
25 86
26 2
DEPOT_SECTION
1
-1
EOF
