NAME : mamut-paris-n50-poi
COMMENT : Mamut2026 fastest metric; city paris; 3-decimal seconds/meters; ENU ref in mamut-paris-n50-poi.vrp.json
TYPE : CVRP
DIMENSION : 51
EDGE_WEIGHT_TYPE : EXPLICIT
EDGE_WEIGHT_FORMAT : FULL_MATRIX
CAPACITY : 184
EDGE_WEIGHT_SECTION
0.000 133.941 224.849 98.089 197.176 113.936 198.940 367.656 218.428 231.839 230.691 486.208 104.887 355.766 214.561 103.090 68.043 106.486 303.995 555.384 55.762 109.398 333.536 97.068 138.264 206.820 174.837 276.992 201.633 191.257 411.291 173.600 445.469 404.180 127.823 422.152 205.098 325.155 337.653 232.169 156.641 245.548 316.141 109.233 114.061 145.049 86.947 186.296 127.198 186.533 191.727
255.818 0.000 365.787 233.059 204.369 230.178 176.791 547.382 306.714 226.865 192.254 627.130 239.858 535.491 244.591 219.332 247.678 222.728 392.282 696.306 247.815 216.710 295.099 213.310 225.603 342.275 249.825 264.314 179.484 299.735 552.213 76.421 586.391 365.743 60.632 563.074 122.029 441.396 478.591 176.272 173.738 386.486 361.515 238.211 258.716 253.527 266.582 218.107 243.440 224.582 153.289
199.969 274.782 0.000 164.856 307.846 292.171 364.387 239.640 139.455 242.104 371.532 464.702 151.859 235.317 380.008 255.442 268.012 237.037 225.022 533.878 255.731 245.042 474.377 275.303 213.395 276.336 141.526 442.438 367.080 356.703 398.656 314.441 432.834 545.021 268.664 409.517 345.939 339.014 152.591 397.615 316.428 45.587 242.098 211.854 233.426 310.495 286.916 351.743 287.253 351.979 332.568
134.220 146.738 178.273 0.000 189.884 214.858 236.343 374.349 131.911 192.574 243.489 515.116 18.370 384.674 251.964 204.012 186.244 186.727 217.479 584.293 173.963 116.999 346.334 197.990 112.842 191.458 88.320 314.395 239.036 228.660 440.199 186.398 474.378 416.978 140.621 451.061 217.896 380.557 291.077 269.572 188.384 198.972 229.624 83.811 170.957 182.452 205.148 223.699 228.120 223.936 204.524
242.720 161.507 315.202 190.742 0.000 307.395 260.810 465.580 224.754 119.584 164.764 623.616 197.541 493.174 321.808 296.549 294.743 295.227 262.724 692.792 282.462 174.393 272.982 290.527 175.018 299.958 199.240 350.840 263.503 337.160 548.699 203.013 582.877 343.626 157.236 559.560 227.119 489.057 399.237 262.798 213.172 335.901 235.153 195.894 279.457 290.951 313.648 295.324 320.657 301.799 203.035
176.916 175.050 315.481 209.291 283.517 0.000 150.658 409.506 329.630 306.013 264.475 486.733 216.089 397.324 154.825 78.934 107.281 82.331 415.197 555.909 160.534 220.600 367.320 72.913 249.466 318.506 286.039 217.256 153.351 214.671 411.816 205.378 445.994 437.964 159.601 422.677 186.901 300.999 403.495 183.886 243.129 314.546 427.343 220.435 118.319 168.462 126.185 116.232 103.043 116.469 232.836
200.622 146.627 387.573 220.872 255.094 168.820 0.000 488.545 341.211 277.590 181.567 565.772 227.671 476.364 142.783 157.974 186.320 161.370 426.779 634.948 186.457 232.181 284.412 151.952 261.048 330.088 297.621 138.815 70.443 238.377 490.855 159.943 525.033 355.056 131.177 501.716 103.993 380.038 482.534 100.978 214.705 393.585 412.239 232.017 197.358 192.168 205.224 156.749 182.082 163.224 194.915
333.912 461.652 248.989 372.244 467.442 393.942 484.129 0.000 273.621 364.496 558.403 318.893 359.248 144.819 497.508 357.213 380.292 338.809 260.671 388.069 389.673 437.109 652.891 377.075 410.738 480.845 348.914 559.939 486.822 518.968 382.004 501.312 416.182 723.535 455.534 392.865 520.373 325.898 114.794 517.358 484.352 240.665 298.237 416.362 355.428 472.760 399.196 458.915 389.024 459.151 519.438
296.903 309.421 227.105 194.050 289.248 377.541 399.026 259.838 0.000 186.302 384.385 509.860 181.053 327.472 414.647 366.695 348.927 349.410 102.968 579.036 336.646 279.682 474.697 360.673 232.544 354.141 170.720 477.078 401.719 391.343 554.638 349.081 588.817 545.341 303.304 565.500 380.579 494.996 193.495 432.255 351.067 247.804 120.043 246.494 333.640 345.135 367.831 386.382 390.803 386.619 367.207
264.131 204.960 252.445 183.894 119.658 344.768 299.356 365.076 159.939 0.000 230.229 615.098 170.898 432.710 360.354 333.922 316.154 316.638 168.811 684.274 303.873 195.804 327.727 327.901 112.261 321.368 136.483 404.522 302.049 358.570 570.110 244.619 604.288 398.371 198.842 580.971 272.480 510.468 298.733 326.723 246.606 273.144 134.649 182.618 300.867 312.362 335.058 333.871 358.030 340.346 248.396
322.005 194.744 411.483 283.104 158.956 290.202 169.581 563.474 321.036 241.187 0.000 687.155 289.903 585.537 228.048 279.356 307.703 282.753 378.843 756.331 307.839 266.756 120.739 273.335 271.299 392.320 295.522 224.080 163.088 359.759 612.238 193.960 646.416 191.383 190.473 623.099 113.298 501.421 497.131 124.697 277.487 432.183 344.681 288.256 318.741 313.551 326.607 275.218 303.464 284.607 85.738
456.299 584.039 474.778 528.431 645.649 504.545 594.732 341.183 548.785 639.659 680.789 0.000 530.351 314.423 563.719 467.816 490.895 446.155 554.926 99.335 512.060 559.496 783.634 487.677 568.606 604.058 561.481 626.150 597.425 641.355 232.197 623.699 266.375 854.278 577.921 229.258 630.976 301.121 384.112 627.960 606.739 466.455 573.400 539.575 466.031 595.147 509.799 549.907 488.831 543.444 641.825
123.884 136.402 159.903 21.030 179.547 204.521 226.007 355.979 113.541 174.204 233.152 504.780 0.000 370.331 241.628 193.675 175.907 176.390 199.108 573.956 163.626 106.662 335.997 187.653 102.505 176.862 69.950 304.058 228.700 218.323 429.863 176.061 464.041 406.641 130.284 440.724 207.559 370.221 272.707 259.235 178.048 180.602 211.254 73.474 160.620 172.115 194.811 213.363 217.783 213.599 194.188
339.542 467.282 239.098 403.953 522.542 399.573 489.760 140.503 342.796 433.671 564.033 320.386 390.957 0.000 503.050 362.844 385.923 344.439 348.938 389.562 395.304 442.740 666.878 382.705 445.499 480.951 380.624 565.481 492.453 524.599 378.763 506.942 412.941 737.522 461.165 389.624 526.003 322.657 178.124 522.988 489.982 230.775 367.412 416.468 361.059 478.390 404.827 464.545 394.655 464.782 525.068
244.987 223.133 429.629 277.362 331.599 203.929 124.806 500.639 397.701 354.096 229.582 540.043 284.160 488.458 0.000 193.082 221.429 196.479 483.269 609.219 230.822 288.671 332.427 187.061 317.537 386.577 354.110 91.897 156.665 282.742 465.126 253.460 499.304 403.071 207.683 475.987 152.008 342.395 509.337 148.993 291.211 428.694 488.745 288.506 232.467 236.533 240.333 80.504 185.582 134.716 242.931
151.977 207.814 285.402 242.054 316.280 68.247 183.421 379.426 338.514 338.777 297.238 455.797 248.853 367.245 149.505 0.000 90.235 51.395 424.081 524.973 140.298 253.363 400.083 76.366 282.230 333.006 299.181 211.936 186.114 247.434 380.880 238.142 415.058 470.727 192.364 391.741 219.665 270.063 373.416 216.649 275.892 284.467 439.827 253.199 91.129 201.226 109.139 110.912 41.021 111.149 265.600
135.279 160.473 271.594 194.713 268.940 45.894 136.080 365.619 315.053 291.436 249.898 442.846 201.512 353.437 151.701 35.047 0.000 38.444 400.620 512.022 105.362 206.023 352.742 29.026 234.889 303.929 271.462 214.132 138.774 200.093 367.929 190.801 402.107 423.387 145.023 378.790 172.324 257.112 359.608 169.309 228.552 270.659 412.766 205.858 74.432 153.885 18.904 123.437 59.156 123.673 218.259
161.171 217.008 292.158 251.248 325.474 77.441 192.615 386.182 345.270 347.971 306.432 462.553 258.047 374.001 158.699 31.089 99.429 0.000 430.837 531.729 149.492 262.557 409.277 85.560 291.423 339.762 305.937 221.130 195.308 256.628 387.636 247.335 421.814 479.921 201.558 398.497 228.859 276.819 380.172 225.843 285.086 291.223 446.583 262.392 100.323 210.420 118.333 120.106 50.215 120.343 274.794
282.402 294.920 212.604 179.548 258.228 363.039 384.525 271.132 80.926 167.022 369.883 536.084 166.552 353.697 400.146 352.193 334.425 334.909 0.000 605.260 322.144 265.180 448.168 346.171 218.043 339.639 156.219 462.577 387.218 376.841 540.137 334.580 574.315 518.812 288.802 550.998 366.077 480.495 219.719 417.753 336.566 233.303 105.541 231.992 319.138 330.633 353.329 371.881 376.301 372.118 352.706
537.627 665.367 556.106 609.760 726.978 585.874 676.061 422.511 630.113 720.988 762.118 106.866 611.680 395.751 645.048 549.145 572.223 527.483 636.254 0.000 593.389 640.824 864.963 569.006 649.935 685.386 642.810 707.479 678.754 722.683 313.525 705.027 347.704 935.607 659.249 310.587 712.304 382.449 465.441 709.289 688.067 547.783 654.729 620.904 547.360 676.475 591.128 631.236 570.159 624.772 723.153
55.762 189.702 280.610 153.850 252.938 83.086 173.273 402.811 274.189 287.601 286.453 480.038 160.649 390.630 188.894 72.240 37.193 75.636 359.757 549.215 0.000 165.159 389.298 66.218 194.026 262.582 230.599 251.325 175.966 165.006 405.122 227.993 439.300 459.942 182.216 415.983 209.517 294.305 393.414 206.501 212.402 301.309 371.903 164.995 111.624 145.388 56.097 160.629 96.348 160.866 247.488
161.039 163.661 298.721 132.020 226.896 241.676 258.057 446.343 252.359 265.771 260.411 564.894 138.819 434.452 278.783 230.830 213.062 234.227 337.927 634.071 200.781 0.000 363.256 224.809 172.196 241.236 208.769 341.214 260.750 255.478 489.977 203.320 524.156 433.900 157.543 500.839 234.818 430.335 411.525 289.061 186.361 319.421 350.072 143.165 220.735 209.270 231.966 250.518 254.938 250.755 221.447
410.277 283.016 504.104 371.377 260.599 378.474 257.853 642.886 422.679 314.721 108.973 775.427 378.175 673.809 316.320 367.628 395.975 371.025 446.621 844.603 396.111 355.028 0.000 361.607 363.920 480.592 388.142 312.352 251.360 448.031 700.510 282.232 734.688 116.243 278.745 711.371 201.570 589.693 576.543 200.643 365.759 524.803 412.459 376.528 407.013 401.823 414.879 363.490 391.736 372.879 174.010
206.344 204.478 344.908 238.718 312.944 29.427 180.085 438.933 359.057 335.441 293.902 516.160 245.516 426.752 154.305 108.362 136.708 111.758 444.625 585.336 189.961 250.027 396.747 0.000 278.893 347.934 315.466 216.735 182.778 244.098 441.243 234.805 475.421 467.391 189.028 452.104 216.328 330.426 432.923 213.313 272.556 343.973 456.770 249.862 147.746 197.890 155.612 115.711 119.299 115.948 262.264
173.233 139.819 216.234 99.279 174.177 253.870 234.215 400.432 157.994 108.435 236.570 554.129 106.078 423.687 290.977 243.024 225.256 225.740 243.562 623.305 212.975 117.046 339.414 237.003 0.000 230.470 100.272 339.381 236.908 267.672 479.212 179.479 513.390 410.059 133.701 490.073 210.976 419.570 329.038 265.219 181.465 236.933 241.460 86.610 209.969 221.464 244.160 262.712 267.132 262.949 197.605
133.625 230.299 249.882 156.227 273.445 237.985 319.904 392.690 266.429 289.978 327.050 511.241 160.921 380.799 335.525 201.257 201.667 182.852 351.996 580.417 189.386 200.560 429.895 221.118 196.402 0.000 222.838 397.956 322.597 312.221 436.324 269.959 470.502 500.539 224.182 447.185 301.457 376.682 362.686 353.133 271.945 270.581 364.142 167.372 167.081 266.012 220.572 302.958 233.067 303.194 288.085
193.001 205.519 158.699 90.148 227.548 273.639 295.124 344.790 102.352 161.806 302.270 557.474 77.151 369.127 310.745 262.793 245.025 245.508 187.920 626.650 232.744 175.780 405.115 256.771 129.420 250.239 0.000 373.176 297.817 287.441 482.557 245.179 516.735 475.759 199.402 493.418 276.677 422.915 271.503 328.353 247.165 179.398 200.065 142.592 229.738 241.233 263.929 282.480 286.901 282.717 263.305
300.175 246.179 487.126 320.425 338.102 268.372 115.092 588.097 440.764 375.532 206.431 639.757 327.223 575.916 126.131 257.526 285.872 260.922 526.332 708.933 286.009 331.734 309.275 251.504 360.600 429.640 397.173 0.000 146.951 337.929 564.840 244.658 599.018 379.920 230.730 575.701 142.294 442.108 582.087 95.924 314.258 493.138 510.181 331.569 296.910 291.721 304.777 173.301 281.634 234.430 233.216
230.840 176.845 417.791 251.090 258.292 199.038 61.173 518.763 371.429 295.722 140.058 595.990 257.889 506.581 106.440 188.192 216.538 191.588 456.997 665.166 216.675 262.399 242.903 182.170 291.265 360.306 318.682 102.473 0.000 268.594 521.073 164.848 555.251 313.547 161.395 531.934 62.484 410.256 512.752 59.469 244.923 423.803 430.371 262.234 227.576 222.386 235.442 153.610 212.300 193.442 153.406
156.772 199.488 363.972 197.271 296.358 153.894 175.379 473.619 317.610 330.451 289.197 550.846 204.069 461.438 191.000 143.048 154.887 146.444 403.178 620.022 142.606 208.580 392.041 137.026 237.446 306.486 274.019 253.431 178.073 0.000 475.929 229.816 510.108 462.686 184.038 486.791 211.623 365.112 467.609 208.608 246.206 378.660 415.323 208.415 182.432 43.999 173.791 162.736 167.156 162.972 257.274
396.633 524.373 427.424 468.766 585.984 444.880 535.067 414.564 508.882 602.516 621.124 234.561 470.686 387.804 504.054 408.151 431.230 386.490 594.450 303.737 452.395 499.830 723.969 428.012 508.941 544.392 501.816 566.485 537.760 581.689 0.000 564.033 84.749 794.613 518.256 68.108 571.310 240.748 457.493 568.295 547.073 426.489 611.525 479.910 406.366 535.481 450.134 490.242 429.165 483.778 582.159
249.297 89.381 359.266 226.538 197.848 223.657 170.270 540.861 300.193 220.344 186.132 620.609 233.336 528.970 238.070 212.811 241.157 216.207 385.761 689.785 241.294 210.189 288.976 206.789 219.081 335.754 243.304 275.436 172.963 293.213 545.692 0.000 579.870 359.621 54.111 556.553 152.258 434.875 472.070 203.498 167.217 379.965 354.993 231.690 252.195 247.005 260.061 211.586 236.919 218.061 147.167
448.515 576.255 479.305 520.647 637.865 496.761 586.948 466.445 560.763 654.398 673.006 285.811 522.568 439.685 555.935 460.032 483.111 438.371 646.331 354.987 504.276 551.712 775.850 479.894 560.823 596.274 553.698 618.366 589.641 633.571 129.193 615.915 0.000 846.495 570.137 165.863 623.192 329.492 509.375 620.177 598.955 478.370 663.407 531.792 458.247 587.363 502.015 542.123 481.047 535.660 634.041
433.473 306.212 527.300 394.573 283.795 401.671 281.050 666.082 445.875 337.917 132.169 798.623 401.371 697.005 339.516 390.825 419.171 394.221 469.817 867.799 419.308 378.224 65.625 384.803 387.116 503.788 411.339 335.549 274.556 471.227 723.706 305.428 757.884 0.000 301.941 734.567 224.766 612.889 599.739 223.840 388.955 548.000 435.655 399.725 430.209 425.019 438.075 386.686 414.933 396.075 197.206
237.596 77.680 347.565 214.837 186.147 211.956 158.569 529.160 288.492 208.643 174.431 608.908 221.635 517.269 226.369 201.110 229.456 204.506 374.060 678.084 229.593 198.488 277.275 195.088 207.380 324.053 231.603 247.928 161.262 281.512 533.991 60.034 568.169 347.920 0.000 544.852 105.642 423.174 460.369 159.885 155.516 368.264 343.292 219.989 240.494 235.304 248.360 199.885 225.218 206.360 135.466
406.977 534.718 437.768 479.110 596.328 455.224 545.411 424.908 519.226 612.861 631.468 237.885 481.030 398.148 514.398 418.495 441.574 396.834 604.794 307.061 462.739 510.175 734.313 438.356 519.285 554.737 512.160 576.829 548.104 592.034 60.916 574.377 95.094 804.957 528.600 0.000 581.655 243.054 467.838 578.639 557.418 436.833 621.869 490.254 416.710 545.826 460.478 500.586 439.510 494.123 592.504
250.866 196.871 419.265 271.116 258.048 219.063 98.442 538.789 360.192 280.344 146.306 616.016 277.914 526.607 167.797 208.217 236.564 211.614 445.760 685.192 236.700 270.189 249.150 202.196 279.081 380.332 303.303 163.830 91.949 288.620 541.099 149.469 575.277 319.795 166.668 551.960 0.000 430.282 532.069 75.787 264.949 439.964 414.993 282.260 247.602 242.412 255.468 206.993 232.325 213.468 159.654
292.555 420.295 323.346 364.688 481.906 324.514 414.701 310.805 404.804 498.439 517.046 288.135 366.608 284.045 354.770 287.785 310.864 266.124 490.372 357.311 347.930 395.752 619.891 307.646 404.863 440.314 397.738 417.201 417.394 468.046 224.936 459.955 259.114 690.535 414.178 204.192 450.945 0.000 353.735 447.929 442.995 322.411 507.447 375.832 286.000 421.838 329.768 343.527 308.800 334.495 478.081
321.781 399.483 167.145 289.557 406.559 382.909 473.096 114.907 212.739 303.614 496.234 361.864 276.560 179.477 486.475 346.180 369.259 327.775 218.880 431.040 377.543 369.744 592.008 366.041 338.096 401.037 266.227 548.905 475.789 481.404 420.242 439.143 454.420 662.653 393.365 431.103 470.640 364.136 0.000 506.324 441.129 158.822 237.354 336.555 344.395 435.196 388.163 447.881 377.991 448.118 457.269
239.450 185.455 426.401 259.700 254.762 207.647 87.026 527.373 372.040 292.192 123.464 604.600 266.498 515.191 145.493 196.801 225.148 200.198 457.608 673.776 225.284 271.009 226.309 190.780 290.929 368.916 315.151 129.547 80.533 277.204 529.683 161.317 563.861 296.953 170.005 540.544 58.954 418.866 521.362 0.000 253.533 432.413 426.841 270.844 236.186 230.996 244.052 192.663 220.909 202.052 149.876
184.486 140.676 337.817 171.116 203.911 265.123 235.072 485.439 291.455 246.265 237.427 603.990 177.914 473.548 296.071 254.277 236.509 257.674 377.023 673.166 224.228 154.767 340.272 248.256 175.147 280.332 247.864 340.238 237.765 278.925 529.073 180.336 563.251 410.916 134.558 539.934 211.833 469.431 450.621 266.076 0.000 358.516 380.914 176.268 259.831 232.717 255.413 269.587 278.385 274.202 198.462
208.292 283.105 8.323 173.179 316.169 286.736 372.710 235.286 147.778 250.427 379.855 452.781 160.182 223.396 388.331 250.007 273.086 231.603 233.345 521.957 264.054 253.365 482.700 269.868 221.718 284.659 149.849 450.761 375.403 365.026 393.049 322.764 427.227 553.344 276.987 403.910 354.262 333.407 156.326 405.938 324.751 0.000 250.421 220.177 241.749 318.818 291.990 351.708 281.818 351.945 340.891
336.635 314.604 266.837 233.781 220.105 417.273 409.000 340.296 135.159 109.644 320.284 590.317 220.785 407.930 454.379 406.427 388.658 389.142 142.609 659.493 376.377 305.448 398.039 400.405 221.905 393.873 210.452 514.166 411.693 431.074 594.370 354.264 628.548 468.683 308.486 605.231 382.125 534.728 273.953 419.542 356.250 287.536 0.000 286.225 373.371 384.866 407.563 426.114 430.535 426.351 358.040
158.902 135.840 267.286 100.585 178.986 239.540 230.236 421.247 220.924 195.519 232.591 539.799 107.383 409.356 276.646 228.694 210.926 211.409 306.492 608.975 198.645 106.101 335.435 222.672 101.943 216.140 177.333 335.402 232.929 253.342 464.882 175.500 499.060 406.080 129.722 475.743 206.997 405.239 380.090 261.240 177.486 287.985 318.637 0.000 195.639 207.134 229.830 248.381 252.802 248.618 193.626
85.889 218.170 265.138 183.978 283.065 103.590 193.777 359.163 304.317 317.729 307.595 452.859 190.776 346.982 207.156 66.862 82.655 48.457 389.885 522.035 115.293 195.287 410.439 86.723 224.153 292.710 260.726 269.587 196.470 239.838 377.942 248.498 412.120 481.083 202.720 388.803 230.021 267.125 353.153 227.006 242.530 264.203 402.030 195.122 0.000 193.629 101.560 168.563 98.672 168.799 275.956
140.165 182.881 347.365 180.664 279.752 137.287 158.773 457.013 301.003 313.845 272.590 534.240 187.463 444.831 174.394 126.441 138.281 129.838 386.571 603.416 126.000 191.973 375.435 120.420 220.839 289.880 257.413 236.825 161.466 177.919 459.323 213.209 493.501 446.079 167.432 470.184 195.016 348.506 451.002 192.001 229.600 362.053 398.716 191.809 165.826 0.000 157.185 146.129 150.549 146.366 240.667
142.219 154.857 283.598 189.097 263.323 57.897 130.464 377.623 309.436 285.820 244.281 454.850 195.896 365.441 146.085 47.051 31.618 50.448 395.004 524.026 86.457 200.406 347.126 41.030 229.272 298.313 265.845 208.516 133.157 194.477 379.933 185.184 414.111 417.770 139.407 390.794 166.708 269.116 371.612 163.692 222.935 282.663 407.149 200.241 86.436 148.269 0.000 117.820 71.159 118.057 212.643
211.875 190.020 396.517 244.249 298.487 170.816 133.933 490.541 364.588 320.983 238.709 544.366 251.048 478.360 38.593 159.970 188.316 163.366 450.156 613.542 197.709 255.558 341.554 153.948 284.425 353.465 320.998 101.024 165.793 249.629 469.449 220.348 503.627 412.198 174.570 480.310 161.136 346.717 484.531 158.120 258.099 395.582 455.633 255.394 199.354 203.421 207.221 0.000 184.078 125.892 247.806
209.470 217.831 342.895 272.060 326.298 64.104 193.439 436.920 392.400 348.795 307.256 513.291 278.859 424.739 143.809 105.492 147.729 108.889 477.967 582.467 197.792 283.370 410.101 133.860 312.236 381.276 348.809 206.240 196.132 277.440 438.374 248.159 472.552 480.745 202.382 449.235 229.682 327.557 430.909 226.667 285.910 341.960 483.444 283.205 148.623 231.232 166.633 105.216 0.000 105.452 275.617
187.839 165.985 341.728 220.214 274.451 112.959 141.592 435.752 340.553 296.948 255.409 481.861 227.012 423.571 91.962 104.325 146.561 107.721 426.120 551.037 173.674 231.523 358.254 127.627 260.389 329.429 296.962 154.393 144.285 225.593 406.944 196.312 441.122 428.898 150.535 417.805 177.835 284.212 429.742 174.820 234.063 340.793 431.597 231.358 147.455 179.385 165.465 53.369 92.994 0.000 223.770
248.645 119.694 340.782 208.054 179.565 265.582 185.508 522.377 281.709 201.860 76.789 640.928 214.852 510.486 243.975 254.736 283.082 258.132 367.277 710.104 283.219 191.705 179.634 248.714 200.597 317.270 224.820 240.007 179.015 335.139 566.011 161.200 600.189 250.278 115.423 576.872 129.224 476.800 453.586 151.965 202.436 361.481 336.509 213.206 294.120 288.931 301.986 253.511 278.844 259.986 0.000
NODE_COORD_SECTION
1 -500.874011 70.822412
2 1840.727049 -564.555606
3 -2871.560687 -1432.868439
4 -187.564215 -1367.702498
5 2541.333576 -3146.477655
6 3.726492 1686.028259
7 2122.519408 944.757438
8 -6791.041533 -2753.649051
9 -1572.130856 -3470.222776
10 826.488729 -3965.251059
11 4338.617676 -1397.413845
12 -8748.499584 1220.187001
13 -469.528837 -1257.802496
14 -6048.031162 -892.746428
15 1921.861176 2762.123850
16 -660.847098 1656.030294
17 -299.326661 1333.687192
18 -919.685697 1611.339375
19 -1525.415911 -4671.419178
20 -8851.407038 1094.017710
21 -199.462030 883.949715
22 264.572874 -465.155772
23 6439.454661 -1386.956907
24 -225.923465 1656.485053
25 303.920118 -1921.395598
26 -271.932180 -592.187072
27 -605.226304 -2388.616812
28 2616.651799 1793.067066
29 2519.635205 861.639522
30 150.169477 790.000373
31 -7532.555394 3604.470873
32 1969.753388 -376.015835
33 -7988.463014 3618.861438
34 6582.319889 -1248.882718
35 1769.616483 -472.610476
36 -7424.593878 3832.980366
37 2872.083219 62.519852
38 -4594.203123 3268.566484
39 -4835.309061 -2297.624564
40 3608.378135 682.159408
41 1025.893993 -274.792714
42 -3020.111183 -1368.679369
43 -693.315235 -4379.012035
44 118.037925 -1115.754310
45 -1061.537452 950.115268
46 268.484075 759.311640
47 -96.807854 1277.965184
48 1250.406537 2473.238437
49 -375.123833 1758.092073
50 424.641228 2398.071733
51 2960.877499 -1252.533360
DEMAND_SECTION
1 0
2 1
3 7
4 8
5 2
6 10
7 4
8 3
9 7
10 8
11 4
12 6
13 4
14 2
15 9
16 9
17 97
18 4
19 1
20 9
21 10
22 10
23 64
24 10
25 3
26 5
27 5
28 2
29 10
30 8
31 8
32 80
33 10
34 7
35 2
36 67
37 5
38 5
39 1
40 6
41 8
42 5
43 8
44 87
45 4
46 9
47 6
48 9
49 5
50 1
51 1
DEPOT_SECTION
1
-1
EOF
