NAME : mamut-hong_kong-n50-hyb
COMMENT : Mamut2026 euclidean metric; city hong_kong; 3-decimal seconds/meters; ENU ref in mamut-hong_kong-n50-hyb.vrp.json
TYPE : CVRP
DIMENSION : 51
EDGE_WEIGHT_TYPE : EXPLICIT
EDGE_WEIGHT_FORMAT : FULL_MATRIX
CAPACITY : 161
EDGE_WEIGHT_SECTION
0.000 4788.681 2593.092 11185.998 2577.998 7008.785 8196.426 4582.809 9651.304 7324.662 7311.782 1201.624 4342.149 6629.633 2881.997 6374.521 3768.375 10032.089 6660.874 3873.385 7094.690 10803.067 11876.287 5031.002 11706.750 3972.173 3554.884 3140.185 6454.296 3477.000 3738.769 10879.232 1883.146 10355.813 7381.959 9982.242 1759.031 9333.083 12927.974 9918.606 10389.003 10781.044 9674.471 2967.346 8729.594 5020.854 10273.216 4176.067 1842.799 9642.936 10176.741
4788.681 0.000 2463.457 13468.139 3068.885 2270.767 5426.391 1094.613 6221.835 2706.898 2620.154 3711.420 699.439 2152.255 3474.482 2432.229 8356.583 8616.177 10265.600 1063.189 2330.629 7121.633 16663.171 557.655 8319.365 1111.257 1970.892 2244.480 10863.965 1482.876 1577.242 7187.483 4066.035 12948.537 10657.658 8637.895 3250.351 8668.027 16921.482 5411.513 5710.552 7037.805 8373.128 1959.667 8724.253 8250.210 5536.140 891.336 2948.350 11951.464 5476.717
2593.092 2463.457 0.000 12893.836 765.551 4730.533 5853.277 2012.886 7176.970 4781.534 4797.250 1398.873 1873.271 4558.502 2922.374 3782.060 6350.672 9796.358 7874.191 1418.064 4637.321 9309.437 14382.718 2559.235 10404.190 1455.675 976.874 589.552 9007.286 990.034 1152.190 9380.408 1614.134 12198.847 8337.702 9783.655 855.958 9477.775 14497.308 7333.557 7839.864 9249.139 9488.916 1449.932 9203.899 5895.989 7756.521 2188.303 963.977 9928.790 7638.224
11185.998 13468.139 12893.836 0.000 13344.314 14512.463 18627.772 14120.971 19666.964 15934.973 15736.904 12009.154 13596.883 13658.945 10161.949 15882.835 9036.366 8865.382 15982.186 13311.716 15280.795 13748.687 13242.165 14007.317 13491.759 13516.030 13727.849 13448.930 7678.606 13174.100 13638.919 13808.431 13011.621 1130.009 16976.672 8719.808 12422.277 7410.639 19877.975 18512.014 18420.788 13881.842 8627.644 11923.008 6295.925 15264.637 18033.651 12590.021 11955.315 19866.267 18143.176
2577.998 3068.885 765.551 13344.314 0.000 5299.039 5628.169 2398.607 7075.647 5136.255 5191.541 1427.563 2413.435 5207.786 3563.941 3961.673 6321.990 10546.531 7200.414 2006.535 5093.110 10035.367 14100.006 3059.056 11146.937 1978.838 1217.836 840.664 9025.040 1600.049 1558.199 10105.502 1069.707 12605.902 7625.685 10531.571 929.711 10197.458 13852.648 7566.413 8155.309 9970.515 10235.391 2208.173 9884.993 5197.177 8118.078 2912.817 1438.000 9165.478 7971.492
7008.785 2270.767 4730.533 14512.463 5299.039 0.000 5814.664 2998.964 5958.834 1760.862 1473.862 5970.221 2886.196 875.576 5204.009 2843.410 10449.083 8238.632 12458.072 3316.846 992.484 5454.957 18856.031 2260.861 6771.090 3320.733 4128.464 4460.295 12844.629 3743.494 3752.209 5508.660 6322.537 14141.972 12793.649 8297.505 5520.044 8683.874 19132.654 4013.106 3953.323 5332.965 8084.303 4072.306 9059.056 10424.291 3639.522 2852.852 5184.828 13856.872 3683.788
8196.426 5426.391 5853.277 18627.772 5628.169 5814.664 0.000 4559.007 1745.587 4133.007 4427.848 7052.432 5107.366 6509.105 8468.272 3119.662 11883.911 13860.706 10311.855 5333.771 4848.590 11123.124 19042.492 4872.412 12476.228 5125.711 4936.794 5267.508 14604.080 5453.878 4991.204 11166.553 6421.000 17993.224 10174.360 13900.117 6523.450 14053.598 16646.042 4270.389 5299.916 10978.503 13655.795 6706.764 14150.402 8438.616 5643.417 6208.284 6817.051 9990.810 5314.736
4582.809 1094.613 2012.886 14120.971 2398.607 2998.964 4559.007 0.000 5569.803 2771.665 2802.895 3404.533 553.794 3110.577 3972.823 1879.940 8306.945 9677.881 9470.497 834.430 2696.167 8148.191 16394.658 758.893 9371.879 657.188 1182.002 1572.842 10919.353 1131.684 868.138 8211.869 3463.938 13535.587 9794.685 9695.258 2868.765 9671.563 16151.017 5337.612 5827.121 8055.875 9425.541 2235.479 9658.615 7431.666 5751.998 1680.482 2794.581 10945.233 5627.049
9651.304 6221.835 7176.970 19666.964 7075.647 5958.834 1745.587 5569.803 0.000 4200.423 4484.980 8471.626 6077.180 6773.029 9540.907 3791.010 13392.348 14194.706 12054.812 6398.131 4970.735 10871.482 20737.440 5671.937 12233.697 6203.558 6212.371 6588.916 16100.317 6607.998 6178.986 10904.256 7957.646 19102.346 11901.364 14250.885 7923.416 14564.582 18352.677 3209.423 4244.575 10710.108 14031.265 7802.487 14803.750 10183.579 4692.304 7084.731 8124.347 11580.920 4341.027
7324.662 2706.898 4781.534 15934.973 5136.255 1760.862 4133.007 2771.665 4200.423 0.000 296.912 6164.037 2991.847 2578.309 6152.794 1527.947 10997.823 9994.346 11960.508 3456.116 770.339 6998.243 19164.109 2320.184 8347.216 3353.227 3925.143 4333.374 13548.897 3847.974 3639.562 7043.657 6205.867 15488.144 12163.182 10051.052 5636.272 10397.406 18632.883 2706.473 3064.370 6857.568 9833.421 4653.375 10708.660 9913.760 2983.422 3568.693 5499.367 12874.684 2856.943
7311.782 2620.154 4797.250 15736.904 5191.541 1473.862 4427.848 2802.895 4484.980 296.912 0.000 6166.041 2969.642 2305.694 6027.285 1744.189 10955.186 9711.637 12093.424 3438.556 493.203 6707.598 19170.938 2283.136 8055.064 3352.065 3974.700 4374.805 13482.768 3843.138 3668.966 6753.582 6260.471 15305.255 12317.447 9769.600 5647.990 10130.685 18771.658 2835.779 3095.938 6568.072 9554.151 4578.650 10458.932 10045.590 2963.229 3457.534 5476.635 13083.642 2870.809
1201.624 3711.420 1398.873 12009.154 1427.563 5970.221 7052.432 3404.533 8471.626 6164.037 6166.041 0.000 3205.337 5677.006 2694.459 5175.972 4969.372 9936.616 7043.786 2736.038 5976.186 10137.262 13004.897 3898.086 11132.869 2814.311 2353.832 1938.580 7647.769 2323.271 2550.005 10211.488 1105.365 11239.265 7639.465 9903.572 557.549 9408.537 13536.023 8732.153 9226.676 10097.733 9599.115 2081.156 8954.235 5194.591 9129.109 3209.340 832.935 9592.880 9020.487
4342.149 699.439 1873.271 13596.883 2413.435 2886.196 5107.366 553.794 6077.180 2991.847 2969.642 3205.337 0.000 2844.159 3467.818 2330.546 8008.216 9158.834 9593.969 469.787 2772.710 7819.648 16206.770 692.779 9011.425 434.619 1276.832 1576.724 10580.591 888.057 885.261 7885.736 3440.603 13025.640 9970.744 9173.304 2704.043 9128.344 16258.948 5643.764 6052.921 7736.647 8900.748 1766.526 9105.879 7571.524 5931.486 1129.145 2508.948 11253.404 5836.522
6629.633 2152.255 4558.502 13658.945 5207.786 875.576 6509.105 3110.577 6773.029 2578.309 2305.694 5677.006 2844.159 0.000 4563.908 3437.025 9918.394 7426.578 12408.199 3204.249 1812.793 5054.078 18392.896 2355.069 6313.118 3263.465 4120.678 4392.985 12233.950 3608.921 3727.869 5115.530 6172.609 13306.019 12809.733 7479.961 5280.611 7826.254 19052.122 4883.051 4775.209 4954.709 7258.288 3662.386 8185.062 10398.892 4426.538 2469.535 4858.724 14055.621 4500.826
2881.997 3474.482 2922.374 10161.949 3563.941 5204.009 8468.272 3972.823 9540.907 6152.794 6027.285 2694.459 3467.818 4563.908 0.000 5792.344 5436.621 7254.235 9526.457 3153.275 5656.757 8058.759 13973.548 3964.814 8883.543 3355.752 3619.326 3403.715 7670.408 3019.203 3488.826 8136.162 3769.971 9562.766 10208.933 7217.310 2799.544 6722.101 15792.087 8856.252 9054.277 8054.843 6911.823 1761.559 6330.874 7797.165 8805.797 2589.541 2154.737 12280.203 8801.420
6374.521 2432.229 3782.060 15882.835 3961.673 2843.410 3119.662 1879.940 3791.010 1527.947 1744.189 5175.972 2330.546 3437.025 5792.344 0.000 10130.679 10741.538 10509.661 2708.718 1993.967 8291.026 18060.987 1880.939 9613.571 2537.084 2825.850 3245.462 12770.129 3000.391 2650.027 8342.890 5008.824 15337.190 10675.569 10780.517 4621.977 10950.681 17166.070 3607.477 4264.096 8164.159 10536.263 4092.830 11095.430 8468.630 4310.776 3294.849 4642.162 11347.123 4111.799
3768.375 8356.583 6350.672 9036.366 6321.990 10449.083 11883.911 8306.945 13392.348 10997.823 10955.186 4969.372 8008.216 9918.394 5436.621 10130.679 0.000 11070.888 6961.093 7549.420 10687.015 13292.544 8541.729 8679.090 13930.116 7673.313 7319.716 6907.080 2722.159 7180.901 7483.771 13370.516 5463.342 8008.454 7946.198 10977.416 5526.920 9939.317 11773.618 13639.649 14050.449 13314.253 10685.875 6410.040 8947.526 6306.851 13892.601 7611.510 5514.403 10835.678 13824.812
10032.089 8616.177 9796.358 8865.382 10546.531 8238.632 13860.706 9677.881 14194.706 9994.346 9711.637 9936.616 9158.834 7426.578 7254.235 10741.538 11070.888 0.000 16672.751 9187.724 9224.112 5157.685 18903.597 9123.853 4661.433 9374.667 10079.523 10073.257 11996.660 9356.057 9763.428 5202.771 10979.008 9118.457 17414.036 145.736 9956.652 1507.033 22612.015 11932.456 11450.304 5320.368 385.168 8347.624 2755.734 15031.967 10951.858 8070.107 9292.829 19529.491 11179.030
6660.874 10265.600 7874.191 15982.186 7200.414 12458.072 10311.855 9470.497 12054.812 11960.508 12093.424 7043.786 9593.969 12408.199 9526.457 10509.661 6961.093 16672.751 0.000 9205.590 12109.374 17144.689 9753.514 10197.304 18172.350 9162.644 8331.250 8021.790 8736.674 8799.739 8713.335 17217.499 6275.509 14931.312 1019.583 16617.079 7268.606 15883.470 6683.855 13887.778 14709.308 17094.664 16309.258 9077.075 15145.343 2047.931 14810.388 10055.610 7849.025 4051.792 14588.172
3873.385 1063.189 1418.064 13311.716 2006.535 3316.846 5333.771 834.430 6398.131 3456.116 3438.556 2736.038 469.787 3204.249 3153.275 2708.718 7549.420 9187.724 9205.590 0.000 3240.792 8106.539 15736.983 1162.182 9267.422 210.417 975.115 1190.331 10133.782 428.050 598.502 8174.478 3007.172 12713.824 9610.158 9194.766 2238.690 9079.860 15858.703 6094.577 6518.937 8031.404 8915.147 1404.357 8993.398 7194.766 6400.851 1126.389 2043.260 10983.384 6304.062
7094.690 2330.629 4637.321 15280.795 5093.110 992.484 4848.590 2696.167 4970.735 770.339 493.203 5976.186 2772.710 1812.793 5656.757 1993.967 10687.015 9224.112 12109.374 3240.792 0.000 6329.559 18969.530 2080.660 7666.913 3181.649 3878.026 4260.312 13179.377 3659.966 3543.112 6378.556 6154.661 14863.058 12373.237 9281.070 5476.013 9637.483 18792.998 3252.495 3405.338 6196.356 9064.176 4283.129 9969.204 10062.695 3206.601 3119.887 5252.266 13249.649 3161.161
10803.067 7121.633 9309.437 13748.687 10035.367 5454.957 11123.124 8148.191 10871.482 6998.243 6707.598 10137.262 7819.648 5054.078 8058.759 8291.026 13292.544 5157.685 17144.689 8106.539 6329.559 0.000 21769.422 7400.404 1362.792 8208.710 9071.125 9279.870 15037.477 8464.442 8678.885 77.987 10877.710 13810.438 17645.975 5288.799 9876.370 6420.942 23670.570 7989.938 7228.724 186.513 5273.979 8072.526 7454.455 15199.488 6691.092 7124.088 9313.330 19073.018 6995.397
11876.287 16663.171 14382.718 13242.165 14100.006 18856.031 19042.492 16394.658 20737.440 19164.109 19170.938 13004.897 16206.770 18392.896 13973.548 18060.987 8541.729 18903.597 9753.514 15736.983 18969.530 21769.422 0.000 16898.653 22311.193 15819.062 15271.676 14853.828 6909.925 15327.970 15528.779 21847.154 13055.833 12164.287 10525.878 18786.326 13527.854 17551.276 8706.725 21666.369 22221.302 21802.020 18526.917 14783.879 16366.330 10972.071 22133.964 16003.812 13719.033 13206.587 22020.925
5031.002 557.655 2559.235 14007.317 3059.056 2260.861 4872.412 758.893 5671.937 2320.184 2283.136 3898.086 692.779 2355.069 3964.814 1880.939 8679.090 9123.853 10197.304 1162.182 2080.660 7400.404 16898.653 0.000 8635.047 1104.947 1870.046 2218.508 11231.728 1579.310 1501.886 7463.339 4104.659 13475.662 10539.143 9149.242 3395.368 9207.333 16873.025 4998.375 5373.327 7305.548 8888.465 2354.634 9278.084 8163.669 5242.347 1417.414 3193.744 11702.404 5153.044
11706.750 8319.365 10404.190 13491.759 11146.937 6771.090 12476.228 9371.879 12233.697 8347.216 8055.064 11132.869 9011.425 6313.118 8883.543 9613.571 13930.116 4661.433 18172.350 9267.422 7666.913 1362.792 22311.193 8635.047 0.000 9384.052 10240.169 10421.271 15487.593 9604.728 9851.748 1329.912 11937.520 13664.253 18716.143 4804.397 10915.437 6081.228 24626.210 9333.349 8547.619 1524.765 4867.790 9102.454 7234.654 16263.396 8009.232 8238.507 10323.336 20250.786 8321.092
3972.173 1111.257 1455.675 13516.030 1978.838 3320.733 5125.711 657.188 6203.558 3353.227 3352.065 2814.311 434.619 3263.465 3355.752 2537.084 7673.313 9374.667 9162.644 210.417 3181.649 8208.710 15819.062 1104.947 9384.052 0.000 863.908 1142.883 10273.145 495.329 470.390 8275.771 3008.202 12913.921 9546.805 9383.199 2298.577 9280.004 15825.764 5966.336 6417.513 8129.705 9104.895 1601.344 9200.547 7142.659 6314.905 1305.565 2159.271 10869.345 6207.975
3554.884 1970.892 976.874 13727.849 1217.836 4128.464 4936.794 1182.002 6212.371 3925.143 3974.700 2353.832 1276.832 4120.678 3619.326 2825.850 7319.716 10079.523 8331.250 975.115 3878.026 9071.125 15271.676 1870.046 10240.169 863.908 0.000 420.413 9982.701 723.606 394.005 9138.409 2285.845 13066.277 8695.185 10080.494 1797.837 9898.912 15004.190 6406.156 6958.812 8992.953 9795.524 1909.136 9735.160 6302.485 6908.429 2074.744 1911.976 10010.927 6769.099
3140.185 2244.480 589.552 13448.930 840.664 4460.295 5267.508 1572.842 6588.916 4333.374 4374.805 1938.580 1576.724 4392.985 3403.715 3245.462 6907.080 10073.257 8021.790 1190.331 4260.312 9279.870 14853.828 2218.508 10421.271 1142.883 420.413 0.000 9576.264 816.748 718.964 9348.662 1894.358 12766.455 8419.830 10068.148 1381.497 9829.982 14682.971 6826.288 7373.441 9208.485 9778.503 1776.178 9614.171 6006.225 7316.676 2192.878 1550.458 9839.998 7181.538
6454.296 10863.965 9007.286 7678.606 9025.040 12844.629 14604.080 10919.353 16100.317 13548.897 13482.768 7647.769 10580.591 12233.950 7670.408 12770.129 2722.159 11996.660 8736.674 10133.782 13179.377 15037.477 6909.925 11231.728 15487.593 10273.145 9982.701 9576.264 0.000 9787.767 10120.576 15114.382 8184.501 6557.712 9756.171 11880.690 8203.666 10661.802 12221.901 16224.153 16574.243 15086.073 11619.008 8904.416 9499.053 8561.785 16380.765 10064.595 8129.323 12772.539 16337.819
3477.000 1482.876 990.034 13174.100 1600.049 3743.494 5453.878 1131.684 6607.998 3847.974 3843.138 2323.271 888.057 3608.921 3019.203 3000.391 7180.901 9356.057 8799.739 428.050 3659.966 8464.442 15327.970 1579.310 9604.728 495.329 723.606 816.748 9787.767 0.000 473.128 8533.430 2583.287 12546.840 9220.154 9356.896 1816.154 9181.989 15445.772 6459.108 6912.333 8394.119 9071.938 1263.359 9037.377 6796.419 6806.353 1383.533 1666.514 10653.970 6701.963
3738.769 1577.242 1152.190 13638.919 1558.199 3752.209 4991.204 868.138 6178.986 3639.562 3668.966 2550.005 885.261 3727.869 3488.826 2650.027 7483.771 9763.428 8713.335 598.502 3543.112 8678.885 15528.779 1501.886 9851.748 470.390 394.005 718.964 10120.576 473.128 0.000 8746.007 2612.372 13004.147 9085.483 9767.887 2007.317 9622.198 15382.541 6182.261 6692.523 8600.071 9485.885 1735.901 9496.800 6688.047 6620.118 1719.336 1996.163 10400.432 6494.213
10879.232 7187.483 9380.408 13808.431 10105.502 5508.660 11166.553 8211.869 10904.256 7043.657 6753.582 10211.488 7885.736 5115.530 8136.162 8342.890 13370.516 5202.771 17217.499 8174.478 6378.556 77.987 21847.154 7463.339 1329.912 8275.771 9138.409 9348.662 15114.382 8533.430 8746.007 0.000 10949.846 13874.074 17717.267 5334.643 9949.335 6474.532 23745.188 8011.743 7243.405 195.555 5323.403 8146.043 7513.550 15271.138 6705.487 7194.621 9387.253 19138.947 7011.754
1883.146 4066.035 1614.134 13011.621 1069.707 6322.537 6421.000 3463.938 7957.646 6205.867 6260.471 1105.365 3440.603 6172.609 3769.971 5008.824 5463.342 10979.008 6275.509 3007.172 6154.661 10877.710 13055.833 4104.659 11937.520 3008.202 2285.845 1894.358 8184.501 2583.287 2612.372 10949.846 0.000 12208.280 6778.669 10950.891 1045.258 10491.919 12884.581 8616.277 9220.681 10823.927 10648.178 2843.011 10056.179 4326.506 9187.367 3781.344 1697.991 8566.667 9038.917
10355.813 12948.537 12198.847 1130.009 12605.902 14141.972 17993.224 13535.587 19102.346 15488.144 15305.255 11239.265 13025.640 13306.019 9562.766 15337.190 8008.454 9118.457 14931.312 12713.824 14863.058 13810.438 12164.287 13475.662 13664.253 12913.921 13066.277 12766.455 6557.712 12546.840 13004.147 13874.074 12208.280 0.000 15931.406 8973.146 11677.881 7624.062 18749.936 18111.320 18081.134 13932.512 8844.848 11313.076 6430.634 14275.307 17717.082 12061.130 11246.706 18844.027 17806.213
7381.959 10657.658 8337.702 16976.672 7625.685 12793.649 10174.360 9794.685 11901.364 12163.182 12317.447 7639.465 9970.744 12809.733 10208.933 10675.569 7946.198 17414.036 1019.583 9610.158 12373.237 17645.975 10525.878 10539.143 18716.143 9546.805 8695.185 8419.830 9756.171 9220.154 9085.483 17717.267 6778.669 15931.406 0.000 17363.928 7804.717 16677.080 6525.630 13936.271 14801.774 17586.806 17056.120 9616.789 15978.729 2453.565 14938.777 10525.568 8416.908 3038.166 14698.344
9982.242 8637.895 9783.655 8719.808 10531.571 8297.505 13900.117 9695.258 14250.885 10051.052 9769.600 9903.572 9173.304 7479.961 7217.310 10780.517 10977.416 145.736 16617.079 9194.766 9281.070 5288.799 18786.326 9149.242 4804.397 9383.199 10080.494 10068.148 11880.690 9356.896 9767.887 5334.643 10950.891 8973.146 17363.928 0.000 9931.617 1364.326 22535.677 12011.256 11538.586 5450.355 307.880 8336.055 2615.243 14986.958 11042.250 8079.678 9267.722 19495.844 11266.614
1759.031 3250.351 855.958 12422.277 929.711 5520.044 6523.450 2868.765 7923.416 5636.272 5647.990 557.549 2704.043 5280.611 2799.544 4621.977 5526.920 9956.652 7268.606 2238.690 5476.013 9876.370 13527.854 3395.368 10915.437 2298.577 1797.837 1381.497 8203.666 1816.154 2007.317 9949.335 1045.258 11677.881 7804.717 9931.617 0.000 9510.048 13831.889 8186.106 8695.550 9827.939 9630.265 1813.023 9124.972 5351.153 8609.016 2834.560 663.895 9605.495 8493.154
9333.083 8668.027 9477.775 7410.639 10197.458 8683.874 14053.598 9671.563 14564.582 10397.406 10130.685 9408.537 9128.344 7826.254 6722.101 10950.681 9939.317 1507.033 15883.470 9079.860 9637.483 6420.942 17551.276 9207.333 6081.228 9280.004 9898.912 9829.982 10661.802 9181.989 9622.198 6474.532 10491.919 7624.062 16677.080 1364.326 9510.048 0.000 21614.916 12558.900 12183.526 6568.973 1222.073 8058.764 1256.314 14352.825 11711.277 8004.018 8852.529 18949.697 11906.133
12927.974 16921.482 14497.308 19877.975 13852.648 19132.654 16646.042 16151.017 18352.677 18632.883 18771.658 13536.023 16258.948 19052.122 15792.087 17166.070 11773.618 22612.015 6683.855 15858.703 18792.998 23670.570 8706.725 16873.025 24626.210 15825.764 15004.190 14682.971 12221.901 15445.772 15382.541 23745.188 12884.581 18749.936 6525.630 22535.677 13831.889 21614.916 0.000 20461.843 21322.582 23633.297 22232.843 15611.191 20690.952 8730.387 21449.451 16656.925 14364.180 7323.605 21214.781
9918.606 5411.513 7333.557 18512.014 7566.413 4013.106 4270.389 5337.612 3209.423 2706.473 2835.779 8732.153 5643.764 4883.051 8856.252 3607.477 13639.649 11932.456 13887.778 6094.577 3252.495 7989.938 21666.369 4998.375 9333.349 5966.336 6406.156 6826.288 16224.153 6459.108 6182.261 8011.743 8616.277 18111.320 13936.271 12011.256 8186.106 12558.900 20461.843 0.000 1046.942 7816.277 11833.522 7348.267 13025.951 11877.958 1485.941 6274.831 8125.397 14141.972 1133.779
10389.003 5710.552 7839.864 18420.788 8155.309 3953.323 5299.916 5827.121 4244.575 3064.370 3095.938 9226.676 6052.921 4775.209 9054.277 4264.096 14050.449 11450.304 14709.308 6518.937 3405.338 7228.724 22221.302 5373.327 8547.619 6417.513 6958.812 7373.441 16574.243 6912.333 6692.523 7243.405 9220.681 18081.134 14801.774 11538.586 8695.550 12183.526 21322.582 1046.942 0.000 7049.376 11381.612 7670.216 12740.837 12682.402 538.405 6524.050 8561.733 15110.980 280.062
10781.044 7037.805 9249.139 13881.842 9970.515 5332.965 10978.503 8055.875 10710.108 6857.568 6568.072 10097.733 7736.647 4954.709 8054.843 8164.159 13314.253 5320.368 17094.664 8031.404 6196.356 186.513 21802.020 7305.548 1524.765 8129.705 8992.953 9208.485 15086.073 8394.119 8600.071 195.555 10823.927 13932.512 17586.806 5450.355 9827.939 6568.973 23633.297 7816.277 7049.376 0.000 5429.928 8028.162 7589.970 15142.482 6511.545 7061.837 9271.653 18988.583 6817.229
9674.471 8373.128 9488.916 8627.644 10235.391 8084.303 13655.795 9425.541 14031.265 9833.421 9554.151 9599.115 8900.748 7258.288 6911.823 10536.263 10685.875 385.168 16309.258 8915.147 9064.176 5273.979 18526.917 8888.465 4867.790 9104.895 9795.524 9778.503 11619.008 9071.938 9485.885 5323.403 10648.178 8844.848 17056.120 307.880 9630.265 1222.073 22232.843 11833.522 11381.612 5429.928 0.000 8042.228 2442.595 14679.628 10890.373 7802.664 8966.385 19190.987 11108.153
2967.346 1959.667 1449.932 11923.008 2208.173 4072.306 6706.764 2235.479 7802.487 4653.375 4578.650 2081.156 1766.526 3662.386 1761.559 4092.830 6410.040 8347.624 9077.075 1404.357 4283.129 8072.526 14783.879 2354.634 9102.454 1601.344 1909.136 1776.178 8904.416 1263.359 1735.901 8146.043 2843.011 11313.076 9616.789 8336.055 1813.023 8058.764 15611.191 7348.267 7670.216 8028.162 8042.228 0.000 7841.876 7163.291 7489.580 1220.106 1248.801 11341.059 7435.746
8729.594 8724.253 9203.899 6295.925 9884.993 9059.056 14150.402 9658.615 14803.750 10708.660 10458.932 8954.235 9105.879 8185.062 6330.874 11095.430 8947.526 2755.734 15145.343 8993.398 9969.204 7454.455 16366.330 9278.084 7234.654 9200.547 9735.160 9614.171 9499.053 9037.377 9496.800 7513.550 10056.179 6430.634 15978.729 2615.243 9124.972 1256.314 20690.952 13025.951 12740.837 7589.970 2442.595 7841.876 0.000 13715.439 12294.217 7978.433 8485.521 18371.885 12461.080
5020.854 8250.210 5895.989 15264.637 5197.177 10424.291 8438.616 7431.666 10183.579 9913.760 10045.590 5194.591 7571.524 10398.892 7797.165 8468.630 6306.851 15031.967 2047.931 7194.766 10062.695 15199.488 10972.071 8163.669 16263.396 7142.659 6302.485 6006.225 8561.785 6796.419 6688.047 15271.138 4326.506 14275.307 2453.565 14986.958 5351.153 14352.825 8730.387 11877.958 12682.402 15142.482 14679.628 7163.291 13715.439 0.000 12773.685 8084.179 5965.128 4711.610 12556.204
10273.216 5536.140 7756.521 18033.651 8118.078 3639.522 5643.417 5751.998 4692.304 2983.422 2963.229 9129.109 5931.486 4426.538 8805.797 4310.776 13892.601 10951.858 14810.388 6400.851 3206.601 6691.092 22133.964 5242.347 8009.232 6314.905 6908.429 7316.676 16380.765 6806.353 6620.118 6705.487 9187.367 17717.082 14938.777 11042.250 8609.016 11711.277 21449.451 1485.941 538.405 6511.545 10890.373 7489.580 12294.217 12773.685 0.000 6316.292 8435.449 15349.084 352.236
4176.067 891.336 2188.303 12590.021 2912.817 2852.852 6208.284 1680.482 7084.731 3568.693 3457.534 3209.340 1129.145 2469.535 2589.541 3294.849 7611.510 8070.107 10055.610 1126.389 3119.887 7124.088 16003.812 1417.414 8238.507 1305.565 2074.744 2192.878 10064.595 1383.533 1719.336 7194.621 3781.344 12061.130 10525.568 8079.678 2834.560 8004.018 16656.925 6274.831 6524.050 7061.837 7802.664 1220.106 7978.433 8084.179 6316.292 0.000 2389.188 12032.480 6281.036
1842.799 2948.350 963.977 11955.315 1438.000 5184.828 6817.051 2794.581 8124.347 5499.367 5476.635 832.935 2508.948 4858.724 2154.737 4642.162 5514.403 9292.829 7849.025 2043.260 5252.266 9313.330 13719.033 3193.744 10323.336 2159.271 1911.976 1550.458 8129.323 1666.514 1996.163 9387.253 1697.991 11246.706 8416.908 9267.722 663.895 8852.529 14364.180 8125.397 8561.733 9271.653 8966.385 1248.801 8485.521 5965.128 8435.449 2389.188 0.000 10264.160 8345.199
9642.936 11951.464 9928.790 19866.267 9165.478 13856.872 9990.810 10945.233 11580.920 12874.684 13083.642 9592.880 11253.404 14055.621 12280.203 11347.123 10835.678 19529.491 4051.792 10983.384 13249.649 19073.018 13206.587 11702.404 20250.786 10869.345 10010.927 9839.998 12772.539 10653.970 10400.432 19138.947 8566.667 18844.027 3038.166 19495.844 9605.495 18949.697 7323.605 14141.972 15110.980 18988.583 19190.987 11341.059 18371.885 4711.610 15349.084 12032.480 10264.160 0.000 15062.080
10176.741 5476.717 7638.224 18143.176 7971.492 3683.788 5314.736 5627.049 4341.027 2856.943 2870.809 9020.487 5836.522 4500.826 8801.420 4111.799 13824.812 11179.030 14588.172 6304.062 3161.161 6995.397 22020.925 5153.044 8321.092 6207.975 6769.099 7181.538 16337.819 6701.963 6494.213 7011.754 9038.917 17806.213 14698.344 11266.614 8493.154 11906.133 21214.781 1133.779 280.062 6817.229 11108.153 7435.746 12461.080 12556.204 352.236 6281.036 8345.199 15062.080 0.000
NODE_COORD_SECTION
1 1438.942575 -1211.855723
2 1882.012250 -5979.995779
3 858.614156 -3739.175638
4 11702.106575 3237.190405
5 151.651824 -3445.452972
6 2659.333168 -8113.573634
7 -3154.229262 -8000.388369
8 811.510910 -5751.510925
9 -3072.095738 -9744.042350
10 945.995817 -8519.911428
11 1242.905609 -8521.008912
12 1075.622856 -2357.237710
13 1328.347890 -5552.596466
14 3340.165439 -7563.027616
15 3689.195135 -3012.485751
16 -92.970191 -7399.566658
17 2710.852844 2335.381988
18 10487.178738 -5544.548763
19 -4249.754269 2253.107529
20 1311.048820 -5083.128519
21 1684.953721 -8302.278803
22 7797.521317 -9945.396614
23 724.394253 10642.915879
24 1390.069746 -6242.620690
25 9158.652102 -10012.655047
26 1119.949307 -5171.199471
27 449.570355 -4626.287117
28 502.816003 -4209.259399
29 4153.445942 4643.860311
30 1171.287585 -4678.538248
31 745.995799 -4885.848309
32 7828.746437 -10016.859511
33 -29.221863 -2391.148717
34 10623.115236 3572.894974
35 -5226.507032 1960.699124
36 10500.373146 -5399.411380
37 892.606073 -2883.892606
38 10331.434941 -4045.585427
39 -7585.697083 8044.947281
40 -121.585522 -11006.930656
41 755.655600 -11578.364016
42 7634.053751 -10035.205360
43 10224.381696 -5262.960447
44 2272.682943 -4059.664925
45 10017.413834 -2829.149740
46 -3303.477536 436.908092
47 1285.714345 -11483.928906
48 2421.721709 -5270.634401
49 1534.823499 -3052.159105
50 -8005.749412 733.398510
51 950.148116 -11376.851647
DEMAND_SECTION
1 0
2 4
3 7
4 81
5 8
6 2
7 10
8 6
9 4
10 1
11 1
12 1
13 10
14 1
15 1
16 5
17 9
18 7
19 6
20 2
21 2
22 10
23 5
24 9
25 4
26 9
27 1
28 8
29 3
30 3
31 55
32 7
33 1
34 2
35 4
36 9
37 5
38 9
39 2
40 7
41 1
42 73
43 2
44 8
45 59
46 3
47 4
48 4
49 4
50 72
51 6
DEPOT_SECTION
1
-1
EOF
