NAME : mamut-san_francisco-n50-poi
COMMENT : Mamut2026 fastest metric; city san_francisco; 3-decimal seconds/meters; ENU ref in mamut-san_francisco-n50-poi.vrp.json
TYPE : CVRP
DIMENSION : 51
EDGE_WEIGHT_TYPE : EXPLICIT
EDGE_WEIGHT_FORMAT : FULL_MATRIX
CAPACITY : 176
EDGE_WEIGHT_SECTION
0.000 79.886 105.339 70.083 119.581 674.583 204.467 802.540 424.476 241.444 895.420 226.941 152.167 279.956 69.953 280.604 54.927 680.797 153.810 534.586 245.465 160.434 61.091 168.213 173.317 987.759 527.940 144.694 144.201 73.228 147.299 32.891 85.165 162.965 140.505 61.327 216.831 215.710 792.543 710.598 146.621 719.375 181.010 136.145 76.977 550.122 51.213 606.341 724.378 919.173 360.466
102.715 0.000 149.509 111.781 87.523 695.058 240.601 772.201 474.357 316.119 964.320 301.616 208.318 336.107 91.801 289.386 117.782 689.579 118.758 555.060 295.345 196.568 82.698 133.162 141.260 1056.660 548.415 112.636 109.341 129.379 118.944 107.565 94.471 199.098 177.891 83.188 291.505 290.384 762.204 731.072 111.570 689.036 209.427 210.819 118.674 570.597 122.683 576.001 694.038 988.074 410.346
86.901 161.046 0.000 152.519 185.370 583.569 118.518 830.893 340.422 265.406 921.677 250.903 102.196 236.983 94.295 250.091 130.497 650.284 216.605 443.571 161.411 70.097 114.294 229.110 211.621 1014.017 436.926 192.509 170.647 50.011 209.493 89.604 167.600 69.955 45.370 101.635 240.793 239.672 820.896 619.583 200.090 747.728 207.267 162.402 159.412 459.108 103.059 634.694 752.731 945.431 276.412
79.885 53.948 152.207 0.000 59.680 719.786 251.335 782.618 471.344 254.869 907.627 240.365 199.035 326.823 116.529 314.114 55.065 714.307 112.706 579.788 292.333 207.302 107.426 127.110 113.417 999.966 573.142 84.793 128.178 120.096 87.398 84.735 16.816 209.832 187.372 107.916 230.255 229.134 772.620 755.800 117.064 699.453 181.584 149.569 45.090 595.325 59.965 586.418 704.455 931.381 407.334
134.899 86.611 195.581 86.937 0.000 737.033 286.672 756.042 520.428 305.277 897.225 290.774 249.443 377.232 133.776 331.362 110.079 731.554 81.477 597.036 341.417 242.639 124.674 95.512 74.165 989.565 590.390 45.541 119.607 170.504 51.849 139.749 65.557 245.170 223.962 127.342 280.663 279.542 746.044 773.048 89.706 672.877 142.332 173.601 93.831 612.572 114.979 559.842 677.879 920.979 456.418
651.525 724.054 578.261 717.142 741.379 0.000 482.890 1344.567 295.487 550.959 1250.272 593.324 583.608 515.784 627.156 494.982 695.120 419.028 758.342 147.991 510.767 574.041 647.155 738.238 776.245 1342.612 193.202 757.133 684.320 614.634 772.799 654.227 732.224 533.583 544.272 641.404 583.214 574.540 1334.569 135.020 725.919 1261.402 771.891 715.042 724.036 135.574 667.683 1148.367 1266.404 1274.026 362.432
182.774 252.290 120.310 247.163 276.614 488.352 0.000 916.132 354.593 363.574 1017.549 349.071 214.444 349.231 179.534 166.797 226.369 566.990 307.849 348.354 85.191 108.212 199.533 314.349 307.493 1109.889 341.709 288.381 255.886 153.399 305.365 185.476 262.244 73.972 89.535 192.879 338.960 337.840 906.135 524.366 285.329 832.967 303.139 258.275 254.056 363.891 198.932 719.933 837.970 1041.303 300.087
763.402 755.252 771.990 774.553 719.593 1298.944 864.718 0.000 1106.263 976.805 1601.017 962.302 854.973 982.761 712.263 893.272 781.673 1293.465 700.669 1158.946 927.252 819.048 696.863 702.050 777.957 1693.357 1152.300 749.333 701.175 776.900 755.641 768.252 753.173 821.579 800.371 726.306 952.192 951.071 246.920 1334.958 676.156 173.752 843.720 861.217 781.447 1174.482 786.574 292.794 210.646 1624.771 1042.253
431.487 506.614 364.460 497.104 538.273 333.080 380.989 1180.490 0.000 304.531 1003.844 346.896 352.280 269.356 452.606 393.082 475.082 655.803 569.508 245.066 310.498 404.029 472.606 583.912 556.207 1096.183 238.421 537.094 520.243 394.596 554.078 434.189 512.186 400.335 374.261 454.538 336.786 328.112 1170.492 347.799 558.401 1097.325 551.853 482.733 503.998 259.950 447.645 984.290 1102.327 1027.598 131.105
235.056 289.069 264.843 266.954 311.695 574.171 368.553 1032.051 282.930 0.000 713.285 56.337 195.440 166.238 304.884 479.501 244.933 879.693 364.721 486.157 357.225 322.819 296.147 366.172 326.057 805.625 479.511 306.945 369.190 229.004 323.929 230.335 282.036 319.264 293.050 296.383 46.227 37.553 1022.053 588.890 369.078 948.886 314.574 192.175 273.848 501.040 217.495 835.851 953.888 737.039 286.995
872.450 926.464 906.820 890.897 883.182 1253.019 1005.948 1623.448 961.778 690.738 0.000 735.031 852.160 845.087 942.278 1117.306 868.856 1517.498 924.998 1165.005 1013.945 961.915 933.542 904.776 834.507 198.080 1158.359 845.548 973.608 874.709 862.532 867.730 887.709 964.446 941.986 933.778 725.075 716.402 1613.451 1267.738 937.871 1540.283 810.169 793.125 897.791 1179.888 854.890 1427.248 1545.285 34.872 965.843
226.608 280.621 256.395 258.506 303.247 622.230 360.105 1023.603 330.989 59.949 759.262 0.000 186.992 200.841 296.436 471.053 236.485 871.245 356.273 534.216 348.777 314.371 287.699 357.724 317.609 851.601 527.570 298.497 360.742 220.556 315.481 221.887 273.588 310.816 284.602 287.935 29.362 34.214 1013.605 636.949 360.630 940.438 313.255 183.727 265.400 549.099 209.047 827.403 945.440 783.016 335.054
131.775 210.575 91.332 197.392 242.132 633.570 201.596 892.980 354.112 189.467 863.909 174.964 0.000 161.044 160.691 305.989 175.370 706.182 273.469 513.620 195.041 149.307 180.690 287.872 256.494 956.248 506.974 237.382 232.734 87.613 254.366 134.477 212.473 145.752 119.539 158.498 164.853 163.733 882.983 648.289 266.280 809.815 252.141 134.725 204.285 529.156 147.933 696.781 814.818 887.663 293.764
267.339 346.139 226.896 332.956 377.696 536.598 337.160 1028.545 245.357 163.057 862.370 190.958 157.492 0.000 296.255 441.553 310.934 833.276 409.033 448.584 295.803 284.871 316.255 423.436 392.058 954.710 441.938 372.946 368.298 223.178 389.930 270.041 348.038 281.316 255.103 294.062 180.847 179.727 1018.547 551.317 401.844 945.380 387.705 270.289 339.850 463.468 283.497 832.345 950.382 886.124 219.369
79.502 96.899 107.700 91.772 120.885 634.654 200.428 761.449 441.973 292.906 946.881 278.402 177.883 305.672 0.000 228.982 97.773 629.175 138.219 494.656 262.962 154.758 20.000 134.815 174.622 1039.220 488.010 145.998 103.109 98.944 152.305 84.352 106.853 157.289 136.082 35.268 268.292 267.171 751.451 670.668 105.795 678.284 232.471 187.606 98.665 510.193 102.674 565.249 683.286 970.635 377.963
286.577 331.303 248.365 326.176 348.627 512.548 181.523 951.815 378.789 487.560 1143.261 473.056 331.348 459.137 234.404 0.000 322.693 419.768 365.591 372.550 246.899 282.256 254.404 359.729 402.364 1235.600 365.904 373.740 291.569 279.110 380.047 289.279 341.257 249.383 263.579 248.652 462.946 461.825 941.818 548.562 333.167 868.650 428.851 383.986 333.069 388.087 307.602 755.615 873.652 1167.014 370.332
55.836 72.976 128.158 32.368 81.866 697.402 227.285 805.586 447.295 230.819 884.795 216.316 174.986 302.774 93.434 304.085 0.000 704.278 134.892 557.404 268.284 183.252 84.573 149.296 135.602 977.134 550.758 106.979 153.098 96.047 109.584 60.686 49.185 185.783 163.323 84.808 206.206 205.085 795.588 733.416 139.250 722.421 170.385 125.520 39.262 572.941 35.916 609.386 727.423 908.548 383.285
678.976 723.702 640.764 718.575 741.026 411.543 573.922 1344.214 619.829 875.301 1535.660 865.455 723.748 837.749 626.803 420.015 715.092 0.000 757.194 429.832 639.298 674.655 646.803 727.383 794.763 1627.999 475.043 766.139 676.202 671.509 772.447 681.678 733.656 641.782 655.978 641.051 855.345 854.224 1334.217 425.572 723.140 1261.049 821.250 776.385 725.468 411.224 700.001 1148.014 1266.051 1559.414 686.774
158.788 118.627 201.757 137.928 82.968 730.702 287.940 728.729 530.350 345.273 939.805 330.770 264.312 392.100 128.130 325.031 145.469 719.819 0.000 590.705 351.339 245.498 119.028 31.817 116.745 1032.145 584.059 79.874 76.599 185.373 119.015 163.638 116.548 248.029 226.821 121.696 320.660 319.539 718.732 766.717 32.609 645.564 173.487 224.591 144.821 606.241 150.370 532.529 650.566 963.559 466.340
525.591 598.121 452.327 591.208 615.445 139.998 356.956 1218.633 209.239 464.711 1164.024 507.076 497.360 429.536 501.222 369.048 569.187 416.567 632.408 0.000 384.833 448.107 521.222 612.305 650.311 1256.364 67.268 631.199 558.387 488.700 646.865 528.293 606.290 407.649 418.339 515.470 496.966 488.293 1208.635 180.187 599.985 1135.468 645.957 589.108 598.102 15.536 541.749 1022.433 1140.470 1187.778 276.184
240.015 315.142 172.988 305.632 346.801 526.324 96.448 989.018 301.103 367.578 1042.020 353.075 178.111 309.805 261.134 243.232 283.610 643.424 378.036 386.326 0.000 175.343 281.134 392.440 364.734 1134.359 379.680 345.622 328.771 203.124 362.606 242.717 320.713 134.909 145.575 263.066 342.964 341.844 979.020 562.338 366.929 905.853 360.381 303.532 312.525 401.863 256.173 792.818 910.855 1065.774 237.093
137.104 206.620 70.097 201.493 230.944 579.515 108.212 873.690 380.655 317.886 971.879 303.383 154.677 289.464 137.092 269.218 180.699 669.410 262.179 439.517 164.072 0.000 157.091 271.907 261.823 1064.219 432.871 242.711 213.444 107.729 259.695 139.806 216.574 54.354 29.768 147.209 293.273 292.152 863.693 615.529 242.887 790.525 257.469 212.605 208.386 455.053 153.262 677.490 795.527 995.633 316.645
87.537 80.696 126.488 99.807 100.885 653.442 216.689 741.449 459.099 300.941 954.916 286.438 193.061 320.849 56.227 247.770 105.809 647.963 118.219 513.444 280.088 173.546 0.000 114.815 154.622 1047.256 506.798 125.998 83.109 114.122 132.306 92.388 95.277 176.077 154.869 50.445 276.327 275.207 731.452 689.456 85.796 658.284 222.789 195.642 106.700 528.980 110.709 545.249 663.286 978.670 395.089
187.313 147.152 226.019 152.027 86.639 750.398 316.465 750.576 558.874 344.449 907.988 329.946 288.616 416.404 156.655 347.301 173.571 731.622 39.791 610.401 379.863 273.077 147.552 0.000 84.928 1000.328 603.755 48.057 88.401 209.677 87.786 192.163 130.648 275.608 254.401 150.221 319.836 318.715 740.579 786.413 52.664 667.411 141.670 212.773 158.921 625.937 178.471 554.376 672.413 931.742 494.864
186.384 158.545 220.754 141.024 87.710 789.998 319.882 827.976 539.891 323.416 842.347 308.912 267.582 395.370 205.710 403.296 164.166 803.488 129.526 650.001 360.880 275.849 196.608 109.304 0.000 934.686 643.355 50.076 178.136 188.643 75.007 181.663 119.644 278.379 255.919 199.276 298.802 297.681 817.979 826.012 142.399 744.811 68.167 191.739 147.917 665.537 168.824 631.776 749.813 866.100 475.881
979.470 1033.483 1013.840 997.917 990.202 1360.039 1112.968 1730.468 1068.798 797.758 179.679 842.051 959.180 952.107 1049.298 1224.326 975.876 1624.518 1032.018 1272.025 1120.965 1068.935 1040.562 1011.796 941.527 0.000 1265.379 952.568 1080.628 981.729 969.552 974.750 994.729 1071.466 1049.005 1040.797 832.095 823.421 1720.470 1374.758 1044.891 1647.303 917.189 900.145 1004.811 1286.908 961.910 1534.268 1652.305 203.433 1072.863
508.467 580.996 435.203 574.084 598.321 198.972 339.832 1201.509 201.180 456.651 1155.965 499.016 489.300 421.477 484.098 351.924 552.062 475.541 615.284 58.974 367.709 430.983 504.097 595.180 633.187 1248.304 0.000 614.074 541.262 471.576 629.741 511.169 589.166 390.525 401.214 498.346 488.906 480.233 1191.511 239.161 582.861 1118.344 628.833 571.984 580.978 74.511 524.625 1005.309 1123.346 1179.718 268.125
159.361 118.337 193.731 114.001 47.502 762.975 292.859 780.468 512.868 296.393 859.932 281.889 240.559 368.348 165.502 363.088 137.143 763.280 79.450 622.978 333.857 248.826 156.400 59.228 36.872 952.271 616.332 0.000 128.060 161.620 39.729 154.641 92.621 251.357 228.896 159.068 271.779 270.658 770.470 798.990 92.323 697.303 105.039 164.717 120.895 638.514 141.801 584.268 702.305 883.685 448.858
165.059 124.947 171.215 145.788 121.531 694.971 258.657 708.926 505.488 351.594 991.371 337.090 254.198 381.986 113.861 292.497 151.790 676.194 113.194 554.973 326.477 216.215 98.520 83.382 168.311 1083.710 548.327 131.439 0.000 176.125 152.951 169.909 128.479 218.746 197.538 127.940 326.980 325.859 698.929 730.985 79.140 625.761 225.052 246.294 152.681 570.509 156.690 512.726 630.763 1015.124 441.478
60.890 140.777 45.475 126.508 171.248 614.719 150.614 843.323 364.612 233.377 895.666 218.874 80.170 207.958 93.349 267.091 104.486 667.283 206.127 474.722 185.601 104.944 113.348 220.530 185.610 988.006 468.076 166.498 183.076 0.000 183.482 63.592 141.589 106.854 80.641 91.156 208.763 207.642 833.325 650.734 198.938 760.158 181.256 128.077 133.401 490.258 77.048 647.123 765.160 919.420 300.602
158.498 110.210 204.934 110.536 39.375 760.632 304.062 779.641 524.071 307.596 871.135 293.093 251.762 379.551 157.375 354.961 133.678 755.153 98.901 620.635 345.060 260.029 148.273 78.679 48.075 963.474 613.989 19.451 143.207 172.823 0.000 163.349 89.156 262.560 240.100 150.941 282.982 281.862 769.644 796.647 111.774 696.476 116.242 175.920 117.430 636.171 138.578 583.441 701.478 894.889 460.061
41.719 89.896 103.302 67.782 117.248 672.546 202.430 832.878 422.439 213.226 867.201 198.723 150.130 277.919 110.354 307.217 45.760 707.410 169.004 532.549 243.428 158.397 101.493 183.408 157.145 959.541 525.903 138.033 170.017 71.191 144.966 0.000 82.863 160.928 138.468 101.728 188.612 187.492 822.880 708.561 172.246 749.713 152.792 107.927 74.675 548.085 18.322 636.678 754.715 890.955 358.429
85.086 75.328 157.408 21.380 79.776 726.652 256.535 803.496 476.545 260.069 894.950 245.566 204.236 332.024 122.684 333.335 60.266 733.528 132.802 586.654 297.534 212.502 113.823 147.206 133.513 987.289 580.009 104.889 149.558 125.297 107.495 89.936 0.000 215.033 192.573 114.058 235.456 234.335 793.499 762.666 137.160 720.331 180.540 142.898 28.273 602.191 65.166 607.296 725.333 918.704 412.535
139.634 209.151 69.955 204.024 233.475 539.056 73.972 876.221 376.910 314.332 974.410 299.829 151.122 285.909 139.622 234.978 183.230 635.170 264.710 399.058 123.660 54.354 159.622 274.437 264.354 1066.750 392.412 245.242 215.975 110.259 262.226 142.337 219.105 0.000 29.626 149.739 289.718 288.597 866.224 575.070 245.418 793.056 260.000 211.447 210.917 414.595 155.792 680.021 798.058 998.164 312.900
118.427 187.943 45.370 182.816 212.267 549.746 89.535 855.014 350.887 288.118 953.203 273.615 124.909 259.695 118.415 250.541 162.022 650.734 243.502 409.748 134.304 29.768 138.415 253.230 243.146 1045.542 403.103 224.034 194.767 84.825 241.018 121.129 197.898 29.626 0.000 128.532 263.505 262.384 845.016 585.760 224.210 771.849 238.793 185.233 189.710 425.285 134.585 658.814 776.851 976.956 286.877
47.154 82.919 83.865 77.792 107.243 657.715 174.956 787.208 408.712 260.558 914.533 246.055 142.674 270.462 54.225 263.485 74.041 663.677 138.478 517.717 229.701 130.923 45.759 152.881 160.979 1006.873 511.072 132.356 128.869 63.735 138.663 52.005 92.873 133.454 112.246 0.000 235.944 234.824 777.211 693.729 131.289 704.043 200.124 155.259 84.685 533.254 70.327 591.008 709.045 938.287 344.702
206.974 260.987 236.761 238.872 283.612 602.595 340.471 1003.968 311.355 40.314 739.628 19.838 167.358 181.206 276.802 451.418 216.850 851.611 336.638 514.582 329.143 294.737 268.065 338.090 297.975 831.967 507.936 278.862 341.108 200.922 295.847 202.253 253.954 291.182 264.968 268.301 0.000 14.580 993.971 617.315 340.996 920.803 293.621 164.092 245.766 529.465 189.413 807.768 925.805 763.381 315.420
205.853 259.866 235.640 237.751 282.491 593.922 339.350 1002.847 302.681 31.641 730.954 27.134 166.237 180.086 275.681 450.298 215.729 850.490 335.518 505.908 328.022 293.616 266.944 336.969 296.854 823.294 499.262 277.742 339.987 199.801 294.726 201.132 252.833 290.061 263.847 267.180 17.023 0.000 992.850 608.641 339.875 919.682 292.500 162.971 244.645 520.792 188.292 806.648 924.685 754.708 306.746
814.151 806.001 822.739 825.302 770.342 1349.693 915.467 241.284 1157.012 1027.555 1651.767 1013.051 905.722 1033.511 763.013 944.021 832.423 1344.214 751.418 1209.695 978.001 869.797 747.612 752.800 828.706 1744.106 1203.049 800.083 751.925 827.650 806.390 819.001 803.922 872.328 851.121 777.055 1002.941 1001.820 0.000 1385.707 726.905 117.128 894.469 911.966 832.196 1225.232 837.323 269.702 90.164 1675.520 1093.002
693.371 765.900 620.107 758.988 783.225 123.336 524.736 1386.413 331.802 587.273 1286.586 629.638 619.922 552.099 669.002 536.828 736.966 443.763 800.188 191.569 552.613 615.887 689.001 780.084 818.091 1378.926 236.780 798.978 726.166 656.480 814.645 696.073 774.070 575.429 586.118 683.250 619.528 610.855 1376.415 0.000 767.765 1303.248 813.737 754.647 765.882 182.279 709.529 1190.213 1308.250 1310.340 398.746
153.677 113.516 196.646 132.817 77.857 725.591 282.829 723.618 525.239 340.162 945.940 325.659 259.201 386.989 123.019 319.920 140.358 720.112 36.569 585.594 346.228 240.387 113.917 37.951 122.879 1038.279 578.948 86.008 82.733 180.262 113.904 158.527 111.437 242.918 221.710 116.585 315.549 314.428 713.621 761.606 0.000 640.453 179.621 219.480 139.710 601.130 145.259 527.418 645.455 969.693 461.229
724.005 715.855 732.593 735.156 680.196 1259.546 825.321 150.127 1066.866 937.408 1561.620 922.905 815.576 943.364 672.866 853.875 742.276 1254.067 661.271 1119.549 887.855 779.651 657.465 662.653 738.560 1653.959 1112.903 709.936 661.778 737.503 716.243 728.855 713.776 782.182 760.974 686.908 912.795 911.674 97.261 1295.561 636.758 0.000 804.323 821.819 742.049 1135.085 747.176 178.545 103.018 1585.374 1002.856
173.795 213.510 208.164 192.242 142.675 777.409 307.292 882.941 527.302 310.826 824.150 296.323 254.993 382.781 243.623 418.650 170.201 818.843 173.397 637.411 348.290 263.259 234.886 153.175 74.308 916.490 630.765 105.041 222.007 176.054 129.972 169.074 174.609 265.790 243.330 235.122 286.213 285.092 872.944 813.423 186.270 799.776 0.000 179.150 199.135 652.948 156.234 686.742 804.779 847.904 463.292
128.786 182.799 160.730 156.492 181.368 723.016 262.283 905.088 453.758 182.718 807.903 168.215 134.139 261.927 198.614 373.641 134.451 773.834 234.395 583.018 293.897 218.250 189.877 233.534 193.419 900.243 576.372 174.306 262.920 122.734 191.291 124.065 153.304 215.150 188.937 190.113 158.105 156.984 895.091 749.172 238.752 821.923 189.065 0.000 163.386 598.554 111.225 708.889 826.926 831.657 394.647
74.817 65.848 147.138 43.995 93.322 716.383 246.266 808.829 466.276 249.800 903.776 235.297 193.967 321.755 112.415 323.066 49.996 723.259 144.956 576.385 287.265 202.233 103.553 159.360 147.058 996.115 569.739 118.434 145.969 115.028 121.210 79.667 58.815 204.764 182.304 103.789 225.187 224.066 798.832 752.397 148.198 725.664 189.366 144.501 0.000 591.922 54.897 612.629 730.666 927.529 402.266
547.489 620.018 474.225 613.106 637.343 130.139 378.854 1240.531 233.952 489.423 1188.737 531.788 522.072 454.249 523.119 390.946 591.084 405.582 654.306 43.955 406.731 470.005 543.119 634.202 672.208 1281.076 89.166 653.096 580.284 510.598 668.763 550.191 628.188 429.547 440.236 537.367 521.678 513.005 1230.533 188.677 621.883 1157.366 667.855 611.006 620.000 0.000 563.647 1044.331 1162.368 1212.490 300.897
57.872 99.566 92.242 77.451 119.196 661.486 191.370 842.547 411.379 194.903 848.879 180.400 139.070 266.858 120.024 302.727 49.411 702.920 172.222 521.488 232.368 147.337 111.162 178.938 138.823 941.218 514.843 119.711 179.687 60.131 136.695 41.219 91.132 149.867 127.407 111.398 170.290 169.169 832.550 697.500 176.580 759.382 134.469 89.604 84.345 537.025 0.000 646.348 764.385 872.633 347.369
635.811 627.661 644.399 646.962 592.002 1171.353 737.127 324.340 978.672 849.214 1473.426 834.711 727.382 855.170 584.672 765.681 654.082 1165.873 573.078 1031.355 799.661 691.457 569.272 574.459 650.366 1565.766 1024.709 621.742 573.584 649.309 628.050 640.661 625.582 693.988 672.780 598.715 824.601 823.480 271.475 1207.367 548.564 198.307 716.129 733.626 653.855 1046.891 658.983 0.000 251.245 1497.180 914.662
742.440 734.291 751.028 753.591 698.631 1277.982 843.757 171.919 1085.302 955.844 1580.056 941.341 834.012 961.800 691.302 872.310 760.712 1272.503 679.707 1137.984 906.291 798.087 675.901 681.089 756.996 1672.395 1131.339 728.372 680.214 755.939 734.679 747.291 732.212 800.617 779.410 705.344 931.230 930.110 90.750 1313.996 655.194 122.333 822.759 840.255 760.485 1153.521 765.612 271.832 0.000 1603.809 1021.292
894.301 948.315 928.671 912.748 905.033 1274.870 1027.799 1645.299 983.629 712.589 36.950 756.882 874.011 866.938 964.130 1139.157 890.707 1539.349 946.849 1186.856 1035.797 983.766 955.393 926.627 856.358 219.931 1180.210 867.399 995.459 896.561 884.383 889.581 909.560 986.297 963.837 955.629 746.926 738.253 1635.302 1289.589 959.722 1562.134 832.020 814.976 919.642 1201.740 876.741 1449.099 1567.136 0.000 987.694
344.381 419.509 277.355 409.999 451.168 360.796 299.732 1093.384 85.000 267.280 966.593 309.645 265.175 220.386 365.501 348.544 387.977 675.688 482.403 272.783 223.393 316.924 385.500 496.806 469.101 1058.932 266.137 449.989 433.138 307.491 466.973 347.084 425.080 313.230 287.155 367.432 299.534 290.861 1083.387 375.516 471.296 1010.219 464.747 399.900 416.892 287.666 360.539 897.184 1015.221 990.346 0.000
NODE_COORD_SECTION
1 27567.380647 -311.862562
2 28431.196991 138.186791
3 26891.010382 -1590.959804
4 28092.393238 410.433655
5 28560.084004 893.141950
6 23128.408401 -12266.563631
7 27296.890384 -3585.715310
8 36413.824345 9296.542510
9 22101.919183 -6403.553857
10 22387.967122 -448.982108
11 17986.468510 15638.836469
12 23169.655048 -239.752488
13 25601.492812 -1458.446831
14 23029.617253 -2377.418957
15 28244.381112 -794.242128
16 28546.029434 -6261.700422
17 27648.710425 337.974527
18 27817.380182 -15947.775576
19 29472.275652 798.947818
20 23090.296717 -10469.042360
21 26139.975508 -3667.760187
22 27007.774472 -2313.695070
23 28516.750816 -516.909152
24 29375.150132 1216.168670
25 27816.360986 1874.096924
26 20155.353849 15116.474428
27 23325.753381 -9702.508675
28 28413.903795 1501.911701
29 29638.440600 -215.111101
30 26880.307020 -848.641685
31 28338.476700 1284.948512
32 27305.836359 -78.050108
33 27998.581771 501.694667
34 26968.865756 -2559.437982
35 26890.033004 -2188.014757
36 27908.894761 -603.090270
37 23223.093852 -365.756421
38 23101.767854 -373.300989
39 37727.347258 11644.581314
40 23004.300918 -13176.843647
41 29491.269348 625.744265
42 38374.490281 9440.423257
43 27055.629237 2556.391717
44 25795.691247 440.891601
45 27934.966675 309.948962
46 23104.235979 -10792.208758
47 27161.261737 152.459480
48 38614.361567 6176.453917
49 37292.166463 10484.083838
50 17452.866744 15697.268553
51 22832.926964 -5136.399311
DEMAND_SECTION
1 0
2 6
3 7
4 6
5 4
6 8
7 4
8 10
9 3
10 3
11 98
12 8
13 6
14 6
15 5
16 9
17 3
18 4
19 7
20 6
21 7
22 2
23 9
24 56
25 10
26 55
27 1
28 4
29 3
30 3
31 8
32 8
33 5
34 1
35 1
36 7
37 9
38 9
39 10
40 10
41 4
42 91
43 8
44 10
45 3
46 7
47 63
48 9
49 1
50 7
51 8
DEPOT_SECTION
1
-1
EOF
