NAME : poryos-hong_kong-n10-hyb
COMMENT : Poryos2026 shortest metric; city hong_kong; 3-decimal seconds/meters; ENU ref in poryos-hong_kong-n10-hyb.vrp.json
TYPE : CVRP
DIMENSION : 11
EDGE_WEIGHT_TYPE : EXPLICIT
EDGE_WEIGHT_FORMAT : FULL_MATRIX
CAPACITY : 101
EDGE_WEIGHT_SECTION
0.000 9334.308 10516.768 4381.403 19021.925 2682.893 25186.609 6479.227 5940.244 14918.754 9936.010
9155.868 0.000 2444.584 7902.823 26672.436 8124.336 30948.689 12153.133 10849.176 14325.793 17195.906
10941.476 2518.840 0.000 9688.430 28458.044 9284.821 30342.691 11463.413 10596.730 16223.015 18981.514
4655.473 7971.081 9459.750 0.000 20268.846 4608.049 27507.356 8832.812 7407.843 10838.921 10792.317
19208.020 27007.594 28190.054 20627.932 0.000 20846.539 13637.047 21446.739 21683.523 27591.654 11247.154
2824.579 9152.377 8666.459 4613.503 20364.046 0.000 23399.365 5025.281 3306.644 15150.855 11830.054
24569.001 30955.574 29287.411 26889.489 35456.148 23180.090 0.000 20478.399 20685.466 37426.840 27392.694
6902.325 12847.510 10938.028 9355.769 21710.940 5646.369 20395.312 0.000 3151.746 19672.060 13041.141
6060.807 11791.263 10167.950 7688.250 21083.456 3940.724 21479.935 3158.217 0.000 18225.601 12413.658
13657.077 13343.617 15073.789 10201.492 26771.407 14345.485 37244.792 18570.248 17145.279 0.000 17294.877
10269.517 17607.371 19096.041 11188.003 11309.939 12162.699 24039.631 12860.444 13598.070 18151.725 0.000
NODE_COORD_SECTION
1 1438.942575 -1211.855723
2 1341.120703 -8492.364950
3 -617.892096 -7808.174335
4 3729.564917 -2859.972289
5 1113.921911 11014.492265
6 422.107577 -2211.221152
7 -8059.341270 9001.557866
8 -3140.158798 -2065.126878
9 -2308.618708 -1828.776495
10 9962.929957 -5586.984193
11 5504.164897 5115.139735
DEMAND_SECTION
1 0
2 61
3 9
4 7
5 60
6 5
7 77
8 4
9 1
10 8
11 2
DEPOT_SECTION
1
-1
EOF
