NAME : mamut-lyon-n100-hyb
COMMENT : Mamut2026 shortest metric; city lyon; 3-decimal seconds/meters; ENU ref in mamut-lyon-n100-hyb.vrp.json
TYPE : CVRP
DIMENSION : 101
EDGE_WEIGHT_TYPE : EXPLICIT
EDGE_WEIGHT_FORMAT : FULL_MATRIX
CAPACITY : 166
EDGE_WEIGHT_SECTION
0.000 7311.765 6014.127 5321.044 5757.688 1184.237 1923.870 3268.449 8009.859 5900.687 3328.979 3849.100 1284.163 1683.303 5500.578 3152.981 1618.441 2356.709 4322.102 1518.134 4613.523 2793.769 5546.711 1523.561 3340.058 6617.715 1046.790 5562.217 2077.068 4034.668 2466.022 1928.107 1522.978 5115.461 2100.130 1819.108 2359.071 4336.640 1839.880 1463.942 2910.517 1607.345 3821.578 3176.798 4769.358 1329.540 2219.559 2090.067 4364.762 3319.692 3086.732 6364.575 4360.720 5725.334 3424.033 6529.530 7001.183 4295.984 7149.728 4045.037 6905.829 2630.815 3426.851 4619.627 5485.641 7448.245 3904.445 5473.156 4848.648 7818.119 7615.409 5773.594 903.044 6197.704 5929.365 5715.127 1926.608 7915.764 5747.508 5921.678 5281.467 5349.411 4368.351 5281.583 5270.324 7298.006 3600.587 5975.503 4765.820 5904.584 6072.750 3195.321 4639.564 5565.222 3300.831 5995.024 6976.230 4171.243 7455.798 5138.239 5113.365
7870.006 0.000 4605.034 5225.404 8256.799 7336.968 8401.790 9746.369 14429.823 11589.918 10254.776 11083.424 7954.897 8567.722 5343.098 9630.901 7096.956 8834.629 6687.987 8158.719 4575.101 8551.613 11513.729 6732.362 10265.855 11299.296 8281.113 11529.234 8542.409 10001.685 8943.942 7685.951 8490.803 11593.381 9334.453 7665.380 8116.916 6702.526 9074.204 8698.265 9388.438 7357.772 7309.860 8335.019 11189.322 7586.372 7902.723 9324.390 11290.559 7193.561 8379.289 3656.299 8420.625 11428.137 9391.050 7233.382 12736.867 10773.905 13008.088 10522.958 8186.015 8388.659 9160.929 6527.989 11905.605 12129.827 5680.133 11231.001 11326.568 1088.666 3303.383 4364.501 8137.367 10935.608 12407.286 10643.665 8404.528 7835.366 10690.251 3162.029 7005.700 11085.095 11602.675 11039.428 5593.838 1254.791 9962.178 1474.152 11866.393 11593.815 12492.714 8953.166 6308.126 2821.923 4336.177 11998.590 11904.768 10168.399 8476.870 2938.932 2968.542
6591.697 4444.566 0.000 8239.665 4227.005 6039.107 7004.663 7796.824 11193.387 7560.125 8598.681 9547.303 6676.588 6911.627 7384.498 7681.357 5440.861 7556.320 2740.825 6502.623 4063.733 4884.207 9857.634 5260.452 8609.760 10666.791 7002.804 9873.139 6886.314 8345.590 7665.633 5648.091 6834.708 10315.072 8056.144 5778.721 5574.637 2755.363 7795.894 7419.956 7283.303 5351.624 7714.452 7109.831 8126.796 6033.295 5199.990 8046.081 9634.464 6335.672 7019.766 1410.731 8293.753 7398.344 7734.955 3067.065 11312.105 8229.587 11460.650 9087.323 4156.221 5548.808 7504.834 2498.196 8773.760 11497.322 7155.238 7455.198 8706.964 5241.612 7456.330 403.030 6859.058 6905.815 9629.804 9764.204 7126.219 3669.049 9796.585 5126.651 2904.131 9660.333 10066.554 7263.625 1564.045 3654.106 6811.723 3056.719 10210.297 7564.022 8864.072 6410.887 2278.333 2225.796 3308.777 8038.672 11025.306 6982.592 4310.553 2244.865 2113.514
5507.547 5228.845 8310.604 0.000 9995.546 5995.552 6735.185 8079.763 12821.174 10712.213 7379.196 8349.797 6085.694 5714.121 1900.876 7964.296 4243.356 7168.023 7751.998 5305.118 5548.321 7605.294 7616.586 4714.387 7390.275 7040.537 5848.321 7716.802 5688.809 6519.431 7277.336 6739.632 5637.202 9732.573 6860.415 6680.475 7170.596 7766.536 6600.165 6224.227 7721.832 6411.452 3051.100 4076.260 9580.673 6140.855 6956.403 6850.352 7882.370 2934.801 4120.529 7361.869 4161.865 10536.649 5876.049 9325.000 8478.107 9107.299 8749.328 8856.352 10251.829 7442.340 5687.285 8593.803 10296.956 7871.067 1421.374 10284.681 9659.963 4433.555 3177.415 8070.071 5704.575 11009.230 10740.680 6384.906 6737.922 10711.235 6431.492 3802.179 9076.392 6826.335 8869.048 10093.108 7886.882 6176.111 8411.901 5373.243 8646.250 10716.110 10884.065 8006.847 8215.173 6474.029 5726.056 10806.339 7646.008 8982.558 10568.489 6149.779 6179.388
5444.024 8505.665 4361.669 9686.663 0.000 4816.054 5975.808 6786.057 7237.837 3604.574 8764.518 8868.496 5528.915 7118.842 9049.742 6670.590 6642.510 6408.646 1968.511 6953.674 5830.454 3453.444 10982.251 6123.758 8775.597 11868.441 6080.988 10997.756 7512.608 9470.207 6517.959 4425.038 6958.518 9167.399 7119.525 4555.668 4143.873 1983.049 6861.545 6506.673 6272.537 4128.570 8916.102 8311.481 5253.482 4810.241 3976.936 7041.445 9800.301 7537.321 8221.415 5646.976 9495.403 3442.793 8859.572 4003.300 12436.722 6849.770 12585.267 8076.556 3426.047 3985.855 8706.483 1838.990 5623.861 12698.971 8356.888 4228.947 6890.530 9035.050 10314.944 4429.587 6157.384 2950.264 7683.095 10965.853 5978.545 5389.534 10998.234 7732.275 1814.066 10784.950 9373.841 4037.374 2744.094 7715.205 4336.232 7117.818 9785.215 3608.471 4908.522 4405.835 1995.784 6286.895 4586.951 4083.122 12226.956 3756.341 3976.016 5917.759 5892.885
968.330 7157.457 5859.819 5985.017 5045.209 0.000 1484.078 2828.657 7342.726 4883.950 4288.825 4376.766 1037.185 2643.149 6164.551 2713.189 2578.287 1916.917 3609.622 2477.981 4459.215 1777.031 6506.558 2170.358 4299.904 7577.561 1589.259 6522.063 3036.915 4994.514 2026.230 911.369 2482.825 4675.669 2627.795 802.371 1342.333 3624.161 2369.815 2014.943 2470.725 590.607 4781.425 4136.644 4102.225 509.881 1202.822 2549.716 5324.608 3761.766 4046.578 6210.267 5320.566 4722.168 4383.879 5817.050 7961.029 3856.193 8109.574 3605.245 6193.350 1614.077 4386.697 3907.147 4818.508 8408.092 4568.418 4456.418 4408.856 7663.811 8279.382 5619.286 1665.655 5180.967 5489.574 6674.973 1486.816 7203.285 6707.355 6156.530 4568.988 6309.257 4882.111 4264.845 4557.844 7143.698 2933.453 5821.195 5293.486 4887.847 5405.617 2178.584 3927.085 5410.914 3146.523 5224.007 7936.076 3393.816 6743.318 4983.931 4959.057
1760.652 8560.991 7263.353 6777.338 6147.383 1606.222 0.000 1573.764 6947.027 5427.163 3452.767 3200.014 1281.336 2399.360 6956.872 1458.296 2907.138 734.669 4701.125 2265.510 5862.749 3315.253 5689.442 3197.303 3463.846 6875.611 1369.698 5704.947 2334.964 4177.398 849.478 2449.590 2239.035 3497.789 1451.043 2196.442 2943.000 4715.663 1193.063 1206.533 1215.832 2191.274 4988.519 4040.654 4066.212 1710.153 2803.489 1372.964 4488.550 4775.987 3950.588 7613.800 5224.575 5206.979 3636.346 6908.553 7188.504 2601.300 7292.458 2427.365 7310.448 3214.744 3639.164 5024.245 4243.686 7706.141 5360.740 4999.632 3153.963 9067.345 9071.703 7022.820 1537.096 5942.831 4234.680 5973.023 310.064 8294.787 5993.473 7426.497 5686.086 5561.724 3704.231 4808.059 5649.347 8547.231 3082.231 7224.729 4116.734 5431.060 5023.206 3314.703 5018.587 6814.448 4550.057 5180.814 7234.125 3652.888 7860.417 6387.465 6362.591
3203.695 9380.185 7641.278 8220.381 6521.739 2864.369 1714.781 0.000 5947.661 4437.207 3868.790 2986.676 2737.636 3894.168 8399.915 639.492 4363.438 1357.383 5075.481 3760.318 6681.943 3883.298 6319.421 4623.541 3879.869 7874.901 2864.507 6310.939 3747.778 4807.378 1531.886 3017.636 3733.844 3057.420 2094.714 2764.487 3527.124 5090.019 2326.933 2619.689 581.163 2794.354 6483.328 5453.468 3066.846 2968.299 3408.007 2246.722 4818.987 6219.030 5363.402 8432.994 6637.390 4419.379 4405.505 7282.909 7818.484 1288.092 7768.389 1742.894 7684.804 3798.868 4408.323 5398.601 3244.320 8705.431 6803.782 5182.954 1840.755 9886.539 10514.746 7709.196 3031.905 6126.153 2921.473 6972.313 1716.440 8669.143 6762.632 8379.257 6060.442 6284.610 3318.011 4991.381 6023.703 9366.425 3265.554 8043.923 4193.545 4485.201 4023.840 3498.025 5392.943 7633.642 5369.251 4181.448 8233.416 3836.210 8234.773 7206.659 7181.785
7789.534 13743.429 11305.624 12806.220 7351.286 7227.613 6939.961 6274.392 0.000 3656.823 9299.790 8707.825 7644.098 9052.758 12985.754 6158.924 9269.900 6662.716 8912.466 8918.908 11045.187 7535.562 11750.421 9209.380 9310.869 13180.234 8023.097 11741.939 8972.957 10238.378 6837.220 7358.226 8892.434 8555.540 7400.047 7127.731 6868.411 8927.004 7632.266 7844.869 5806.343 7157.598 11473.037 10678.647 3632.114 7331.543 7771.250 7552.055 10249.987 10804.869 10588.581 12590.932 11862.569 3934.745 9710.839 10947.255 13249.484 5228.401 13199.389 7461.124 10431.025 7180.835 9713.656 8782.946 2866.607 14010.765 11389.622 4988.522 5269.162 14249.783 15100.585 11373.542 8183.544 5663.724 5586.711 12277.646 6941.619 12333.489 12067.965 12742.501 8819.044 11636.217 9052.359 4796.949 9688.049 13729.669 5644.238 12407.166 9624.545 3704.816 2736.278 6563.916 8939.739 11996.886 9732.495 3169.389 13538.749 4975.956 10980.994 11569.903 11545.029
5875.619 11829.514 8000.106 10892.306 4045.768 5313.698 5409.080 4743.512 3654.459 0.000 7768.909 7176.945 5840.245 7248.905 11071.840 4628.044 7466.047 5131.836 5606.948 7115.055 9131.272 4470.478 10219.541 7295.466 7779.988 11649.354 6219.244 10211.059 7442.077 8707.497 5306.339 5353.927 7088.581 7260.889 5869.167 5213.816 3807.548 5621.486 6101.386 6311.400 4275.462 5226.488 9669.184 8902.715 2101.234 5417.629 5795.513 6021.175 8719.107 8890.954 8812.649 9285.413 10086.637 629.227 8179.958 7641.737 11718.603 3697.521 11668.509 5930.244 7125.507 4119.972 8182.776 5477.427 3064.954 12479.885 9475.707 1683.004 3738.282 12335.869 13186.671 8068.024 6379.690 2358.206 4530.847 10746.766 5410.739 9027.971 10537.085 10828.587 5513.526 10105.336 7521.479 1491.431 6382.531 11353.642 2731.955 10493.252 8093.664 69.191 1325.145 3570.204 5634.220 9925.332 7818.580 499.744 12007.869 1915.093 7675.476 9556.196 9531.322
4125.091 10680.363 9272.622 7447.123 9257.344 4610.772 3818.121 3906.276 9490.717 7980.262 0.000 1186.475 3658.835 3138.784 7626.657 3790.808 4000.915 3183.435 7821.758 3091.597 7982.121 6293.425 2710.775 4827.679 27.241 4935.712 3095.751 2543.897 2398.165 1198.731 3354.727 5427.763 3001.249 3254.102 2411.886 5254.836 5858.727 7836.297 2614.089 3029.482 3946.533 5107.001 4591.317 3834.254 6609.901 4715.215 5719.216 2583.902 1051.945 6331.140 3744.189 9771.465 4189.339 7962.434 2384.370 10029.186 4209.837 4874.324 4083.593 2783.475 10405.486 6130.471 2387.188 8119.283 6787.375 5766.242 6030.525 8516.842 5426.988 10997.628 9741.488 9032.089 3126.641 9460.042 5788.567 4033.124 3519.651 11415.421 3611.034 9061.781 8781.123 3046.788 2121.415 8325.269 8753.311 10704.896 6599.442 9344.101 1627.778 8028.256 7566.896 6694.978 8139.221 8972.112 6669.429 7724.503 5294.227 7170.099 10955.454 8545.129 8520.255
3987.898 10640.042 9232.301 8119.769 9172.736 4457.877 3326.288 2942.167 8697.211 7186.757 1307.997 0.000 3508.582 3158.558 8299.303 2826.699 4072.119 2511.391 7726.478 3024.708 7941.800 6215.017 3706.238 4760.789 1319.077 5778.402 2986.451 3485.835 2991.228 2303.111 2682.684 5349.355 2998.233 2067.627 1770.218 5101.428 5780.319 7741.016 2002.437 2591.163 3232.161 5028.593 5434.007 4676.945 5816.396 4561.808 5640.808 1922.226 1993.883 6316.284 4586.879 9731.144 5032.030 7168.929 3227.061 9933.906 5201.758 3904.245 4943.285 1597.000 10335.801 6052.063 3229.879 8049.599 5993.869 6608.933 6703.170 7833.951 4456.909 11146.396 10414.134 8991.768 3017.341 8777.151 4602.092 4875.814 3027.817 11320.140 4453.725 9120.073 8711.439 3889.479 934.940 7642.378 8674.700 10664.575 5916.551 9303.780 1368.440 7234.750 6773.390 6149.022 8043.940 8931.791 6629.108 6930.998 6136.917 6487.208 10885.770 8504.808 8479.934
479.316 7673.840 6376.202 5496.002 5720.611 951.938 1691.570 3036.149 7777.559 5713.219 3799.810 4319.932 0.000 2154.134 5675.536 2920.681 2089.273 2124.409 4285.024 1988.966 4975.598 2706.435 6017.543 1915.967 3810.889 7088.546 1517.621 6033.048 2547.900 4505.499 2233.722 1840.773 1993.810 4883.161 2570.961 1636.861 2271.737 4299.563 2310.711 1934.773 2678.218 1520.011 4292.410 3647.629 4537.058 1097.240 2132.226 2560.898 4835.593 3494.651 3557.564 6726.650 4831.551 5493.034 3894.864 6492.452 7472.014 4063.685 7620.559 3812.737 6868.752 2543.481 3897.682 4582.549 5253.342 7919.077 4079.404 5285.687 4616.348 8180.194 7790.367 6135.669 1373.875 6110.371 5697.066 6185.959 1694.308 7878.687 6218.340 6283.752 5244.389 5820.243 4839.183 5094.114 5233.246 7660.080 3368.287 6337.578 5236.652 5717.116 5840.451 3107.988 4602.487 5927.297 3662.906 5762.724 7447.061 3938.943 7418.720 5500.314 5475.440
1956.470 8159.454 6751.712 5639.180 7088.723 2444.474 2148.758 3356.847 8727.669 6871.688 2559.050 3176.001 1495.537 0.000 5818.714 3241.379 1591.530 2423.799 5653.137 396.894 5461.212 4124.804 4441.172 2280.200 2570.129 5512.176 932.453 4456.678 971.529 2929.129 2303.723 3259.142 570.981 4558.776 1768.332 3091.538 3690.106 5667.675 1508.082 1132.144 2998.916 2938.380 3303.053 2184.553 5696.363 2551.918 3550.594 1758.269 3594.833 3835.695 2094.487 7250.555 3368.475 6651.504 2318.494 7670.520 5895.644 4384.383 6044.189 3995.873 8236.864 3961.850 2321.312 5950.662 6024.327 6342.707 4222.582 6444.157 4937.047 8665.808 7933.546 6511.179 963.343 7387.356 6017.764 4609.588 2057.555 9056.755 4641.969 6639.484 6612.502 4243.872 3695.252 6252.584 6232.402 8183.986 4526.757 6823.191 4092.720 6875.585 6803.847 4526.357 5970.599 6451.203 4148.519 6921.194 5870.691 5097.413 8786.833 6024.219 5999.345
5919.222 5066.683 7201.924 2642.781 9430.301 6407.226 7146.859 8491.437 13232.848 11123.887 7790.870 8761.471 6497.368 6125.795 0.000 8375.970 4655.030 7579.697 7186.753 5716.792 4439.641 8016.968 8028.260 5126.061 7801.949 7452.211 6259.995 8128.476 6100.483 6931.105 7689.010 7151.306 6048.877 10144.247 7272.089 7092.149 7582.270 7201.291 7011.839 6635.901 8133.506 6823.126 3462.774 4487.934 9992.347 6552.529 7368.077 7262.026 8294.044 3346.475 4532.203 6253.189 4573.539 10948.323 6287.723 9165.301 8889.781 9518.973 9161.002 9268.026 10092.129 7854.014 6098.959 8145.794 10708.630 8282.741 1833.048 10696.355 10071.637 4642.513 3438.076 6961.391 6116.249 11420.904 11152.354 6796.580 7149.596 10432.256 6843.166 2693.499 8807.634 7238.009 9280.722 10504.782 7698.435 6013.949 8823.575 4264.563 9057.925 11127.784 11295.739 8418.521 7649.928 5365.349 4735.621 11218.013 8057.682 9394.232 10408.789 5041.099 5070.708
3319.162 9495.653 7756.746 8335.849 6637.206 2979.837 1830.249 115.468 6063.129 4552.674 3984.258 3102.144 2853.104 4009.636 8515.383 0.000 4478.906 1472.851 5190.948 3875.786 6797.411 3998.765 6434.889 4739.009 3995.337 7990.369 2979.975 6426.407 3863.246 4922.846 1647.354 3133.103 3849.312 3172.888 2210.182 2879.954 3642.592 5205.487 2442.400 2735.157 696.631 2909.822 6598.795 5568.935 3182.314 3083.767 3523.474 2362.190 4934.455 6334.498 5478.870 8548.462 6752.857 4534.847 4520.973 7398.376 7933.952 1403.559 7883.857 1858.362 7800.272 3914.336 4523.791 5514.069 3359.787 8820.899 6919.250 5298.422 1956.223 10002.007 10630.214 7824.664 3147.372 6241.621 3036.940 7087.781 1831.908 8784.611 6878.099 8494.725 6175.910 6400.078 3433.479 5106.849 6139.171 9481.893 3381.022 8159.390 4309.013 4600.668 4139.308 3613.493 5508.411 7749.110 5484.718 4296.916 8348.883 3951.678 8350.240 7322.126 7297.252
2039.836 7194.809 5787.067 4589.558 7075.331 2527.840 2997.485 4205.574 9353.462 7289.122 3157.820 4106.442 1987.229 1470.766 4769.092 4090.106 0.000 3272.526 5139.066 1061.763 4496.567 4198.191 4416.773 1601.360 3168.899 5225.931 1749.856 4432.278 1445.453 2904.729 3152.450 3332.529 1393.847 5489.217 2617.059 3212.764 3763.493 5153.604 2356.809 1980.871 3847.643 3011.767 2281.243 1668.971 6112.961 2673.143 3623.982 2606.996 4193.603 3244.053 1578.905 6285.910 2852.892 7068.937 2294.094 6705.875 5871.244 5233.110 6019.789 4844.600 7632.704 4035.237 2063.973 5937.270 6829.245 6056.461 3172.959 6861.590 5785.773 7701.163 6883.923 5546.534 1606.110 7602.127 6866.491 4323.343 2906.282 8092.110 4355.724 5674.839 6457.267 4219.472 4625.693 6670.017 5267.757 7219.341 4944.190 5858.546 4769.437 7293.019 7416.353 4599.744 5602.241 5486.558 3183.875 7338.627 5584.445 5514.846 7949.364 5059.575 5034.701
2119.984 9094.004 7796.366 7136.671 6725.140 2139.236 861.048 1129.225 6502.488 4992.034 3008.936 2537.687 1640.669 2678.257 7316.205 1013.757 3266.471 0.000 5278.882 2544.407 6395.762 3893.010 5245.611 3556.635 3020.015 6661.911 1648.596 5261.116 2524.695 3733.567 187.151 3027.348 2517.932 2763.120 788.717 2774.199 3476.014 5293.421 1002.744 1402.585 786.027 2724.288 5267.416 4230.385 3621.673 2243.167 3336.502 922.533 4044.719 5135.319 4140.319 8146.814 5414.307 4974.206 3192.515 7486.310 6744.673 2156.761 6848.627 1692.696 7888.206 3747.758 3195.332 5602.003 3799.147 7492.441 5720.072 5387.818 2709.424 9600.359 9431.036 7555.834 1820.103 6331.017 3790.142 5759.323 576.752 8872.545 5549.641 7924.421 6263.844 5117.893 2969.562 5196.245 6227.105 9080.245 3470.418 7757.742 3454.407 5040.028 4578.667 3702.889 5596.345 7347.461 5083.070 4736.275 7020.425 4041.074 8438.174 6920.478 6895.604
4230.301 6706.749 3092.667 7864.716 2474.816 3602.332 4567.887 5360.049 8930.521 5379.376 7550.796 7623.853 4315.192 5905.120 7227.795 5244.581 4820.563 5158.508 0.000 5739.951 4008.507 2447.431 9237.336 4640.154 7561.875 10046.494 4867.266 9252.841 6266.017 7725.292 5273.316 3211.315 5744.795 7921.628 5874.882 3341.945 3137.861 14.539 5616.902 5262.500 4846.528 2914.848 7094.155 6489.534 5690.020 3596.519 2763.214 5796.802 8586.579 5715.374 6399.468 4069.524 7673.456 5217.594 7114.658 2927.512 10691.807 5792.811 10840.352 6650.547 3622.957 3112.032 6884.536 1336.754 6406.303 10877.024 6534.941 5274.449 6270.188 7213.103 8492.997 2852.135 4943.662 4725.065 7193.028 9143.906 4733.902 4313.746 9176.287 5910.328 1998.595 9040.036 8128.069 5082.876 1668.306 6013.690 4521.249 5370.487 8540.572 5383.273 6683.323 3974.111 1175.157 4522.795 2765.004 5857.923 10405.009 4801.843 4171.000 4095.812 4070.938
2153.951 8144.458 6736.716 5624.184 7286.205 2641.956 2324.269 3526.181 8899.445 7069.170 2492.507 3109.458 1693.019 464.201 5803.718 3410.713 1576.534 2593.133 5850.619 0.000 5446.216 4322.285 4257.474 2265.204 2503.586 5328.478 1129.935 4272.979 787.831 2745.430 2473.057 3456.623 387.282 4492.234 1860.831 3289.020 3887.588 5865.157 1639.681 1290.352 3168.250 3135.862 3201.982 2083.481 5893.845 2749.399 3748.076 1889.868 3528.290 3820.700 1993.416 7235.559 3267.403 6848.986 2134.796 7655.524 5711.945 4553.717 5860.490 3935.762 8434.346 4159.332 2137.613 6148.144 6196.103 6159.008 4207.586 6641.639 5106.381 8650.812 7918.550 6496.183 1160.825 7584.838 6187.098 4425.890 2226.889 9041.759 4458.271 6624.488 6809.984 4060.174 3628.709 6450.066 6217.406 8168.990 4724.238 6808.195 4026.178 7073.067 6975.623 4723.838 6168.081 6436.207 4133.523 7118.676 5686.992 5294.895 8899.013 6009.224 5984.349
3911.384 4459.426 3665.614 5917.808 5143.172 3378.345 4443.168 5787.747 10471.200 7699.910 6296.154 7124.802 3996.275 4609.100 5274.616 5672.279 3138.334 4876.007 2899.624 4200.096 0.000 4592.991 7555.106 2773.740 6307.233 8364.264 4322.491 7570.612 4583.787 6043.063 4985.320 3727.329 4532.181 7634.759 5375.831 3706.758 4158.293 2914.163 5115.581 4739.643 5429.815 3399.149 5411.925 4807.304 7230.699 3627.750 3944.100 5365.768 7331.937 3848.960 4717.238 3550.528 5991.226 7538.128 5432.428 4878.172 9009.578 6815.283 9158.123 6564.335 5805.000 4430.037 5202.307 3858.665 7946.983 9194.795 4635.431 7272.378 7367.946 4965.781 6240.271 3425.081 4178.745 7393.421 8448.663 7461.677 4445.906 6264.406 7494.058 3663.005 4520.505 7357.806 7644.053 7080.805 3440.053 4483.959 6003.555 3123.164 7907.770 7703.807 8534.092 4994.544 3362.799 2751.175 448.492 8039.967 8722.779 6209.776 6121.660 2324.192 2299.318
3236.896 8306.526 5611.438 8047.606 3738.637 2674.976 3628.551 4614.762 7454.816 3821.553 6557.391 6600.000 3271.100 4911.715 8227.140 4499.294 4846.853 4140.151 3218.280 4746.546 5608.284 0.000 8775.124 4034.509 6568.470 9846.127 3812.493 8790.629 5305.481 7263.080 4249.464 1746.215 4751.391 6898.903 4851.030 2466.419 690.430 3232.818 4593.050 4238.178 3912.247 1618.776 7049.991 6405.210 4561.612 2720.993 2187.801 4772.950 7593.174 5625.918 6315.144 6844.082 7589.132 3659.772 6652.445 5253.069 10229.595 5358.204 10378.140 5828.480 5374.962 664.601 6655.263 3088.759 5277.895 10676.658 6631.008 3394.022 5412.746 8812.880 9724.550 5626.693 3899.569 4220.869 6205.311 8943.539 3710.050 6639.303 8975.921 7305.599 3750.600 8577.823 7105.345 3202.449 3993.863 8292.766 2311.361 6970.264 7516.720 3825.450 5125.501 1526.680 3245.553 6559.983 4295.592 4300.100 10204.642 2517.582 5924.931 6133.000 6108.126
5886.550 11559.612 10151.870 7626.127 11018.804 6372.232 5579.580 5797.080 11381.521 9871.066 2765.518 3077.279 5420.294 4054.953 7805.661 5681.612 4880.163 4951.978 9503.868 4159.686 8861.370 8054.884 0.000 5823.245 2300.916 4188.066 4857.210 482.214 3277.413 1396.969 5123.270 7189.222 3917.418 4858.408 4180.429 7016.295 7620.187 9518.407 4382.632 4790.942 5715.076 6868.460 4770.321 4318.895 8500.705 6476.675 7480.675 4352.445 1646.544 6510.144 4228.830 10650.713 4368.343 9853.238 2982.427 11070.678 1698.793 6765.128 1970.014 4674.279 11997.507 7891.930 3064.069 9880.742 8678.179 5018.597 6209.529 10278.302 7317.791 11176.632 9920.492 9911.337 4888.101 11221.501 7392.873 3150.845 5281.110 12456.913 2756.506 9240.785 10542.583 1190.540 3516.204 10086.729 9632.560 11584.144 8360.902 10223.349 2635.839 9919.060 9457.699 8456.437 9900.680 9851.360 7548.677 9615.307 4546.581 8931.558 12314.167 9424.377 9399.503
2180.967 6007.072 4605.524 4478.004 6194.877 2372.312 3408.604 4753.183 9465.167 6856.312 4503.510 5324.051 2759.114 2816.455 4657.539 4637.715 1345.690 3841.442 3951.329 2407.452 3308.830 3749.393 5762.462 0.000 4514.589 6571.620 2521.740 5777.968 2791.143 4250.419 3950.755 2883.731 2739.537 6600.195 3575.080 2863.160 3314.696 3965.868 3314.830 2938.892 4395.251 2555.552 3619.281 3014.660 6224.666 2621.717 3100.503 3565.017 5539.293 2056.316 2924.594 5098.174 4198.582 6694.531 3639.784 5524.332 7216.934 5780.718 7365.479 5529.771 6451.160 3586.439 3409.663 4793.134 6940.949 7402.151 3061.406 6428.781 6333.382 6513.426 6772.370 4364.991 2377.994 7153.329 7414.099 5669.032 3411.341 6910.566 5701.414 4487.103 5275.724 5565.162 5843.302 6237.208 4086.213 6031.605 5055.895 4670.810 6115.126 6860.209 7528.058 4150.946 4414.505 4298.821 1996.138 7196.370 6930.135 5366.179 6767.820 3871.838 3846.964
4097.850 10653.122 9245.381 7419.882 9230.103 4583.531 3790.880 3879.035 9463.476 7953.021 880.387 1159.234 3631.594 3111.543 7599.416 3763.567 3973.673 3156.193 7794.517 3064.356 7954.880 6266.184 2683.534 4800.438 0.000 4908.471 3068.510 2516.656 2370.924 1171.490 3327.486 5400.522 2974.008 3226.860 2384.645 5227.595 5831.486 7809.055 2586.848 3002.241 3919.292 5079.760 4564.076 3807.013 6582.660 4687.974 5691.975 2556.661 1024.704 6303.899 3716.947 9744.224 4162.098 7935.193 2357.129 10001.945 4182.596 4847.083 4056.352 2756.234 10378.244 6103.230 2359.947 8092.042 6760.134 5739.001 6003.284 8489.601 5399.747 10970.387 9714.247 9004.848 3099.400 9432.801 5761.325 4005.883 3492.410 11388.179 3583.793 9034.540 8753.882 3019.547 2094.174 8298.028 8726.070 10677.655 6572.201 9316.860 1600.537 8001.015 7539.654 6667.737 8111.979 8944.871 6642.188 7697.262 5266.986 7142.858 10928.213 8517.888 8493.014
6793.923 11081.418 10920.462 7093.576 11829.418 7281.927 6827.245 7684.449 13129.293 11618.839 4977.074 5883.284 6344.487 4967.177 7273.110 7568.981 5648.755 6649.734 10272.460 5001.236 9629.961 8952.277 4191.406 6591.837 4988.153 0.000 5781.403 4487.920 4454.013 3986.876 6821.026 8086.615 4829.642 7950.911 5878.185 7940.488 8517.580 10286.999 6080.388 5793.328 7412.832 7765.854 4094.235 3983.716 10248.478 7400.867 8378.068 6050.201 4813.275 5977.593 4073.782 11419.305 2973.571 11414.823 3521.069 11839.270 3846.342 8742.882 4382.580 7480.285 12766.098 8789.323 3590.081 10691.356 10425.951 1022.949 5676.978 11207.476 9295.546 10644.081 9387.941 10679.929 5812.293 12150.675 10376.263 1064.720 6688.099 13225.504 1612.968 8708.234 11353.197 3397.729 6724.265 11015.903 10401.151 12028.684 9290.076 10279.298 5843.900 11638.904 11205.472 9353.830 10711.294 10619.952 8317.269 11363.080 1346.033 9860.732 13082.758 10192.969 10168.095
1187.246 8208.357 6910.719 5920.769 6428.541 1659.868 1360.335 2568.425 7883.370 6027.390 3153.615 3064.533 707.931 1507.939 6100.304 2452.957 1888.772 1635.377 4992.955 1374.089 5510.115 3414.366 5371.348 2363.923 3164.694 6442.351 0.000 5386.853 1901.704 3859.304 1515.301 2548.704 1347.615 4344.403 1315.562 2303.932 2979.668 5007.493 1055.312 679.374 2210.494 2227.942 3945.166 3149.279 4852.065 1764.311 2840.156 1305.499 4189.398 3919.418 3059.213 7261.167 4333.201 5807.206 3248.669 7200.383 6825.819 3595.961 6974.364 3273.980 7576.682 3251.412 3251.487 5290.480 5180.029 7272.882 4504.171 5599.859 4148.624 8714.711 8215.135 6670.187 175.737 6543.058 5229.342 5539.763 1269.132 8586.617 5572.144 6817.659 5952.320 5174.047 3583.784 5408.286 5941.177 8194.598 3682.459 6872.095 3981.253 6031.287 5959.549 3815.919 5310.417 6461.814 4197.423 6076.896 6800.866 4253.115 8126.651 6034.831 6009.957
6000.013 11673.074 10265.333 7827.671 11132.267 6485.694 5693.043 5842.641 11427.082 9916.628 2843.993 3122.840 5533.757 4168.416 8007.206 5727.174 4993.626 5065.440 9617.331 4273.149 8974.832 8168.347 478.117 5936.708 2346.477 4263.645 4970.673 0.000 3390.876 1510.432 5236.733 7302.685 4030.881 4758.034 4293.892 7129.758 7733.649 9631.870 4496.095 4904.404 5828.539 6981.923 4971.865 4520.440 8546.267 6590.138 7594.138 4465.907 1546.170 6711.688 4430.374 10764.176 4569.888 9898.800 3183.972 11184.141 1736.647 6810.689 1587.511 4719.841 12110.969 8005.393 3265.613 9994.205 8723.740 5094.176 6411.073 10391.765 7363.353 11378.177 10122.037 10024.800 5001.563 11334.964 7292.499 3226.424 5394.573 12570.375 2893.415 9442.330 10656.046 1593.052 3415.830 10200.191 9746.022 11697.607 8474.364 10336.812 2535.465 9964.621 9503.261 8569.900 10014.143 9964.823 7662.140 9660.869 4622.160 9045.021 12427.629 9537.840 9512.966
2615.782 8285.950 6878.208 5654.151 7748.036 3103.787 2532.556 3533.378 8906.642 7396.187 1894.685 3051.505 2154.849 777.540 5833.685 3417.911 1606.501 2574.426 6230.207 882.273 5587.708 4784.116 3469.643 2549.583 1905.764 4673.065 1591.766 3485.149 0.000 1957.600 2480.254 3918.454 640.005 4434.281 1802.878 3750.851 4349.418 6244.745 1638.494 1589.785 3175.447 3597.692 3179.100 2060.600 6025.826 3211.230 4209.907 1888.681 2930.468 4105.078 1970.534 7377.051 3244.521 7225.186 1346.965 7797.016 4924.114 4560.914 5072.659 3877.809 8723.845 4621.162 1349.782 6609.974 6203.300 5503.596 4237.553 7017.839 5113.578 8792.304 7948.517 6637.675 1622.656 7961.038 6194.295 3770.477 2234.086 9183.251 3704.091 6765.980 7271.815 3272.343 3570.756 6826.266 6358.898 8310.482 5100.438 6949.687 3506.301 7444.181 6982.821 5185.669 6629.912 6577.699 4275.015 7140.429 5031.580 5671.095 9040.505 6150.716 6125.841
4489.581 10162.642 8754.901 6744.145 9621.835 4975.262 4182.611 4569.918 10034.568 8524.113 1368.549 1935.649 4023.325 2657.984 6923.679 4454.450 3483.194 3555.008 8106.899 2762.717 7464.400 6657.915 1512.044 4426.276 1159.286 4149.447 3460.241 1527.549 1880.444 0.000 3726.301 5792.253 2520.449 4003.276 2783.460 5619.326 6223.217 8121.438 2985.663 3393.972 4318.107 5471.491 3888.338 3201.435 7153.752 5079.706 6083.706 2955.475 1362.939 5628.161 3111.369 9253.744 3486.361 8506.285 1864.967 9673.709 3011.106 5623.498 3115.060 3532.650 10600.537 6494.961 1869.467 8483.773 7331.226 4979.978 5327.546 8881.333 6176.162 10294.650 9038.510 8514.368 3491.131 9824.532 6537.741 3125.117 3884.141 11059.943 2634.544 8358.803 9145.614 1868.438 2870.589 8689.759 8235.590 10187.175 6963.932 8826.380 2126.820 8572.107 8110.747 7059.468 8503.711 8454.391 6151.708 8268.355 4507.962 7534.589 10917.197 8027.408 8002.534
1932.833 9127.358 7829.720 6949.520 7114.601 2402.813 1259.359 1517.224 6890.487 5380.033 2821.785 2350.536 1453.518 2491.106 7129.054 1401.756 3079.320 410.928 5668.343 2357.256 6429.116 4159.953 5058.460 3369.484 2832.864 6474.760 1461.445 5073.965 2337.544 3546.416 0.000 3294.291 2330.782 3119.954 601.566 3046.364 3725.255 5682.882 815.593 1215.434 1174.026 2973.529 5080.265 4043.234 4009.672 2506.743 3585.743 735.383 3857.568 4948.168 3953.168 8180.167 5227.156 5362.205 3005.364 7875.771 6557.522 2544.760 6661.476 2049.530 8277.667 3996.999 3008.182 5991.464 4187.146 7305.290 5532.921 5775.817 3097.423 9633.712 9243.885 7589.187 1632.952 6719.016 4178.141 5572.172 960.889 9262.006 5362.490 7737.270 6653.305 4930.742 2869.787 5584.244 6616.566 9113.598 3858.417 7791.095 3267.256 5428.027 4966.666 4090.888 5985.806 7380.815 5116.423 5124.274 6833.274 4429.073 8827.635 6953.831 6928.957
1855.969 7261.894 5964.256 6872.656 5070.706 1294.048 2247.624 3233.835 7201.970 4565.634 5176.464 5219.073 1890.172 3530.788 7052.190 3118.367 3465.926 2759.224 3714.059 3365.619 4563.652 1488.721 7394.197 2989.877 5187.543 8465.200 2431.566 7409.702 3924.553 5882.153 2868.537 0.000 3370.464 5517.976 3470.103 1194.166 1132.547 3728.598 3212.122 2857.250 2531.320 574.144 5669.063 5024.283 3961.469 1397.979 1143.169 3392.023 6212.247 4581.286 4934.217 6314.704 6208.205 4403.853 5271.518 5921.487 8848.668 4040.899 8997.213 4447.553 6297.787 1404.291 5274.336 4011.584 4677.753 9295.731 5456.057 4138.103 4518.276 7768.248 8679.918 5723.724 2518.642 4971.181 5441.116 7562.612 2329.123 7307.722 7594.993 6260.967 4673.425 7196.896 5724.418 3946.530 4662.282 7248.135 2728.875 5925.632 6135.793 4569.531 5264.861 1719.864 4031.522 5515.351 3250.960 4765.287 8823.715 2935.096 6847.755 5088.368 5063.494
2161.530 8081.030 6673.288 5449.231 7293.784 2649.535 2183.356 3385.268 8758.531 6991.118 2272.396 2968.545 1700.598 323.288 5628.765 3269.800 1401.581 2452.220 5858.197 428.022 5382.788 4329.864 4029.672 2311.328 2283.475 5100.676 1137.514 4045.178 560.029 2517.629 2332.143 3464.202 0.000 4351.321 1719.917 3296.599 3895.167 5872.736 1498.767 1149.439 3027.336 3143.440 2974.180 1855.680 5815.793 2756.978 3755.655 1748.954 3308.179 3866.823 1765.614 7172.131 3039.601 6770.934 1906.994 7592.096 5484.143 4412.804 5632.689 3794.849 8441.925 4166.910 1909.811 6155.722 6055.190 5931.206 4032.633 6563.587 4965.467 8587.384 7743.597 6432.755 1168.404 7506.786 6046.185 4198.088 2085.975 8978.331 4230.469 6561.060 6817.563 3832.372 3487.796 6372.014 6153.978 8105.562 4646.187 6744.767 3884.012 6995.015 6834.710 4731.417 6175.660 6372.779 4070.095 6992.318 5459.191 5216.843 8835.585 5945.796 5920.921
4727.794 11714.462 10254.970 9380.121 9135.431 4759.693 3481.505 2823.347 7993.814 6798.741 3219.324 1911.327 4248.478 4418.910 9559.655 2707.879 5332.471 2620.457 7689.172 4285.060 9016.220 6513.307 5074.106 6021.141 3230.403 7689.729 4246.803 4853.703 4251.580 3705.738 2794.960 5647.645 4258.585 0.000 2937.171 5394.496 6096.471 7703.711 3169.390 3758.116 3211.173 5344.745 7071.806 5957.270 5428.380 4863.624 5956.959 3089.179 3361.752 7576.636 5867.204 10767.271 6943.356 6780.913 4866.637 9896.601 6392.306 3516.230 6127.484 1295.328 10298.496 6368.215 4869.455 8012.293 5274.781 8520.259 7963.523 7796.646 4068.893 12220.816 11674.486 10176.291 4277.693 8509.892 3178.648 6787.141 3197.210 11282.835 6340.282 10380.425 8674.134 5574.177 1422.684 7605.073 8637.395 11700.702 5879.246 10378.199 2464.836 6846.735 6385.374 6111.717 8006.635 9967.918 7703.527 6542.982 8048.244 6449.902 10848.465 9540.935 9516.061
2245.711 9352.403 7983.816 6871.285 7448.193 2715.690 1584.101 1877.845 7251.108 5740.654 2220.219 1771.218 1766.395 1910.073 7050.819 1762.377 2823.634 771.549 6001.935 1776.223 6654.161 4472.830 4456.894 3442.471 2231.299 5873.194 1430.478 4472.400 1742.744 2944.851 942.842 3607.168 1749.749 3153.994 0.000 3359.241 4038.132 6016.474 260.250 848.976 1534.647 3286.406 4562.969 3448.433 4370.293 2819.621 3898.621 180.039 3256.003 4997.966 3358.368 8405.213 4632.355 5722.826 2403.798 8209.363 5955.957 2905.381 6059.911 2249.788 8611.259 4309.876 2406.616 6325.056 4547.767 6703.725 5454.686 6136.438 3458.044 9858.757 9165.650 7743.284 1461.369 7079.637 4538.762 4970.606 1285.631 9595.598 4760.925 7871.589 6986.896 4329.176 2290.469 5944.865 6950.157 9338.644 4219.038 8016.141 2687.938 5788.648 5327.287 4451.509 6319.398 7605.860 5341.469 5484.895 6231.709 4789.694 9161.227 7178.877 7154.003
1526.542 7283.768 5986.130 6543.228 5092.579 964.621 1918.197 2904.407 7056.525 4696.037 4847.037 4889.646 1560.745 3201.361 6722.762 2788.940 3136.499 2429.797 3735.933 3036.192 4585.526 1510.594 7064.769 2946.388 4858.116 8135.773 2102.139 7080.275 3595.126 5552.726 2539.109 644.932 3041.036 5188.549 3140.675 0.000 1154.421 3750.471 2882.695 2527.823 2201.893 596.017 5339.636 4694.856 3816.024 1068.552 1165.043 3062.596 5882.820 4541.877 4604.790 6336.577 5878.778 4534.256 4942.091 5943.361 8519.240 3895.453 8667.785 4118.125 6319.660 1426.164 4944.908 4033.458 4532.307 8966.303 5126.630 4268.506 4372.830 7790.122 8701.791 5745.597 2189.215 4993.054 5295.671 7233.185 1999.696 7329.595 7265.566 6282.840 4695.298 6867.469 5394.991 4076.932 4684.155 7270.008 2647.252 5947.505 5806.365 4699.934 5119.416 1990.671 4053.395 5537.224 3272.833 5036.095 8494.287 3205.903 6869.629 5110.241 5085.367
2932.731 8161.934 6301.867 7903.014 4429.066 2370.810 3324.386 4310.596 7059.668 3634.149 6253.225 6295.834 2966.934 4607.549 8082.548 4195.128 4542.687 3835.985 3908.709 4442.381 5463.692 690.430 8470.958 3889.917 6264.304 9541.961 3508.327 8486.463 5001.315 6958.914 3945.298 1601.623 4447.225 6594.737 4546.864 2270.927 0.000 3923.248 4288.884 3934.012 3608.081 1474.184 6745.825 6101.044 3989.157 2474.740 2043.209 4468.784 7289.008 5481.326 6010.978 7214.744 7284.966 3472.367 6348.279 5943.498 9925.429 4786.585 10073.974 5524.314 6065.391 364.276 6351.097 3779.189 4705.441 10372.492 6486.416 3206.617 4841.127 8668.288 9579.958 6317.122 3595.403 3931.166 5633.692 8639.373 3405.884 7329.733 8671.755 7161.007 4441.029 8273.657 6801.179 3015.044 4684.292 8148.175 1868.541 6825.672 7212.554 3638.046 4730.353 859.529 3935.982 6415.391 4151.000 3904.953 9900.476 2074.762 6615.360 5988.408 5963.534
4215.762 6843.879 3229.797 8001.846 2460.277 3587.793 4553.348 5345.510 8915.983 5364.837 7536.257 7609.314 4300.654 5890.581 7364.925 5230.042 4957.693 5143.969 849.111 5725.413 4145.637 2432.893 9374.466 4777.284 7547.336 10183.623 4852.727 9389.971 6284.347 7862.422 5258.778 3196.777 5730.257 7907.089 5860.343 3327.407 3123.322 0.000 5602.363 5247.962 4831.989 2900.309 7231.284 6626.663 5675.481 3581.980 2748.675 5782.264 8572.040 5852.504 6536.598 4206.654 7810.585 5203.056 7251.787 3064.641 10828.937 5778.272 10977.482 6636.009 3608.418 3097.494 7021.666 1322.216 6391.765 11014.154 6672.070 5259.910 6255.649 7350.233 8630.127 2989.264 4929.123 4710.527 7178.490 9281.036 4719.364 4450.876 9313.417 6047.458 1984.056 9177.165 8113.531 5068.337 1805.435 6150.819 4506.710 5507.617 8526.034 5368.734 6668.784 3959.573 1312.286 4659.925 2902.134 5843.384 10542.138 4787.304 4158.387 4232.942 4208.068
1985.461 9092.153 7754.377 6715.934 7187.943 2455.440 1323.851 2110.064 7483.327 5972.872 2480.469 2009.221 1506.145 1754.723 6895.468 1994.596 2668.284 1003.767 5741.685 1620.873 6393.911 4212.580 4717.144 3182.221 2491.548 6128.040 1170.229 4732.650 1587.393 3205.101 1175.060 3346.918 1594.399 3391.996 260.250 3098.992 3777.883 5756.224 0.000 588.727 1766.866 3026.156 4407.619 3293.083 4602.511 2559.371 3638.371 250.187 3516.252 4737.716 3203.017 8144.963 4477.005 5955.044 2664.048 7949.113 6216.206 3137.599 6320.160 2487.790 8351.009 4049.626 2666.866 6064.806 4779.985 6958.571 5299.336 6071.488 3690.263 9598.507 9010.300 7513.844 1201.119 7014.687 4770.980 5225.452 1025.381 9335.348 5021.175 7635.957 6726.646 4589.426 2528.472 5879.915 6689.907 9078.394 4154.088 7755.891 2925.940 6020.866 5559.506 4386.559 6059.148 7345.610 5081.219 5717.114 6486.555 4724.744 8900.977 6918.627 6893.753
1695.027 8673.122 7335.346 6320.036 6920.388 2165.006 1250.541 2251.363 7624.627 6114.172 2631.670 2385.159 1215.711 1368.424 6499.570 2135.895 2251.925 1318.315 5474.130 1234.573 5974.880 3922.146 4868.345 2763.189 2642.749 6054.513 751.197 4883.850 1513.867 3356.301 1198.239 3056.484 1208.099 3767.934 636.188 2808.557 3487.448 5488.669 375.938 0.000 1893.432 2735.722 4021.320 3022.233 4743.811 2268.937 3347.937 626.125 3667.453 4318.684 2932.167 7725.931 4206.155 6088.024 2815.249 7681.558 6367.407 3278.899 6471.361 2863.729 8083.454 3759.192 2818.067 5797.251 4921.285 6885.044 4903.437 5880.677 3831.563 9179.476 8614.401 7094.813 782.087 6823.876 4912.280 5151.926 952.071 9067.793 5172.375 7216.925 6459.092 4740.627 2904.410 5689.104 6422.353 8659.362 3963.277 7336.860 3301.878 6162.166 5700.806 4195.748 5791.593 6926.579 4662.188 5858.413 6413.028 4533.933 8633.422 6499.596 6474.722
2797.775 8799.021 7060.114 7814.461 5940.575 2283.205 1341.172 1385.438 5749.205 4238.750 4171.858 3700.609 2331.716 3520.559 7993.995 1269.970 3957.518 1234.245 4494.317 3386.709 6100.779 3302.134 6408.532 4217.621 4182.937 7824.832 2490.898 6424.038 3383.053 4896.489 1350.073 2436.472 3360.235 3997.365 1951.638 2183.323 2945.961 4508.856 2165.666 2254.622 0.000 2213.191 6109.719 5088.742 2868.390 2387.136 2826.843 2085.455 5207.641 5813.110 4998.677 7851.831 6272.664 4220.923 4355.437 6701.745 7907.595 1818.200 8011.549 2675.937 7103.641 3217.705 4358.254 4817.438 3045.863 8655.363 6397.863 4601.791 2295.578 9305.375 10108.826 7128.032 2658.296 5544.990 3588.050 6922.244 1342.831 8087.980 6712.563 7798.094 5479.278 6280.815 4203.807 4410.218 5442.539 8785.262 2684.390 7462.759 4617.329 4286.744 3825.384 2916.862 4811.780 7052.478 4788.087 3982.992 8183.347 3255.047 7653.609 6625.495 6600.621
1747.221 6698.972 5401.334 6440.052 4586.724 1119.251 2279.005 3545.574 7513.710 4311.982 5067.716 5171.693 1832.112 3422.040 6619.586 3430.106 3249.650 2711.844 3151.137 3256.871 4000.730 1205.063 7285.448 2426.955 5078.795 8356.452 2384.186 7300.954 3815.805 5773.405 2821.157 339.401 3261.715 5470.596 3422.722 858.865 770.366 3165.676 3164.742 2809.870 2843.060 0.000 5523.242 4915.535 4273.209 1113.439 629.382 3344.643 6103.499 4018.364 4825.469 5751.782 6099.456 4150.201 5162.770 5358.565 8739.919 4352.638 8888.464 4400.172 5734.865 1042.109 5165.587 3448.662 4989.492 9186.982 5023.454 3884.451 4830.015 7205.326 8116.996 5160.801 2460.582 4608.999 5752.856 7453.864 2281.743 6744.800 7486.245 5698.045 4110.502 7088.148 5677.038 3692.878 4099.359 6685.212 2615.628 5362.710 6088.413 4315.879 5477.440 1606.616 3468.600 4952.429 2688.038 4652.040 8714.966 2821.849 6284.833 4525.446 4500.572
4327.870 7163.442 7631.880 3175.601 9227.427 4815.874 4913.501 6121.590 11492.412 9577.155 4684.447 5760.331 4169.781 3219.040 3355.135 6006.123 2378.759 5188.542 6983.879 2824.902 6340.887 6486.225 4921.837 3446.173 4695.526 4311.847 3697.196 5022.053 3111.923 3824.682 5068.466 5620.563 3127.157 7210.273 4533.075 5500.798 6051.527 6998.417 4272.826 3896.887 5763.659 5299.801 0.000 1407.182 8400.995 4961.177 5912.015 4523.012 5187.621 2059.617 1451.451 8130.723 1433.175 9356.971 3181.300 8550.688 5783.358 7149.126 6054.579 6653.802 9477.517 6323.271 3018.207 7819.491 8789.070 5142.378 1759.002 9149.624 7701.790 6726.106 5469.966 7391.347 3728.087 9890.160 8782.507 3656.216 4822.298 9936.923 3736.743 4790.259 8302.080 4131.586 6346.749 8958.051 7112.570 8110.708 7232.224 6361.323 5951.502 9581.052 9568.590 6887.777 7447.054 7331.371 5028.688 9626.661 4917.319 7802.880 9794.177 6904.388 6879.514
3499.088 7896.492 7232.834 3908.650 8534.584 3987.093 3795.001 5003.090 10373.912 8517.931 3705.790 4708.997 3141.780 2100.540 4088.184 4887.622 1950.298 4070.042 6584.833 1706.402 5942.334 5657.443 4588.170 3047.128 3716.869 4062.594 2578.696 4635.442 1993.423 3107.893 3949.966 4791.781 2008.657 6091.773 3414.575 4672.016 5222.746 6599.371 3154.325 2778.387 4645.159 4471.019 1322.178 0.000 7342.606 4132.396 5083.234 3404.512 4470.832 2792.667 90.066 7731.678 1183.922 8297.747 2095.148 8151.643 5449.690 6030.626 5720.911 5535.302 9078.471 5494.489 1820.278 7396.522 7670.570 4893.124 2492.052 8090.400 6583.290 7459.155 6203.016 6992.302 2609.586 9033.599 7664.007 3370.694 3703.798 9537.877 3403.075 5523.308 7903.034 3797.918 5228.249 7898.827 6713.524 8665.108 6173.000 7094.372 5234.713 8521.828 8450.090 6058.996 7048.008 6932.325 4629.642 8567.437 4631.796 6743.656 9395.131 6505.342 6480.468
4180.151 10134.046 8309.606 9196.837 5186.003 3618.230 3900.097 4096.780 4458.815 2369.788 7122.178 6530.213 4144.776 5553.436 9376.371 3981.312 5770.578 4404.656 5840.880 5419.586 7435.804 3998.929 9359.429 5599.997 7133.257 10487.848 4523.775 9374.934 5947.202 7847.385 4519.465 3748.843 5393.112 6614.157 5121.030 3518.347 3331.778 5855.418 4863.050 4615.931 3628.731 3548.215 7973.715 7207.246 0.000 3722.160 4161.867 5042.951 8072.375 7195.486 7117.180 9186.855 8391.168 2351.960 7294.166 7951.237 10858.491 3050.789 10962.445 5283.512 8073.130 3644.202 7296.984 5786.928 2007.272 11318.379 7780.238 2789.164 3091.550 10640.400 11491.202 8377.524 4684.221 4080.939 3884.115 9585.260 3980.051 9337.471 9617.642 9133.118 6448.768 9219.544 6874.747 2597.591 6692.031 10120.286 2034.855 8797.783 7446.933 2417.781 2521.706 2954.533 5943.721 8387.503 6123.111 2293.661 10846.363 1708.533 8623.099 7960.519 7935.645
1032.847 7622.828 6271.636 6049.533 5152.097 470.926 1503.263 2847.842 7009.942 4945.602 4353.342 4395.951 1067.050 2707.666 6229.068 2732.374 2642.804 1936.102 3705.838 2542.497 4924.586 2130.459 6571.074 2452.694 4364.421 7642.078 1608.444 6586.580 3101.431 5059.031 2045.415 1264.797 2547.341 4694.854 2646.980 1011.648 1774.286 3720.377 2389.000 2034.128 2155.310 1041.516 4845.941 4201.161 3769.441 0.000 1655.168 2568.901 5389.125 4048.182 4111.095 6675.637 5385.083 4725.417 4448.396 5913.266 8025.545 3848.871 8174.091 3624.430 6315.162 2046.029 4451.213 4028.959 4485.725 8472.608 4632.935 4518.070 4326.248 8129.182 8343.899 6084.657 1695.520 5461.270 5249.088 6739.490 1506.001 7299.501 6771.871 6607.550 4690.800 6373.774 4901.296 4326.497 4654.061 7609.068 2600.670 6286.566 5312.671 4949.499 5072.834 2610.536 4023.301 5876.285 3611.894 4995.107 8000.593 3171.327 6865.131 5449.302 5424.428
1662.275 6614.027 5316.388 6355.107 4501.778 1034.306 2194.060 3538.638 7687.271 4485.543 4982.770 5086.747 1747.167 3337.094 6534.641 3423.171 3164.705 2626.898 3066.192 3171.925 3915.785 1378.624 7200.503 2342.010 4993.849 8271.506 2299.240 7216.008 3730.859 5688.459 2736.211 512.962 3176.770 5385.650 3337.777 773.920 943.927 3080.730 3079.797 2724.925 2975.812 216.495 5438.296 4830.589 4446.770 1028.493 0.000 3259.697 6018.553 3933.418 4740.523 5666.836 6014.511 4323.762 5077.824 5273.620 8654.974 4526.199 8803.519 4315.227 5649.919 1215.670 5080.642 3363.717 5163.053 9102.037 4938.508 4058.012 5003.576 7120.381 8032.050 5075.856 2375.636 4782.560 5926.417 7368.918 2196.797 6659.854 7401.300 5613.099 4025.557 7003.202 5592.092 3866.439 4014.414 6600.267 2789.189 5277.764 6003.467 4489.440 5651.001 1780.177 3383.654 4867.483 2603.092 4825.601 8630.021 2995.409 6199.888 4440.500 4415.626
2313.531 9420.223 8082.447 6978.561 7516.013 2783.510 1651.920 1963.856 7337.119 5826.664 2334.261 1863.013 1834.215 2017.350 7158.096 1848.388 2930.911 857.560 6069.755 1883.500 6721.981 4540.650 4570.936 3510.290 2345.340 5987.236 1498.298 4586.442 1850.021 3058.893 1028.852 3674.988 1857.026 3245.788 114.042 3427.061 4105.952 6084.293 328.070 916.796 1620.658 3354.226 4670.246 3555.710 4456.303 2887.441 3966.441 0.000 3370.044 5065.786 3465.644 8473.033 4739.632 5808.836 2517.840 8277.183 6069.999 2991.391 6173.952 2341.583 8679.078 4377.696 2520.658 6392.876 4633.777 6817.766 5561.963 6222.449 3544.055 9926.577 9272.927 7841.914 1529.188 7165.648 4624.772 5084.648 1353.450 9663.417 4874.967 7964.026 7054.716 4443.218 2382.264 6030.876 7017.977 9406.463 4305.048 8083.961 2779.732 5874.658 5413.298 4537.520 6387.217 7673.680 5409.289 5570.906 6345.751 4875.705 9229.047 7246.697 7221.823
5180.626 11077.789 9670.047 7772.319 10312.880 5666.308 4873.656 4955.183 10539.624 9029.169 1963.163 2235.382 4714.370 3573.130 7951.854 4839.715 4398.340 4238.970 8877.293 3677.864 8379.547 7348.960 1712.355 5341.422 1518.531 4917.723 4151.286 1491.952 2795.591 1105.369 4410.263 6483.298 3435.595 3826.505 3467.421 6310.371 6914.262 8891.832 3669.625 4085.017 5002.068 6162.536 4916.513 4212.330 7658.808 5770.751 6774.751 3639.437 0.000 6656.336 4122.264 10168.891 4514.536 9011.341 2781.796 10588.856 3207.875 5923.231 3031.648 3832.382 11461.021 7186.006 2784.614 9174.818 7836.282 5748.254 6355.721 9572.378 6475.895 11322.825 10066.685 9429.515 4182.176 10515.577 6360.971 3893.393 4575.186 11975.090 3402.820 9386.978 9836.659 2451.435 2484.302 9380.804 9150.737 11102.321 7654.977 9741.527 1603.937 9077.163 8615.802 7750.513 9194.756 9369.538 7066.855 8773.410 5276.238 8225.634 11832.344 8942.555 8917.681
3769.263 6851.357 6323.322 2863.515 7912.676 4005.950 4996.900 6341.479 11082.889 8596.050 6025.024 6912.347 4347.410 4337.969 3043.049 6226.011 2867.203 5429.738 5669.128 3928.966 5026.629 5489.131 6608.637 2466.145 6036.103 6032.587 4110.036 6708.852 4312.657 5511.481 5539.051 4623.469 4261.050 8188.491 5163.376 4558.449 5054.433 5683.666 4903.126 4527.188 5983.547 4295.289 2043.150 3068.310 7842.388 4255.354 4840.240 5153.313 6874.420 0.000 3112.579 6815.972 3153.915 8434.268 4868.099 7242.130 7470.157 7369.014 7741.378 7118.067 8168.959 5326.177 4679.335 6510.933 8558.671 6863.117 1446.917 8168.518 7921.678 6414.020 5157.881 6082.789 3966.290 8893.067 9002.395 5376.956 4999.637 8628.365 5423.542 4478.173 6993.522 5818.385 7431.598 7976.945 5804.012 7749.403 6673.616 6049.237 7636.640 8599.947 9145.780 5890.684 6132.303 6016.620 3713.937 8936.107 6638.058 7105.916 8485.619 5589.637 5564.763
3409.023 7986.558 7142.769 3998.716 8444.518 3897.027 3704.935 4913.024 10283.846 8427.866 3615.724 4618.932 3051.714 2010.474 4178.250 4797.557 1860.233 3979.976 6494.767 1616.336 5852.268 5567.377 4678.235 2957.062 3626.803 4152.660 2488.630 4725.507 1903.357 3197.958 3859.900 4701.715 1918.591 6001.707 3324.509 4581.950 5132.680 6509.306 3064.260 2688.322 4555.093 4380.954 1412.244 90.066 7252.541 4042.330 4993.168 3314.446 4560.898 2882.733 0.000 7641.612 1273.988 8207.681 2185.214 8061.577 5539.756 5940.560 5810.977 5445.236 8988.405 5404.424 1910.344 7306.456 7580.504 4983.190 2582.118 8000.334 6493.224 7549.221 6293.081 6902.236 2519.521 8943.533 7573.941 3460.759 3613.732 9447.811 3493.141 5613.374 7812.969 3887.984 5138.183 7808.761 6623.458 8575.043 6082.934 7184.438 5227.340 8431.763 8360.025 5968.930 6957.943 6842.259 4539.576 8477.371 4721.862 6653.590 9305.065 6415.276 6390.402
6898.054 3777.772 1514.100 7572.871 5371.523 6365.016 7429.838 8774.417 12337.905 8704.643 9282.824 10111.472 6982.945 7595.770 6717.705 8658.949 6125.004 7862.677 3885.342 7186.767 4119.181 6028.725 10541.777 5760.410 9293.903 11350.934 7309.161 10557.282 7570.457 9029.733 7971.990 6713.999 7518.851 10621.429 8362.501 6693.428 6719.154 3899.881 8102.251 7726.313 8416.485 6385.820 8172.267 7793.974 9271.314 6614.420 6344.507 8352.438 10318.607 6835.630 7703.909 0.000 8977.896 8542.861 8419.098 4348.106 11996.248 9374.104 12144.793 9551.005 5300.739 6693.326 8188.977 3642.713 9987.597 12181.465 6542.541 8599.716 9851.481 4574.819 6789.536 1273.567 7165.415 8050.332 10774.322 10448.347 7432.576 4828.321 10480.728 4459.857 4120.425 10344.476 10630.723 8408.143 2708.563 2987.312 7956.240 2389.925 10894.440 8708.540 10008.590 7555.405 3422.851 1559.002 3364.224 9183.190 11709.449 8127.110 5591.595 1578.071 1446.720
4672.647 8271.261 8406.393 4283.419 9708.143 5160.652 4968.560 6176.649 11547.471 9691.490 4295.911 5371.794 4315.339 3274.099 4462.953 6061.181 3123.857 5243.601 7758.392 2879.961 7115.893 6831.002 4533.301 4220.687 4306.990 2938.089 3752.255 4633.516 3166.982 3436.145 5123.525 5965.340 3182.216 7265.332 4588.134 5845.575 6396.305 7772.930 4327.884 3951.946 5818.718 5644.578 1284.078 1173.559 8516.165 5305.955 6256.793 4578.071 4799.084 3167.436 1263.625 8905.237 0.000 9471.306 2792.764 9325.202 5115.813 7204.185 5652.050 6708.861 10252.030 6668.048 2784.584 8570.081 8844.129 3768.620 2866.821 9263.959 7756.849 7833.924 6577.784 8165.861 3783.145 10207.158 8837.566 2427.978 4877.357 10711.436 2513.786 5898.077 9076.593 3743.050 6306.734 9072.386 7887.083 9218.527 7346.559 7469.141 5562.965 9695.387 9623.649 7232.555 8221.567 8105.884 5803.201 9740.996 3689.080 7917.215 10568.690 7678.901 7654.027
5468.155 11402.412 7370.879 10484.841 3416.542 4906.234 5118.536 4452.967 3937.434 320.286 7478.365 6886.400 5432.780 6841.441 10664.376 4337.500 7058.582 4841.292 4977.721 6707.591 8704.170 3841.252 9928.996 6888.002 7489.444 11358.810 5811.780 9920.514 7151.533 8416.953 5015.795 4842.100 6681.116 6970.344 5578.623 4806.352 3295.722 4992.260 5810.842 5903.935 3984.918 4714.661 9261.720 8495.250 1810.689 5010.165 5283.687 5730.631 8428.563 8483.490 8405.185 8656.187 9679.172 0.000 7889.414 7012.510 11428.059 3406.977 11377.965 5639.700 6496.281 3566.885 7892.232 4848.201 2774.410 12189.340 9068.243 1053.777 3447.737 11908.766 12779.207 7438.797 5972.226 1728.979 4240.303 10456.222 5120.195 8398.744 10246.541 10401.484 4884.299 9814.792 7230.935 862.204 5753.304 10724.415 2320.313 10066.150 7803.120 324.183 1608.119 3058.377 5004.994 9296.105 7391.478 782.719 11717.325 1503.450 7046.249 8926.969 8902.095
3905.060 9439.341 8031.599 5669.364 8940.555 4393.065 3878.590 4285.703 9730.547 8220.092 2039.127 3209.440 3455.624 2078.314 5848.898 4170.235 2759.892 3250.988 7383.598 2112.374 6741.099 6063.415 2850.401 3702.974 2050.206 3591.718 2892.540 2865.907 1565.151 1338.358 3422.280 5197.753 1940.779 4960.996 2479.439 5051.625 5628.717 7398.136 2681.642 2904.465 4014.086 4876.991 3082.891 1760.714 6849.731 4512.005 5489.206 2651.455 2701.297 4553.380 1670.648 8530.442 2845.346 8202.264 0.000 8950.407 4067.222 5344.136 4338.443 4404.524 9877.236 5900.461 349.172 7802.494 7027.205 4422.249 4252.765 8318.613 5896.800 9219.869 7963.729 7791.066 2923.430 9261.813 6977.517 2689.131 3580.120 10336.642 2479.449 7284.022 8464.334 2415.450 3925.721 8127.040 7512.289 9463.873 6401.213 8103.078 3465.178 8268.086 7806.726 6464.968 7822.431 7731.090 5428.407 7964.334 3950.233 6971.870 10193.896 7304.107 7279.233
7099.959 6978.859 2613.278 9707.108 4659.888 6471.990 7437.545 8229.707 11626.270 7993.008 9820.776 10493.511 7184.851 8133.721 9692.712 8114.239 6662.955 8028.166 3173.707 7724.718 6473.424 5317.090 11079.728 6482.546 9831.855 11888.886 7736.924 11095.234 8108.409 9567.684 8142.975 6080.974 8056.802 10791.286 8744.540 6211.604 6007.519 3188.246 8486.560 8132.158 7716.186 5784.506 8936.547 8331.926 8559.678 6466.177 5632.872 8666.461 10856.559 7557.767 8241.860 4024.009 9515.848 7831.226 8957.050 0.000 12534.199 8662.469 12682.744 9520.205 2156.017 5981.691 8726.928 2931.078 9275.962 12719.417 8377.333 7888.081 9139.846 7775.906 9990.624 2877.218 7813.320 7338.697 10062.687 10986.298 7603.561 1781.194 11018.679 7591.031 3307.388 10882.428 10997.728 7696.508 1996.928 6188.400 7244.605 5591.012 11410.231 7996.904 9296.955 6843.770 2711.216 4760.090 5229.921 8471.555 12247.401 7415.475 2106.380 4779.159 4647.808
7550.971 12915.105 11816.290 8927.263 12683.225 8036.652 7244.001 7414.276 12998.717 11488.262 4415.628 4694.475 7084.715 5719.373 9106.797 7298.808 6544.583 6616.398 11168.289 5824.107 10525.790 9719.305 1664.421 7487.665 3918.112 4247.233 6521.631 1571.635 4941.834 3061.390 6787.691 8853.643 5581.838 6166.232 5844.849 8680.716 9284.607 11182.828 6047.053 6455.362 7379.497 8532.881 6071.456 5668.316 10117.901 8141.095 9145.096 6016.865 3117.805 7811.279 5578.250 12315.134 5387.468 11470.434 4331.848 12735.099 0.000 8382.324 720.899 6291.475 13661.927 9556.351 4413.489 11545.163 10295.375 5077.764 7510.664 11942.722 8934.988 12477.768 11221.628 11575.758 6552.521 12885.922 8700.697 3352.260 6945.531 14121.333 2982.088 10541.921 12207.003 2429.971 4824.028 11751.149 11296.980 13248.565 10025.322 11887.770 3943.664 11536.256 11074.896 10120.858 11565.101 11515.781 9213.098 11232.503 4605.748 10595.979 13978.587 11088.798 11063.924
4381.041 10454.649 8424.397 9397.727 6390.211 3938.833 2892.128 1775.348 5095.443 3584.989 4889.177 3820.572 3914.982 5071.515 9577.262 1659.880 5540.784 2534.729 5858.600 4937.665 7756.407 4957.762 7339.809 5800.888 4900.256 9014.143 4041.854 7306.406 4906.240 5827.765 2709.233 4092.100 4911.191 3891.316 3233.956 3838.951 4601.588 5873.138 3466.175 3797.036 1758.510 3868.819 7660.674 6611.930 2214.628 4042.764 4482.471 3385.964 5814.455 7396.376 6521.864 9507.458 7795.852 3567.161 5544.747 8066.028 8838.871 0.000 8763.857 2560.671 8467.923 4873.332 5547.565 6181.721 2392.102 9844.674 7981.129 4620.938 552.664 10961.003 11692.093 8492.315 4209.251 5296.140 1993.144 8111.555 2893.787 9452.262 7835.894 9453.722 6843.561 7304.998 4151.906 4429.365 6806.822 10440.889 3950.550 9118.387 5189.012 3632.983 3171.622 4183.021 6176.062 8708.106 6443.715 3329.230 9372.658 3900.430 9017.892 8281.123 8256.249
7588.342 13155.822 11853.662 9167.980 12720.596 8074.024 7281.372 7430.971 13015.411 11504.957 4432.322 4711.170 7122.086 5756.745 9347.515 7315.503 6581.955 6653.770 11205.660 5861.478 10563.162 9756.676 1810.914 7525.037 3934.806 4814.237 6559.002 1588.329 4979.205 3098.761 6825.062 8891.014 5619.210 6182.927 5882.221 8718.087 9321.979 11220.199 6084.424 6492.734 7416.868 8570.252 6312.174 5909.034 10134.596 8178.467 9182.467 6054.237 3134.500 8051.997 5818.968 12352.505 5849.386 11487.129 4572.566 12772.470 710.140 8399.019 0.000 6308.170 13699.299 9593.722 4654.207 11582.534 10312.070 5644.767 7751.382 11980.094 8951.682 12718.486 11462.346 11613.129 6589.893 12923.293 8717.392 3777.016 6982.902 14158.705 3444.006 10782.639 12244.375 2670.689 4840.723 11788.521 11334.352 13285.936 10062.694 11925.141 3960.358 11552.951 11091.590 10158.229 11602.472 11553.153 9250.469 11249.198 5172.751 10633.350 14015.959 11126.170 11101.295
3832.635 10713.745 9136.420 8849.321 8016.881 3758.976 2515.635 1628.291 7259.972 5749.517 3254.264 1946.267 3353.319 4117.610 9028.855 1512.823 4979.121 1725.298 6570.623 3983.760 8015.503 5378.440 5652.504 5269.286 3265.343 7707.060 3361.246 5432.101 3950.280 4249.377 1899.801 4512.778 3957.285 1809.046 2277.996 4259.629 5022.267 6585.161 2510.215 3098.941 2076.306 4289.497 6770.506 5655.970 4379.156 3862.907 4903.149 2430.004 3940.150 6847.970 5565.904 9766.555 6839.892 5731.689 4588.787 8778.051 7106.433 2467.006 6841.610 0.000 9179.946 5294.010 4591.605 6893.744 4556.630 8537.590 7432.723 6678.096 3019.670 11220.099 11143.686 9175.574 3532.753 7460.669 3219.079 6804.472 2302.051 10164.285 6382.382 9579.251 7555.584 5835.745 2136.811 6486.523 7518.845 10699.985 4760.696 9377.483 3178.963 5797.511 5336.151 4993.167 6888.085 8967.202 6702.811 5493.759 8065.574 5331.353 9729.915 8540.219 8515.345
6896.710 8404.224 4260.228 10262.891 3340.297 6268.741 7234.296 8026.458 10383.231 6749.969 10217.205 10290.262 6981.601 8571.529 10051.689 7910.990 7218.738 7824.917 2970.458 8280.500 6832.401 5113.840 11635.510 7038.329 10228.284 12444.668 7533.675 11651.016 8664.191 10123.467 7939.725 5877.724 8411.204 10588.037 8541.291 6008.354 5804.270 2984.996 8283.311 7928.909 7512.937 5581.257 9492.329 8887.708 8328.907 6262.928 5429.623 8463.211 11252.988 8113.549 8797.643 5545.535 10071.630 6588.188 9512.832 2172.045 13089.982 8459.220 13238.527 9316.956 0.000 5778.441 9282.711 2300.661 8042.338 13275.199 8933.115 7257.664 8936.597 9201.270 11316.891 4328.146 7610.071 6095.659 9859.437 11542.081 7400.311 2748.718 11574.462 8413.226 1931.748 11438.210 10794.479 7066.091 2642.653 7613.764 6614.188 7016.376 11206.981 6753.866 8053.917 6395.193 2634.873 6185.454 5588.898 7228.516 12803.183 6785.058 938.466 6034.138 5920.532
3287.230 8516.434 6200.034 8257.514 4327.232 2725.309 3678.885 4665.096 7080.750 3447.488 6607.725 6650.334 3321.433 4962.049 8437.048 4549.628 4897.187 4190.485 3806.875 4796.880 5818.192 897.420 8825.457 4244.417 6618.804 9896.461 3862.827 8840.963 5355.814 7313.414 4299.798 1956.122 4801.724 6949.237 4901.363 2625.427 377.778 3821.414 4643.383 4288.511 3962.581 1828.684 7100.324 6455.544 4176.307 2829.240 2397.709 4823.284 7643.508 5835.825 6365.478 7485.341 7639.466 3285.707 6702.779 5841.664 10279.928 4972.900 10428.474 5878.813 5963.558 0.000 6705.597 3677.355 4892.591 10726.991 6840.915 3019.957 5027.441 9022.788 9934.457 6267.952 3949.903 3846.804 5820.007 8993.873 3760.384 7227.899 9026.254 7515.506 4339.195 8628.157 7155.679 2828.383 4582.459 8502.674 1926.057 7180.172 7567.054 3451.385 4751.435 1098.785 3834.148 6769.891 4505.500 3926.035 10254.976 2132.277 6513.526 6342.908 6318.034
3630.190 9164.471 7756.729 5475.536 8665.685 4118.195 3663.513 4288.521 9733.365 8222.910 2041.945 3212.258 3180.754 1803.444 5655.070 4173.053 2485.022 3253.805 7108.728 1837.504 6466.229 5788.545 2853.219 3428.104 2053.024 3634.329 2617.670 2868.724 1290.281 1341.175 3425.098 4922.883 1665.910 4963.813 2482.256 4776.755 5353.847 7123.266 2684.460 2629.595 4016.904 4602.121 2889.063 1566.885 6852.549 4237.135 5214.336 2654.272 2704.115 4359.552 1476.820 8255.572 2750.807 8205.082 349.172 8675.537 4148.863 5346.954 4420.085 4407.342 9602.366 5625.591 0.000 7527.624 7030.023 4464.860 4058.937 8043.743 5899.617 9026.041 7769.901 7516.196 2648.561 8986.943 6980.335 2731.741 3524.367 10061.772 2561.091 7090.194 8189.464 2497.092 3928.539 7852.170 7237.419 9189.003 6126.343 7828.209 3467.995 8270.904 7809.543 6190.098 7547.561 7456.220 5153.537 7967.151 3992.844 6697.000 9919.026 7029.237 7004.363
4596.049 6844.093 2700.097 8387.949 1728.810 3968.079 4933.635 5725.796 8695.192 5061.929 7916.543 7989.600 4680.940 6270.867 7751.028 5610.328 5343.796 5524.255 669.797 6105.699 4531.740 2813.179 9760.569 5163.387 7927.622 10569.726 5233.014 9776.074 6664.633 8248.525 5639.064 3577.063 6110.543 8287.375 6240.630 3707.693 3503.609 684.335 5982.650 5628.248 5212.275 3280.595 7617.387 7012.766 6055.768 3962.266 3128.962 6162.550 8952.326 6238.607 6922.701 3985.405 8196.688 4900.148 7637.890 2341.728 11215.040 6158.558 11363.585 7016.295 2286.203 3477.780 7407.769 0.000 6533.275 11400.257 7058.173 4957.003 6635.936 7641.140 9016.230 2768.015 5309.409 4407.619 7558.776 9667.139 5099.650 3727.962 9699.520 6433.561 661.840 9563.268 8493.817 4765.430 1082.522 6053.633 4313.527 5456.246 8906.320 5065.826 6365.877 4094.532 334.212 4625.323 3288.237 5540.476 10928.241 4484.397 2836.171 4474.007 4360.402
7920.886 13922.132 11716.728 12937.572 9051.037 7406.316 6464.870 5348.089 7648.048 6245.815 8050.513 6742.516 7454.827 8644.257 13117.106 5232.621 9080.629 6107.471 9150.931 8510.407 11223.890 8187.605 9905.295 9340.732 8061.592 12520.918 7614.595 9684.892 8478.982 8536.928 6281.974 7559.583 8483.932 5718.700 6806.698 7306.434 7520.454 9165.469 7038.917 7369.777 5331.252 7336.302 11233.416 10184.671 4875.454 7510.247 7949.954 6958.706 8192.941 10936.221 10094.606 12974.942 11368.593 6227.987 9117.489 11358.359 11223.495 3817.549 10958.673 5103.764 11760.254 7832.879 9120.307 9474.052 0.000 13351.449 11520.973 7281.764 3723.496 14428.486 15231.937 11784.646 7781.993 7956.966 2749.870 11618.330 6466.528 12744.593 11171.471 12921.205 10135.892 10405.366 6253.873 7090.191 10099.153 13908.373 6632.966 12585.870 7296.025 6293.809 5832.448 6865.437 9468.393 12175.589 9911.198 5990.056 12879.433 6561.256 12310.223 11748.606 11723.732
7624.453 11911.949 11750.992 7924.107 12659.948 8112.458 7657.776 8514.980 13959.824 12449.369 5807.605 6713.815 7175.017 5797.707 8103.641 8399.512 6479.285 7480.264 11102.991 5831.767 10460.492 9782.808 5021.937 7422.367 5818.684 969.098 6611.933 5318.450 5284.544 4817.406 7651.557 8917.146 5660.173 8781.441 6708.715 8771.018 9348.110 11117.529 6910.919 6623.858 8243.363 8596.384 4924.766 4814.247 11079.008 8231.398 9208.599 6880.731 5643.805 6808.123 4904.312 12249.835 3804.101 12245.354 4351.599 12669.800 4676.873 9573.413 5213.111 8310.815 13596.629 9619.854 4420.612 11521.887 11256.482 0.000 6507.508 12038.006 10126.076 11474.612 10218.472 11510.459 6642.824 12981.206 11206.794 1895.251 7518.630 14056.035 2443.499 9538.765 12183.727 4228.260 7554.795 11846.433 11231.682 12859.214 10120.606 11109.829 6674.431 12469.435 12036.002 10184.361 11541.824 11450.483 9147.800 12193.610 1069.445 10691.263 13913.289 11023.500 10998.626
4172.997 5404.440 6984.818 1416.598 8574.172 4661.001 5400.634 6745.212 11486.623 9290.839 6044.645 7015.246 4751.143 4379.570 1596.133 6629.745 2908.805 5833.472 6330.624 3970.567 4581.885 6183.920 6282.035 3379.836 6055.724 5705.986 4513.770 6382.251 4354.258 5184.880 5942.785 5318.258 4302.652 8398.022 5525.864 5297.687 5749.223 6345.163 5265.614 4889.676 6387.281 4990.079 1716.549 2741.709 8246.122 4806.304 5535.029 5515.801 6547.819 1600.250 2785.978 6590.946 2827.314 9129.058 4541.498 7903.627 7143.556 7772.748 7414.777 7521.801 8830.455 6020.966 4352.734 7172.429 8962.405 6536.516 0.000 8863.307 8325.412 4967.104 3710.964 6744.286 4370.024 9587.856 9406.129 5050.355 5403.371 9289.861 5096.941 3031.257 7655.018 5491.784 7534.497 8671.734 6465.508 6351.706 7077.350 4602.320 7311.700 9294.736 9549.514 6585.473 6793.800 5703.106 4316.940 9471.788 6311.457 7648.007 9147.115 5378.856 5408.466
5228.745 11136.662 7427.734 10245.431 4154.673 4666.824 4948.691 5506.744 4848.821 1215.558 8171.348 7918.595 5193.370 6602.031 10424.965 5391.277 6819.172 5453.250 5034.576 6468.181 8438.420 3575.501 10408.023 6648.591 8182.428 11536.443 5572.369 10423.529 6995.796 8895.980 5568.059 4576.350 6441.706 8024.121 6169.625 4566.942 3029.972 5049.114 5911.644 5664.525 5038.695 4448.911 9022.310 8255.840 2864.466 4770.755 5017.937 6091.545 9207.132 8244.080 8165.774 8713.042 9439.762 1053.777 8342.761 7069.365 11907.086 4460.754 12011.040 6693.477 7191.258 3301.135 8345.578 4905.055 3828.187 12366.973 8828.833 0.000 4501.514 11643.016 12539.797 7495.652 5732.816 2467.111 5294.080 10633.855 5028.645 8455.599 10666.236 10135.734 5566.896 10268.139 8284.712 191.573 5810.159 10781.270 2227.203 9800.399 8835.315 1219.455 2519.506 2792.627 5061.849 9352.960 7125.728 1694.106 11894.957 1430.225 7741.227 8963.136 8938.262
4829.372 10887.481 8857.229 9846.059 6675.026 4371.665 3340.459 2277.835 5380.258 3869.803 5391.664 4323.059 4363.314 5519.846 10025.593 2162.367 5989.116 2983.061 6291.432 5385.996 8189.239 5390.594 7842.296 6249.219 5402.743 9500.579 4490.185 7808.893 5373.456 6330.252 3157.564 4524.932 5359.522 4393.803 3720.392 4271.783 5034.420 6305.970 3952.611 4245.367 2206.841 4301.651 8109.005 7079.146 2499.442 4475.596 4915.303 3872.400 6316.942 7844.708 6989.080 9940.290 8263.067 3851.975 6031.183 8498.860 9341.358 502.487 9266.344 3063.158 8900.755 5306.164 6034.001 6614.553 2676.916 10331.109 8429.460 4905.752 0.000 11393.835 12140.424 8925.147 4657.582 5580.955 1806.040 8597.991 3342.118 9885.094 8338.381 9886.554 7276.393 7807.485 4654.393 4714.179 7239.654 10873.721 4256.954 9551.219 5691.499 3917.797 3456.437 4489.426 6608.894 9140.938 6876.547 3614.045 9859.093 4185.244 9450.724 8713.955 8689.081
7961.517 795.290 5092.798 4848.927 8744.563 7428.478 8493.301 9837.879 14521.333 11750.043 10305.740 11174.934 8046.408 8618.686 4966.621 9722.412 7147.920 8926.139 6878.819 8209.682 4470.460 8643.124 11456.867 6783.326 10316.819 10880.817 8372.624 11557.083 8593.373 10052.649 9035.452 7777.462 8541.767 11684.891 9425.964 7756.891 8208.426 6893.357 9165.714 8789.776 9479.948 7449.282 6891.381 7916.540 11280.832 7677.882 7994.233 9415.901 11341.523 6775.082 7960.809 4144.063 8002.145 11588.261 9442.014 7721.146 12318.388 10865.415 12589.609 10614.468 8673.779 8480.170 9211.893 7015.753 11997.115 11711.348 5261.654 11322.511 11418.079 0.000 2926.907 4852.265 8228.878 11372.616 12498.796 10225.186 8496.038 8323.130 10271.772 2743.550 7493.464 10666.616 11694.186 11130.938 6081.602 1742.555 10053.688 1961.916 11917.356 11753.940 12584.224 9044.677 6795.890 3309.687 4427.687 12090.100 11486.289 10259.909 8964.634 3426.696 3456.306
7832.381 3309.083 7606.592 3169.644 10752.673 8320.386 9060.018 10404.597 15146.007 12872.747 9704.030 10674.631 8410.528 8038.955 3287.338 10289.129 6568.189 9492.857 8509.124 7629.952 5762.012 9765.828 9941.420 7039.220 9715.109 9365.370 8173.155 10041.635 8013.643 8844.264 9602.170 8900.166 7962.036 12057.407 9185.248 8879.595 9331.130 8523.663 8924.998 8549.060 10046.666 8571.986 5375.934 6401.093 11905.506 8465.688 9116.937 9175.185 10207.204 5259.635 6445.362 6657.857 6486.698 12710.965 8200.883 10234.940 10802.940 11432.133 11074.162 11181.185 11187.572 9602.874 8012.118 9468.166 12621.790 10195.901 3746.207 12445.215 11984.796 2513.794 0.000 7366.059 8029.408 13002.922 13065.514 8709.739 9062.756 10836.924 8756.325 4015.871 10007.258 9151.169 11193.882 12253.642 8595.396 4256.349 10736.735 4475.710 10971.084 12876.643 13208.899 10167.380 8972.300 5823.481 6057.993 13131.172 9970.842 11307.391 11478.428 5773.064 5802.673
6539.532 4392.401 240.533 8187.500 4346.179 6006.494 7071.316 7915.998 11312.561 7679.298 8546.517 9495.138 6624.423 6859.462 7332.334 7800.530 5388.696 7504.155 2859.998 6450.459 4011.569 5003.381 9805.469 5208.287 8557.596 10614.627 6950.639 9820.974 6834.150 8293.425 7613.468 5767.265 6782.543 10262.907 8003.979 5897.895 5693.810 2874.537 7743.730 7367.791 7402.477 5470.797 7662.288 7057.667 8245.969 6152.468 5319.163 7993.916 9582.300 6283.508 6967.601 1358.567 8241.589 7517.517 7682.791 3186.238 11259.940 8348.760 11408.485 9192.484 4275.395 5667.981 7452.669 2617.369 8892.934 11445.157 7103.074 7574.372 8826.137 5189.448 7404.165 0.000 6806.893 7024.988 9748.978 9712.039 7074.054 3788.222 9744.420 5074.486 3023.304 9608.169 10014.389 7382.799 1683.218 3601.941 6930.896 3004.554 10158.133 7683.195 8983.246 6530.061 2397.506 2173.631 3256.612 8157.845 10973.142 7101.766 4429.727 2192.701 2061.350
1161.147 8032.620 6734.982 5745.032 6402.442 1633.769 1696.896 2904.986 8219.931 6329.261 3054.285 3240.153 681.831 1408.610 5924.567 2789.518 1713.035 1971.938 4966.855 1274.760 5334.378 3388.266 5272.018 2188.186 3065.365 6343.021 437.843 5287.523 1802.375 3759.974 1851.861 2522.604 1248.285 4622.929 1491.183 2277.832 2953.569 4981.394 1230.933 854.995 2547.054 2201.842 3769.429 2973.542 5153.101 1738.212 2814.057 1481.120 4090.069 3743.681 2883.476 7085.430 4157.464 6109.077 3149.340 7174.283 6726.489 3932.522 6875.034 3610.540 7550.583 3225.312 3152.157 5264.380 5516.590 7173.552 4328.434 5901.730 4485.185 8538.974 8039.398 6494.450 0.000 6792.202 5565.903 5440.434 1605.693 8560.518 5472.815 6641.922 5926.221 5074.718 3759.404 5710.157 5915.078 8018.861 3984.329 6696.358 4156.873 6333.158 6296.110 3789.819 5284.318 6286.077 4021.686 6378.767 6701.536 4554.986 8100.551 5859.094 5834.220
6194.768 11022.346 6878.350 11211.455 2924.013 5632.847 5914.715 5445.719 4787.795 1154.533 8471.116 7879.152 6159.394 7568.054 11390.989 5330.251 7785.196 5834.043 4485.192 7434.204 8347.135 4214.293 10921.748 7614.615 8482.195 12351.561 6538.393 10913.266 7961.819 9409.704 6008.546 5467.090 7407.730 7963.095 6571.374 5532.965 3888.746 4499.731 6803.593 6630.549 4977.669 5339.651 9988.333 9221.864 2803.441 5736.778 5908.677 6723.382 9421.314 9210.103 9131.798 8163.658 10405.786 992.751 8882.165 6519.981 12420.810 4399.728 12370.716 6632.451 6003.752 3954.452 8884.983 4355.672 3767.161 13182.091 9794.856 1789.805 4440.489 11551.732 12831.625 6946.268 6698.839 0.000 5233.054 11448.973 5994.668 7906.216 11239.292 10248.956 4391.771 10807.543 8223.686 1598.232 5260.775 10231.886 3228.982 9634.499 8795.871 1158.430 2458.480 3758.651 4512.465 8803.576 7103.633 1633.080 12710.076 2432.003 6553.720 8434.441 8409.567
6004.121 12170.853 9965.449 11020.807 7299.758 5655.037 4515.207 3398.427 6004.990 4494.536 6181.232 4873.235 5538.062 6694.594 11200.341 3282.959 7163.864 4157.809 7399.652 6560.744 9472.611 6436.326 8212.415 7423.967 6192.311 10587.375 5664.933 7992.012 6529.320 6844.047 4332.312 5808.304 6534.270 4041.536 4857.036 5555.155 5769.176 7414.190 5089.254 5420.115 3381.589 5585.023 9283.754 8235.009 3124.175 5758.968 6198.675 5009.043 6500.060 9019.456 8144.943 11223.663 9418.931 4476.708 7167.827 9607.080 9530.615 1993.144 9265.792 3131.325 10008.975 6081.600 7170.644 7722.773 3301.649 11417.905 9604.208 5530.485 1877.785 12677.207 13315.172 10033.367 5832.331 6205.687 0.000 9684.787 4516.866 10993.314 9262.697 11169.926 8384.613 8712.485 4560.993 5338.912 8347.874 12157.094 4881.687 10834.591 5603.145 4542.530 4081.169 5114.158 7717.114 10424.310 8159.919 4238.777 10945.890 4809.977 10558.944 9997.327 9972.453
6047.171 10667.005 10173.710 6679.163 11082.667 6535.176 6080.494 6937.698 12382.542 10872.087 4230.323 5136.533 5597.735 4220.426 6858.697 6822.230 4902.003 5902.982 9525.709 4254.485 8883.210 8205.526 3443.251 5845.085 4241.402 1399.360 5034.652 3423.199 3707.262 3240.124 6074.275 7339.864 4082.891 7204.160 5131.434 7193.737 7770.829 9540.248 5333.637 5046.576 6666.081 7019.102 3679.822 3569.303 9501.726 6654.116 7631.317 5303.450 4066.523 5563.179 3610.862 10672.554 2600.681 10668.072 2774.318 11092.519 2781.622 7996.131 3317.860 6733.534 12019.347 8042.572 2843.330 9944.605 9679.200 2229.890 5262.565 10460.725 8548.795 10229.668 8973.528 9933.178 5065.542 11403.924 9629.512 0.000 5941.348 12478.753 866.217 8293.821 10606.445 2650.978 5977.514 10269.151 9654.400 11605.985 8543.324 9864.885 5097.149 10892.153 10458.721 8607.079 9964.543 9873.201 7570.518 10616.329 1757.874 9113.981 12336.007 9446.218 9421.344
1723.214 8669.518 7371.880 6739.901 6300.654 1714.750 436.562 1345.458 6718.722 5208.267 3314.396 2889.950 1243.899 2343.834 6919.435 1229.990 2869.701 433.718 4854.396 2209.984 5971.276 3468.524 5551.071 3159.866 3325.475 6737.239 1314.172 5566.576 2196.593 4039.027 539.414 2602.862 2183.509 3188.853 1140.980 2349.713 3051.528 4868.935 1039.360 1068.162 987.527 2299.802 4932.993 3902.282 3837.906 1818.681 2912.016 1218.524 4350.179 4738.550 3812.216 7722.328 5086.204 5190.439 3497.975 7061.824 7050.133 2372.994 7154.087 2118.430 7463.720 3323.272 3500.792 5177.517 4015.380 7567.770 5323.302 5161.135 2925.657 9175.873 9034.266 7131.348 1485.679 6104.334 4006.375 5834.651 0.000 8448.059 5855.101 7527.651 5839.358 5423.353 3395.295 4969.562 5802.619 8655.759 3243.735 7333.256 3806.670 5256.261 4794.900 3476.206 5171.859 6922.975 4658.584 4952.508 7095.754 3814.391 8013.689 6495.992 6471.118
8404.911 7881.891 3516.309 10695.667 5750.048 7776.941 8742.497 9534.658 12792.983 9159.721 10809.334 11757.956 8489.802 9122.280 10689.291 9419.190 7651.514 9333.117 4478.659 8713.276 7420.389 6622.041 12068.287 7471.105 10820.413 12877.444 9041.876 12083.792 9096.967 10556.243 9447.926 7385.925 9045.361 12096.237 10049.492 7516.555 7312.471 4493.197 9791.512 9437.110 9021.137 7089.457 9925.105 9320.484 9864.630 7771.128 6937.824 9971.412 11845.117 8546.325 9230.419 4927.040 10504.406 8997.940 9945.608 1847.528 13522.758 9967.421 13671.303 10825.157 3101.730 7286.642 9715.487 4236.030 10452.089 13707.975 9365.891 9193.032 10444.798 8678.937 10893.655 3780.249 9118.271 8505.411 11367.638 11974.857 8908.512 0.000 12007.238 8494.062 4341.499 11870.986 12277.207 9001.459 3301.879 7091.431 8549.556 6494.043 12420.950 9163.618 10463.668 8148.721 4016.167 5663.121 6226.500 9638.268 13235.959 8720.426 2870.331 5682.190 5550.839
5819.917 10593.256 9946.456 6605.414 10855.412 6307.921 5853.239 6638.168 12083.012 10572.557 3647.961 4538.732 5370.481 3993.171 6784.948 6522.700 4674.749 5603.452 9298.455 4027.231 8655.956 7978.272 2846.854 5617.831 3659.040 1623.474 4807.397 3144.606 3480.008 2642.323 5774.745 7112.610 3855.636 6606.358 4831.904 6966.482 7543.574 9312.993 5034.107 4819.322 6366.551 6791.848 3608.019 3473.673 9202.196 6426.862 7404.063 5003.920 3468.722 5489.430 3383.608 10445.299 2528.878 10440.817 2502.050 10865.264 2725.524 7696.601 3261.762 6135.732 11792.093 7815.318 2583.692 9717.351 9379.670 2454.005 5188.815 10233.470 8249.265 10155.919 8899.779 9705.923 4838.287 11176.670 9140.824 599.144 5714.094 12251.499 0.000 8220.072 10379.191 2053.177 5379.713 10041.897 9427.146 11378.730 8316.070 9791.136 4499.348 10620.551 10159.191 8379.825 9737.288 9645.947 7343.263 10316.799 1981.989 8886.727 12108.753 9218.964 9194.090
7140.925 3116.786 5252.028 4292.037 8323.023 6629.135 7693.957 9038.536 13721.990 10950.699 9063.371 10011.992 7247.064 7376.316 3436.871 8923.068 5905.550 8126.796 6079.475 6967.313 3533.049 7843.780 9456.920 5540.956 9074.450 8880.870 7491.482 9557.135 7351.004 8359.764 8236.109 6978.118 7299.397 10885.548 8522.609 6957.547 7409.083 6094.014 8262.359 7886.421 8680.605 6649.939 4891.434 5916.593 10481.489 6878.539 7194.890 8512.546 9722.704 4775.135 5960.862 4303.292 6002.198 10788.918 7716.383 7588.958 10318.440 10066.072 10589.662 9815.125 8515.787 7680.826 7527.619 6857.761 11197.772 9711.401 3261.707 10523.168 10618.735 3055.870 4160.457 5011.495 7347.736 10573.273 11699.453 8225.239 7696.695 8482.359 8271.825 0.000 7340.350 8666.669 10531.243 10331.595 5748.538 4064.052 9254.345 2314.666 10486.584 10954.596 11784.881 8245.333 6542.651 3415.452 3628.344 11290.757 9486.342 9460.566 8832.447 3091.202 3120.812
5229.208 7045.055 2830.065 9021.109 2048.756 4601.239 5566.794 6358.956 9091.691 5458.429 8549.703 8622.760 5314.099 6904.027 8384.187 6243.488 5976.955 6157.415 1302.956 6738.858 5164.899 3446.339 10393.728 5796.547 8560.782 11202.886 5866.173 10409.234 7297.792 8881.685 6272.224 4210.223 6743.703 8920.535 6873.789 4340.853 4136.768 1317.495 6615.809 6261.407 5845.435 3913.755 8250.547 7645.926 6688.927 4595.426 3762.121 6795.710 9585.486 6871.767 7555.860 4171.607 8829.848 5296.647 8271.050 2727.723 11848.199 6791.718 11996.744 7649.454 2327.850 4110.939 8040.928 633.160 6582.592 12033.417 7691.333 5590.162 7269.095 7842.102 9649.389 2943.413 5942.569 4804.118 8191.936 10300.298 5732.810 4113.958 10332.679 7066.720 0.000 10196.428 9126.977 5398.589 1468.517 6254.595 4946.686 5657.208 9539.480 5462.326 6762.376 4727.691 967.371 4826.285 3921.396 5936.976 11561.401 5117.556 2877.818 4845.354 4714.003
6505.672 11608.114 10632.211 7620.272 11541.167 6993.676 6273.216 6680.329 12125.173 10614.718 3690.122 4353.904 6056.236 4678.926 7799.807 6564.861 5360.504 5645.613 9984.209 4712.985 9341.711 8664.027 1653.342 6303.586 3577.541 3165.481 5493.152 1951.643 3971.049 2478.049 5816.906 7798.365 4541.391 6327.836 4874.065 7652.237 8229.329 9998.748 5076.268 5484.577 6408.712 7477.603 4764.466 4361.325 9244.357 7112.616 8089.817 5046.080 3115.973 6504.289 4271.260 11131.054 4200.631 10596.890 3024.858 11551.019 2064.797 7738.762 2632.073 5950.904 12477.848 8501.073 3106.499 10403.106 9421.831 3996.012 6203.674 10919.225 8291.426 11170.778 9914.638 10391.678 5524.042 11862.424 8862.301 2128.260 5974.746 12937.254 1795.250 9234.931 11064.946 0.000 4985.633 10727.652 10112.901 12064.485 9001.825 10703.690 4105.268 10662.712 10201.352 9065.580 10423.043 10331.701 8029.018 10358.960 3523.996 9572.481 12794.508 9904.718 9879.844
4447.402 11191.661 9783.919 8671.387 9586.720 4917.382 3785.792 3198.130 8953.174 7442.720 2257.735 949.737 3968.086 3710.176 8850.921 3082.662 4623.737 2970.896 8140.462 3576.326 8493.419 6674.521 3847.512 5312.407 2268.814 6628.591 3538.069 3627.109 3542.846 2479.144 3142.188 5808.859 3549.852 1609.234 2229.722 5560.933 6239.824 8155.000 2461.941 3050.668 3646.145 5488.098 6290.288 5248.536 6072.359 5021.312 6100.312 2381.730 2135.157 6867.903 5158.470 10282.762 5888.311 7424.892 3998.027 10347.890 5165.712 4160.208 4900.889 1780.769 10749.785 6511.567 4000.844 8463.583 6249.832 7459.122 7254.789 8247.935 4712.872 11698.015 10965.753 9543.386 3568.960 9153.871 4143.699 5604.261 3487.322 11734.124 5113.688 9671.691 9125.423 4347.582 0.000 8056.362 9088.684 11216.193 6330.535 9855.398 1238.242 7490.713 7029.353 6563.006 8457.924 9483.410 7180.726 7186.961 6987.106 6901.192 11299.754 9056.427 9031.553
5037.172 10945.089 7236.161 10053.858 3963.100 4475.251 4757.118 5315.171 4657.248 1023.985 7979.775 7727.022 5001.797 6410.458 10233.392 5199.703 6627.599 5261.677 4843.003 6276.608 8246.847 3383.928 10216.450 6457.018 7990.854 11344.869 5380.796 10231.956 6804.223 8704.407 5376.486 4384.777 6250.133 7832.548 5978.051 4375.369 2838.399 4857.541 5720.071 5472.952 4847.122 4257.338 8830.736 8064.267 2672.893 4579.182 4826.364 5899.972 9015.558 8052.507 7974.201 8521.468 9248.189 862.204 8151.188 6877.792 11715.513 4269.181 11819.466 6501.904 6999.685 3109.562 8154.005 4713.482 3636.614 12175.400 8637.260 191.573 4309.941 11451.443 12348.224 7304.079 5541.243 2275.538 5102.506 10442.282 4837.072 8264.026 10474.663 9944.161 5375.323 10076.566 8093.139 0.000 5618.586 10589.697 2035.630 9608.826 8643.742 1027.882 2327.933 2601.054 4870.276 9161.387 6934.154 1502.533 11703.384 1238.652 7549.654 8771.563 8746.688
5278.104 6212.517 2068.521 7710.181 2838.032 4650.134 5615.690 6407.851 9804.414 6171.152 7823.848 8671.656 5362.995 6136.794 7695.784 6292.384 4666.028 6206.311 1351.852 5727.790 4476.496 3495.234 9082.800 4485.619 7834.927 9891.958 5915.069 9098.306 6111.481 7570.757 6321.119 4259.118 6059.875 8969.430 6922.685 4389.748 4185.664 1366.390 6664.705 6310.303 5894.331 3962.651 6939.619 6334.998 6737.823 4644.322 3811.017 6844.605 8859.631 5560.839 6244.933 3353.829 7518.920 6009.371 6960.122 1840.420 10537.272 6840.614 10685.817 7698.350 2767.249 4159.835 6730.001 1109.223 7454.106 10722.489 6380.405 6066.225 7317.991 7009.564 8960.986 2136.439 5991.465 5516.842 8240.831 8989.371 5781.705 3226.655 9021.752 6122.096 1591.812 8885.500 9175.872 5874.652 0.000 5422.057 5422.750 4824.670 9435.464 6175.049 7475.099 5021.914 889.360 3993.747 3232.993 6649.699 10250.473 5593.619 3083.909 3743.008 3629.403
7783.721 1248.997 3450.274 6182.782 7102.038 7250.683 8315.506 9660.084 14068.420 10435.158 10168.492 10997.139 7868.613 8481.437 6300.476 9544.616 7010.671 8748.344 5533.227 8072.434 4488.816 7747.096 11427.444 6646.078 10179.571 11936.050 8194.829 11442.950 8456.125 9915.400 8857.657 7599.667 8404.518 11507.096 9248.169 7579.096 8030.631 5547.766 8987.919 8611.981 9302.153 7271.487 7946.613 8679.642 10989.685 7500.087 7816.438 9238.106 11204.275 7721.298 8589.576 2501.539 9057.378 10273.377 9304.766 6078.622 12881.915 10687.620 13030.460 10436.673 7031.255 8302.375 9074.644 5373.229 11705.968 12766.580 6316.887 10330.231 11240.284 2046.044 4260.761 3209.741 8051.083 9780.848 12321.001 11280.419 8318.243 6680.606 11327.005 3798.782 5850.940 11230.144 11516.390 10138.658 4439.078 0.000 9686.756 1422.587 11780.108 10439.055 11739.105 8866.882 5153.366 1833.944 4249.892 10913.705 12541.521 9857.625 7322.110 2079.086 2108.696
3437.036 9390.931 6720.716 8453.722 4452.780 2875.115 3789.423 4446.628 5746.089 2618.939 6757.531 6759.327 3471.239 5111.855 8633.257 4331.160 5046.993 4293.982 4327.558 4946.686 6692.689 2410.039 8975.263 4856.883 6768.610 10046.267 4012.633 8990.769 5505.620 7463.220 4408.791 3005.729 4951.530 7057.102 5010.356 2775.233 1742.888 4342.096 4752.376 4438.317 3933.107 2805.101 7250.130 6605.350 2667.529 2979.046 3418.753 4932.277 7793.314 6452.371 6515.284 8006.023 7789.272 2315.274 6852.585 6362.346 10429.735 4500.004 10578.280 5737.126 6484.240 2055.312 6855.403 4198.037 3383.812 10876.797 7037.124 2191.408 4540.765 9897.285 10748.088 6788.634 4099.709 3438.138 5333.330 9143.679 3869.377 7748.581 9176.060 8390.004 4859.878 8777.963 7263.544 1999.835 5103.141 9377.172 0.000 8054.669 7676.047 2622.836 3416.774 1505.544 4354.830 7644.388 5379.997 2591.374 10404.782 761.183 7034.208 7217.405 7192.531
6492.105 1547.516 3412.293 6020.881 7064.058 5959.066 7023.889 8368.468 13051.921 10280.631 8876.875 9705.523 6576.996 7189.820 5165.714 8253.000 5719.055 7456.728 5409.407 6780.817 3197.199 7173.712 10135.827 5354.461 8887.954 10609.714 6903.212 10151.333 7164.508 8623.784 7566.040 6308.050 7112.901 10215.480 7956.552 6287.479 6739.014 5423.946 7696.302 7320.364 8010.536 5979.870 6620.277 7388.025 9811.420 6208.471 6524.821 7946.489 9912.658 6429.681 7297.959 2463.558 7731.042 10118.849 8013.149 6040.641 11590.299 9396.003 11738.844 9145.056 6993.274 7010.758 7783.027 5335.248 10527.703 11440.244 4990.551 9853.099 9948.667 2344.563 4559.280 3171.760 6759.466 9742.867 11029.384 9954.083 7026.626 6642.625 10000.669 2472.446 5812.959 9938.527 10224.774 9661.526 4401.097 2078.241 8584.276 0.000 10488.491 10284.528 11114.812 7575.265 5115.385 1575.718 2958.275 10620.688 11215.185 8790.497 7284.129 1561.031 1590.640
4909.134 11561.279 10153.537 8787.949 10093.972 5379.114 4247.524 4078.370 9662.810 8152.356 2028.141 1358.569 4429.818 4079.794 8967.484 3962.902 4993.355 3432.628 8647.714 3945.944 8863.037 7136.253 3044.467 5682.025 1990.910 6249.836 3907.687 2778.628 3762.750 2120.999 3603.920 6270.591 3919.470 2629.083 2691.455 6022.665 6701.556 8662.253 2923.673 3512.400 4153.397 5949.830 5932.143 5198.840 6781.995 5483.044 6562.044 2843.462 1677.856 7237.521 5108.774 10652.380 5530.166 8134.528 3748.956 10855.142 4188.767 5046.418 3923.945 2853.562 11257.038 6973.299 3751.774 8970.835 6959.469 7080.367 7371.351 8755.188 5599.081 12067.633 11082.315 9913.004 3938.578 9698.387 5163.548 5225.506 3949.054 12241.377 4734.933 10041.309 9632.675 3783.548 1308.530 8563.615 9595.936 11585.811 6837.787 10225.016 0.000 8200.350 7738.989 7070.259 8965.177 9853.028 7550.344 7896.597 6608.351 7408.444 11807.006 9426.045 9401.170
5925.163 11879.058 8049.649 10941.849 4095.312 5363.242 5458.624 4793.055 3704.003 70.741 7818.453 7226.488 5889.788 7298.449 11121.384 4677.588 7515.590 5181.380 5656.491 7164.599 9180.816 4520.022 10269.084 7345.010 7829.532 11698.898 6268.787 10260.602 7491.621 8757.041 5355.883 5403.470 7138.124 7310.432 5918.711 5263.360 3857.092 5671.030 6150.930 6360.943 4325.006 5276.031 9718.728 8952.258 2150.777 5467.173 5845.057 6070.719 8768.651 8940.498 8862.193 9334.957 10136.180 678.770 8229.502 7691.280 11768.147 3747.065 11718.053 5979.788 7175.051 4169.516 8232.320 5526.971 3114.498 12529.428 9525.251 1732.547 3787.825 12385.412 13236.215 8117.568 6429.234 2407.750 4580.391 10796.310 5460.283 9077.515 10586.629 10878.131 5563.070 10154.880 7571.023 1540.974 6432.074 11403.185 2781.499 10542.796 8143.208 0.000 1374.688 3619.747 5683.764 9974.876 7868.124 549.288 12057.413 1964.637 7725.020 9605.740 9580.866
5815.931 11769.826 8978.541 10832.617 5024.204 5254.010 4966.358 4300.789 2738.510 1329.740 7326.187 6734.222 5670.495 7079.156 11012.151 4185.321 7296.297 4689.113 6585.383 6945.306 9071.584 5208.479 9776.818 7235.777 7337.266 11206.631 6049.494 9768.336 6999.355 8264.775 4863.617 5384.624 6918.831 6818.166 5426.445 5154.128 4541.328 6599.922 5658.663 5871.266 3832.740 5183.996 9499.435 8705.044 1658.511 5357.941 5797.648 5578.453 8276.384 8831.266 8614.978 10263.849 9888.966 1607.662 7737.236 8620.172 11275.881 3254.798 11225.786 5487.521 8103.943 4853.752 7740.053 6455.863 2071.181 12037.162 9416.019 2661.439 3295.559 12276.180 13126.983 9046.459 6209.941 3336.642 4088.124 10304.044 4968.016 10006.407 10094.362 10768.899 6491.962 9662.614 7078.756 2469.866 7360.966 11756.066 3465.736 10433.564 7650.942 1377.734 0.000 4303.984 6612.656 10023.283 7758.892 842.306 11565.146 2648.873 8653.911 9596.300 9571.426
3374.003 8752.602 6645.052 8390.689 4772.251 2812.082 3595.060 4252.264 6590.661 3236.293 6694.498 6564.964 3408.206 5048.822 8570.224 4136.796 4983.960 4099.619 4251.894 4883.653 6054.360 1609.934 8912.230 4480.585 6705.577 9983.234 3949.600 8927.736 5442.587 7400.187 4214.428 2192.290 4888.497 6862.739 4815.993 2712.200 942.783 4266.432 4558.013 4310.894 3738.743 2064.851 7187.097 6542.317 3649.784 2916.013 2633.877 4737.914 7730.281 6071.993 6452.251 7805.411 7726.239 3074.512 6789.552 6286.683 10366.702 4446.377 10515.247 5542.763 6408.576 1255.207 6792.370 4122.373 4366.068 10813.764 6974.091 2808.761 4500.918 9258.956 10170.625 6712.970 4036.676 4020.614 5293.484 9080.646 3675.014 7672.917 9113.027 7751.674 4784.214 8714.930 7069.181 2617.188 5027.477 8738.842 1399.534 7416.339 7481.683 3240.190 4261.346 0.000 4279.167 7006.059 4741.667 3435.946 10341.749 1605.754 6958.545 6579.076 6554.201
4552.730 6556.317 2412.321 8344.631 2259.797 3924.761 4890.316 5682.478 9226.179 5592.917 7873.225 7946.282 4637.622 6227.549 7707.710 5567.010 5300.477 5480.937 626.478 6062.380 4488.421 2769.861 9717.250 5120.069 7884.304 10526.408 5189.695 9732.756 6621.314 8205.207 5595.746 3533.745 6067.225 8244.057 6197.311 3664.375 3460.290 641.017 5939.331 5584.929 5168.957 3237.277 7574.069 6969.448 6012.449 3918.948 3085.643 6119.232 8909.008 6195.289 6879.382 3697.629 8153.370 5431.135 7594.572 2053.952 11171.721 6115.240 11320.267 6972.976 2817.190 3434.462 7364.450 530.987 6728.733 11356.939 7014.855 5487.990 6592.617 7353.364 8972.911 2480.239 5266.091 4938.606 7515.458 9623.820 5056.332 3440.187 9656.201 6390.242 1192.828 9519.950 8450.499 5296.417 794.746 5765.857 4843.678 5168.470 8863.002 5596.814 6896.864 4296.541 0.000 4337.547 3244.919 6071.464 10884.923 5015.384 3297.440 4186.231 4072.626
6265.055 2816.129 2433.935 6433.277 6085.699 5732.017 6796.839 8141.418 12824.871 9418.819 8649.825 9478.473 6349.946 6962.771 5578.110 8025.950 5492.005 7229.678 4516.888 6553.767 3267.313 6730.757 9908.778 5127.411 8660.904 10717.935 6676.162 9924.283 6937.458 8396.734 7338.991 6081.000 6885.852 9988.430 7729.502 6060.429 6511.964 4531.427 7469.252 7093.314 7783.486 5752.821 7032.673 7160.975 9584.370 5981.421 6297.771 7719.439 9685.608 6202.631 7070.910 1485.200 8143.437 9257.037 7786.099 5062.283 11363.249 9168.954 11511.794 8918.006 6014.915 6783.708 7555.978 4356.890 10300.654 11548.466 5402.946 9313.892 9721.617 3613.176 5827.893 2193.402 6532.416 8764.509 10802.335 9815.348 6799.577 5664.267 9847.729 3320.263 4834.601 9711.477 9997.724 9122.319 3422.739 2025.669 8357.226 1428.282 10261.441 9422.716 10722.766 7348.215 4137.027 0.000 2731.225 9897.366 11076.450 8563.447 6305.771 463.044 492.654
3795.670 4818.300 3217.121 5960.133 4694.680 3262.632 4327.454 5672.033 10355.487 7584.196 6338.480 7009.088 3880.561 4651.425 5316.941 5556.565 3180.659 4760.293 2451.132 4242.422 2120.058 4477.277 7597.432 2816.066 6349.559 8406.590 4206.777 7612.937 4626.113 6085.388 4869.606 3611.615 4574.506 7519.045 5260.117 3591.044 4042.580 2465.670 4999.867 4623.929 5314.102 3283.436 5454.251 4849.630 7114.985 3512.036 3828.386 5250.054 7374.263 3891.286 4759.564 3433.698 6033.552 7422.415 5474.753 4429.679 9051.903 6699.569 9200.448 6448.621 5356.508 4314.323 5244.632 3410.173 7831.269 9237.120 4677.757 7156.665 7252.232 5324.654 6582.143 2976.589 4063.031 6944.929 8332.950 7504.002 4330.192 5815.914 7536.383 4021.878 4072.013 7400.132 7528.339 6965.091 2991.561 4367.129 5887.842 3482.037 7925.808 7588.093 8418.378 4878.830 2914.307 2634.346 0.000 7924.254 8765.105 6094.062 5673.168 2207.363 2182.489
6121.335 12075.230 8503.219 11138.021 4548.881 5559.414 5508.220 4842.651 3361.797 854.417 7868.048 7276.084 6085.960 7494.620 11317.555 4727.183 7711.762 5230.975 6110.061 7360.770 9376.988 4733.156 10318.680 7541.181 7879.127 11748.493 6464.959 10310.198 7541.216 8806.636 5405.478 5612.384 7334.296 7360.028 5968.306 5459.532 4066.006 6124.599 6200.525 6413.127 4374.602 5484.945 9914.899 9148.430 2200.373 5663.344 6053.971 6120.314 8818.246 9136.670 9058.364 9788.526 10332.352 1132.340 8279.097 8144.850 11817.742 3796.660 11767.648 6029.383 7628.620 4378.430 8281.915 5980.540 2873.592 12579.024 9721.423 2186.117 3837.421 12581.584 13432.386 8571.137 6625.406 2861.319 4629.986 10845.905 5509.878 9531.084 10636.224 11074.302 6016.639 10204.475 7620.618 1994.544 6885.644 11856.755 2990.413 10738.968 8192.804 902.411 1032.482 3828.661 6137.333 10328.687 8064.296 0.000 12107.008 2173.551 8178.589 9901.704 9876.830
7152.437 11772.271 11278.976 7784.429 12187.933 7640.442 7185.760 8042.964 13487.808 11977.353 5335.589 6241.799 6703.001 5325.692 7963.963 7927.496 6007.269 7008.248 10630.975 5359.751 9988.476 9310.792 4549.921 6950.351 5346.668 1334.936 6139.918 4846.434 4812.528 4345.390 7179.541 8445.130 5188.157 8309.426 6236.700 8299.003 8876.095 10645.514 6438.903 6151.842 7771.347 8124.368 4785.088 4674.569 10606.992 7759.382 8736.583 6408.716 5171.789 6668.446 4716.128 11777.820 3705.947 11773.338 3879.584 12197.785 4204.857 9101.397 4741.095 7838.800 13124.613 9147.838 3948.596 11049.871 10784.466 1173.576 6367.831 11565.991 9654.061 11334.934 10078.794 11038.444 6170.808 12509.190 10734.778 1423.235 7046.614 13584.019 1971.483 9399.087 11711.712 3756.244 7082.780 11374.418 10759.666 12711.251 9648.590 10970.151 6202.415 11997.419 11563.987 9712.345 11069.809 10978.467 8675.784 11721.595 0.000 10219.247 13441.273 10551.484 10526.610
4219.044 9999.145 6866.090 9235.730 3730.090 3657.123 3938.991 4596.195 4984.906 1857.757 7161.648 6908.894 4183.669 5592.330 9415.264 4480.727 5809.471 4443.549 4472.932 5458.480 7300.903 2559.606 9398.322 5638.890 7172.727 10526.742 4562.668 9413.828 5986.095 7886.279 4558.358 3438.834 5432.005 7206.669 5159.924 3557.241 1892.455 4487.470 4901.944 4654.824 4082.674 3311.395 8012.609 7246.139 2366.893 3761.054 3880.420 5081.844 8197.431 7234.379 7156.073 8151.397 8430.061 1554.091 7333.060 6507.721 10897.385 4198.171 11001.339 5886.693 6629.614 2204.879 7335.877 4343.411 3083.176 11357.272 7819.132 1430.225 4238.932 10505.499 11417.169 6934.008 4723.115 2715.449 5031.497 9624.154 4018.944 7893.955 9656.535 8998.218 5005.252 9258.438 7413.111 1238.652 5248.515 9985.386 816.862 8662.883 7825.614 1861.653 2655.591 1655.111 4500.205 8252.602 5988.211 1830.191 10885.256 0.000 7179.583 7825.619 7800.745
7567.912 8466.296 4229.630 10934.093 4011.499 6939.943 7905.498 8697.660 11054.434 7421.172 10888.407 10961.464 7652.804 9242.731 10722.892 8582.192 7889.940 8496.119 3641.660 8951.703 7503.604 5785.043 12306.713 7709.531 10899.486 13115.871 8204.877 12322.218 9335.394 10794.669 8610.928 6548.927 9082.407 11259.239 9212.493 6679.557 6475.472 3656.199 8954.513 8600.112 8184.139 6252.459 10163.532 9558.911 9000.110 6934.130 6100.825 9134.414 11924.190 8784.751 9468.845 5592.848 10742.833 7259.390 10184.034 2046.218 13761.184 9130.422 13909.729 9988.159 1059.699 6449.644 9953.913 2971.864 8713.540 13946.401 9604.318 7928.866 9607.799 9263.343 11478.060 4364.654 8281.273 6766.861 10530.640 12213.283 8071.514 2286.862 12245.664 9078.467 2602.950 12109.412 11465.681 7737.293 3313.855 7675.836 7285.391 7078.449 11878.184 7425.069 8725.119 7066.395 3306.076 6247.526 6260.101 7899.719 13474.386 7456.260 0.000 6266.595 6135.244
5903.752 2821.526 2452.856 6096.541 6104.621 5370.714 6435.536 7780.115 12463.569 9437.741 8288.523 9117.170 5988.643 6601.468 5241.375 7664.647 5130.702 6868.375 4535.810 6192.465 2840.330 6585.359 9547.475 4766.108 8299.602 10356.633 6314.860 9562.980 6576.156 8035.431 6977.688 5719.697 6524.549 9627.127 7368.199 5699.126 6150.662 4550.348 7107.950 6732.012 7422.184 5391.518 6695.938 6799.673 9223.068 5620.118 5936.469 7358.136 9324.306 5841.329 6709.607 1592.690 7806.702 9275.959 7424.796 5081.204 11001.946 8807.651 11150.491 8556.704 6033.837 6422.406 7194.675 4375.811 9939.351 11187.163 5066.211 9264.747 9360.315 3618.572 5743.323 2212.324 6171.113 8783.430 10441.032 9454.045 6438.274 5683.188 9486.426 2983.527 4853.522 9350.174 9636.421 9073.174 3441.661 2195.828 7995.924 1395.456 9900.139 9441.638 10526.460 6986.912 4155.949 463.044 2369.923 9916.288 10715.148 8202.145 6324.693 0.000 131.351
5772.401 2851.135 2321.505 6126.151 5973.270 5239.363 6304.185 7648.764 12332.218 9306.390 8157.172 8985.819 5857.293 6470.117 5270.984 7533.296 4999.351 6737.024 4404.459 6061.114 2815.456 6454.009 9416.124 4634.758 8168.251 10225.282 6183.509 9431.629 6444.805 7904.080 6846.337 5588.347 6393.198 9495.776 7236.849 5567.776 6019.311 4418.997 6976.599 6600.661 7290.833 5260.167 6725.547 6668.322 9091.717 5488.767 5805.118 7226.785 9192.955 5709.978 6578.256 1461.339 7836.311 9144.608 7293.446 4949.853 10870.595 8676.300 11019.140 8425.353 5902.486 6291.055 7063.324 4244.460 9808.000 11055.812 5095.820 9133.396 9228.964 3648.182 5772.932 2080.973 6039.762 8652.079 10309.681 9322.694 6306.923 5551.837 9355.075 3013.137 4722.172 9218.824 9505.070 8941.823 3310.310 2225.437 7864.573 1425.066 9768.788 9310.287 10395.109 6855.561 4024.598 492.654 2238.572 9784.937 10583.797 8070.794 6193.342 131.351 0.000
NODE_COORD_SECTION
1 135.757630 21.597263
2 -4926.962038 -2206.172274
3 -4341.576722 851.042135
4 -1274.096362 -4522.618885
5 -1652.603525 3458.065868
6 -2.042007 784.828763
7 1111.194905 715.861424
8 2246.581711 1397.975488
9 4442.959423 5497.887345
10 1090.067902 4745.094084
11 2879.408745 -1576.535363
12 3235.459425 -617.522632
13 441.077160 240.503549
14 985.864756 -756.807480
15 -2160.542732 -4041.246403
16 2296.066935 1293.648913
17 21.255235 -1174.118065
18 1778.819539 656.541879
19 -2200.927821 1867.977081
20 776.044334 -960.924268
21 -1757.404889 -588.639531
22 -964.959485 1736.275808
23 3498.122079 -3494.167434
24 -677.721238 -826.115134
25 2900.652508 -1574.013592
26 1570.305032 -5578.601788
27 847.567987 -91.682661
28 3779.428821 -3354.592605
29 1201.653814 -1313.312949
30 2663.007337 -2380.052338
31 1749.367633 489.546739
32 -152.996825 1341.742660
33 1024.580019 -974.870532
34 4209.163103 493.992305
35 1840.124737 -96.269832
36 45.531691 1211.977046
37 -295.084971 1823.058147
38 -2188.727359 1860.070231
39 1593.886524 -83.089107
40 1218.816766 -103.602618
41 1698.159092 1359.900538
42 -243.140942 1130.399887
43 -492.268409 -3111.087982
44 349.607149 -2469.462390
45 1696.149473 3565.267944
46 181.794898 989.585947
47 -354.743839 1083.023377
48 1800.826777 -14.644165
49 3569.904434 -2167.220135
50 -1447.329282 -1879.995676
51 355.322631 -2379.578173
52 -4610.620625 -240.213486
53 184.545044 -3615.129499
54 993.336582 4586.226045
55 1758.552073 -2308.628714
56 -3891.283497 2750.200601
57 4106.605114 -4577.434780
58 2303.300367 2512.966684
59 4488.613673 -4425.090336
60 3344.754282 834.321207
61 -2999.046368 3931.545357
62 -482.382898 2007.106919
63 1546.342133 -2151.079750
64 -2584.233487 2382.345940
65 2751.986340 3731.999598
66 2338.290511 -5426.613727
67 -1532.638004 -3136.704662
68 327.441564 4165.429332
69 2537.986391 2679.356226
70 -4591.737001 -2771.363234
71 -3817.034464 -4586.999721
72 -4224.705320 690.365741
73 725.443457 -165.466073
74 405.827780 4638.376975
75 3865.295676 3260.327465
76 1612.993056 -4553.905654
77 1348.482630 644.307620
78 -4714.316033 3311.785172
79 1935.168489 -4331.944650
80 -2992.871487 -2776.316290
81 -2798.370744 2720.836866
82 2826.372526 -3836.593592
83 3755.294334 -484.677317
84 360.974940 4291.327741
85 -3194.965410 1750.559144
86 -4926.140964 -1168.594098
87 426.352979 2921.275884
88 -4094.538039 -1346.548543
89 4004.654707 -1170.662299
90 1041.817486 4770.238467
91 2249.584997 4640.393439
92 167.578141 2324.303899
93 -2672.213709 2115.230222
94 -3843.535353 -498.094399
95 -1802.677689 -200.058341
96 1554.338986 4805.123492
97 2315.927004 -5008.314354
98 388.674993 3439.708098
99 -3519.925509 4221.312639
100 -3511.439279 -592.765189
101 -3548.170513 -493.868420
DEMAND_SECTION
1 0
2 10
3 3
4 9
5 65
6 2
7 8
8 4
9 3
10 2
11 8
12 4
13 7
14 59
15 2
16 10
17 7
18 7
19 6
20 4
21 3
22 3
23 7
24 7
25 59
26 73
27 86
28 6
29 9
30 7
31 65
32 10
33 10
34 9
35 7
36 9
37 4
38 3
39 4
40 10
41 6
42 3
43 8
44 7
45 82
46 3
47 4
48 7
49 9
50 4
51 8
52 68
53 60
54 9
55 9
56 7
57 4
58 6
59 1
60 52
61 4
62 7
63 4
64 5
65 10
66 4
67 7
68 10
69 4
70 3
71 4
72 9
73 6
74 1
75 4
76 9
77 7
78 3
79 10
80 5
81 8
82 3
83 3
84 10
85 1
86 6
87 89
88 9
89 4
90 5
91 3
92 2
93 2
94 7
95 75
96 3
97 10
98 8
99 7
100 4
101 7
DEPOT_SECTION
1
-1
EOF
