NAME : poryos-paris-n25-poi
COMMENT : Poryos2026 shortest metric; city paris; 3-decimal seconds/meters; ENU ref in poryos-paris-n25-poi.vrp.json
TYPE : CVRP
DIMENSION : 26
EDGE_WEIGHT_TYPE : EXPLICIT
EDGE_WEIGHT_FORMAT : FULL_MATRIX
CAPACITY : 142
EDGE_WEIGHT_SECTION
0.000 6127.821 971.581 2948.205 1515.133 4474.939 4187.719 5039.029 6320.521 5205.474 5200.661 2852.002 5597.846 8095.449 3098.312 1162.433 11216.749 4098.750 7284.274 5882.373 3445.293 1399.960 6322.605 2863.346 4469.912 4966.235
6568.854 0.000 7216.163 8363.191 5483.262 10442.014 10144.847 8285.817 2210.390 10620.460 9621.387 6527.904 9586.461 11724.804 8513.298 7407.015 16513.040 9513.736 4860.117 990.275 5735.655 5167.232 11737.591 8742.980 8254.005 4512.589
1077.501 6715.863 0.000 3119.407 2592.634 4026.194 3738.975 5948.401 7294.774 5096.632 5371.863 2703.594 6306.977 8806.908 3269.514 1333.636 11107.907 4269.952 7135.866 6667.580 3366.860 2477.461 6213.763 2203.738 4205.040 5054.844
4376.242 9784.901 4102.869 0.000 5194.887 4292.895 4265.789 5284.342 8975.333 3071.085 3635.910 6637.929 4661.636 6890.763 1560.438 3816.490 8711.367 2086.733 11070.202 9539.453 7301.195 4717.300 3817.222 4286.409 7710.456 8937.544
1808.595 5408.983 2548.416 3757.432 0.000 5836.255 5471.866 4907.338 5601.684 6014.702 5176.970 3235.712 5466.155 7963.758 3907.539 2801.256 12025.976 4907.977 6739.207 5163.535 3094.465 569.211 7131.832 4022.685 5167.270 4281.302
4658.278 10549.996 4197.602 3765.050 6173.412 0.000 933.784 7625.599 10740.243 3300.200 6299.877 5476.147 7294.319 9276.079 3069.328 3756.454 9914.681 5030.144 9568.226 10501.714 6158.389 5784.854 5020.536 2728.165 5386.005 8096.426
4998.676 10465.713 4476.833 4105.448 6513.809 1474.806 0.000 7965.997 11044.624 3851.784 6640.275 5037.138 7634.716 9827.663 3409.726 4096.851 10466.264 5402.804 9129.216 10417.431 5719.379 6125.252 5572.120 2613.553 5068.178 7657.416
5045.316 8030.859 5692.625 4805.819 5159.441 7779.216 7603.094 0.000 6127.481 7072.540 3518.328 7601.726 2642.598 4440.432 5599.337 5883.477 9727.946 3806.667 11258.068 7147.761 7715.260 4622.015 7201.107 7198.561 9219.637 8800.164
6214.781 2223.208 6862.089 8009.117 5129.188 10087.940 9911.818 6384.471 0.000 10266.387 8224.868 7046.237 8052.361 9669.799 8159.224 7052.941 14996.469 8183.812 6685.551 1340.110 6253.989 4705.047 11383.517 8753.854 8852.229 5598.518
4983.513 10601.480 4710.140 3139.805 6011.467 3689.983 3715.336 6760.994 10451.985 0.000 3596.718 6853.981 5101.586 6404.309 1821.394 4270.179 7042.910 3234.765 11286.254 10356.032 7517.247 5533.879 2148.766 3829.167 7477.560 9455.284
4974.451 9269.188 4701.078 3294.246 5716.690 6343.648 6167.526 3748.921 7926.850 5026.451 0.000 7404.672 1718.862 3623.187 3809.508 4574.116 6891.654 1892.792 11836.944 8745.873 8067.937 5239.102 3752.555 5762.993 8497.654 9459.347
2672.939 6841.227 3106.301 4959.588 3540.949 5439.275 4385.002 7591.408 7715.345 6673.042 7212.044 0.000 8150.225 10647.827 4851.506 3272.124 12684.317 6110.134 5147.447 6792.944 1691.069 3722.768 7790.173 3387.710 2079.665 3629.106
5154.368 8744.510 5169.938 3763.106 5590.100 6812.508 6636.386 2910.298 7402.172 5647.027 1808.562 7710.778 0.000 3945.255 4297.871 5042.975 8615.374 2381.154 11748.436 8221.195 8119.919 5052.674 5561.117 6231.853 8966.514 9290.531
7925.027 11320.717 7966.164 6559.332 8166.307 9608.735 9432.613 4578.011 9788.251 7590.559 3502.628 10481.437 3479.904 0.000 7074.595 7839.202 5723.353 5157.878 14324.643 10797.403 10722.127 7628.882 5521.109 9028.079 11762.741 11866.739
3162.120 8780.087 2888.746 1596.405 4190.073 3306.626 3130.504 5217.594 8667.874 2107.162 3559.752 5263.728 4585.478 6814.604 0.000 2448.786 8118.437 2010.575 9696.001 8534.638 5926.994 3712.485 3224.293 2725.971 6291.283 7864.923
1335.713 7463.533 875.037 1837.470 2850.846 3878.082 3668.565 5155.819 7656.234 4094.740 4089.926 3578.630 5078.880 7578.811 1987.578 0.000 10106.015 2988.016 8010.903 7218.085 4241.896 2702.672 5211.870 2344.191 4983.631 5929.880
10791.245 16022.586 10517.872 8581.987 11609.890 9743.799 10086.104 9756.800 14680.248 7695.735 6753.398 13052.932 8258.266 5854.913 8121.632 10231.493 0.000 7805.446 17485.205 15499.271 13716.198 11132.303 5270.986 10199.936 13848.328 15352.547
3836.983 9245.642 3563.609 1627.724 4655.628 4530.352 4503.247 4423.360 8320.806 3308.543 2244.723 6098.670 3270.449 5560.195 1959.387 3277.231 8347.554 0.000 10530.942 9000.193 6761.936 4178.040 3925.468 4420.853 7171.197 8398.285
6957.465 5053.919 7666.439 9519.725 6879.897 9835.365 8781.092 11399.843 6564.185 11227.695 11669.474 4799.603 11958.659 14456.262 9406.159 7832.261 17238.969 10670.271 0.000 5588.750 4671.544 7061.715 12344.825 7931.962 4928.937 2622.124
6196.772 972.827 6844.081 7991.108 5111.180 10069.932 9772.765 7872.618 1558.490 10248.378 9249.305 6538.472 9214.379 11228.289 8141.216 7034.933 16140.958 9141.654 5657.064 0.000 5746.224 4795.150 11365.509 8370.898 8344.464 5090.753
2965.982 5661.944 3705.802 5717.873 3094.464 6384.687 5473.236 7614.410 6680.605 7455.124 7884.042 1107.749 8173.227 10670.830 5633.588 4030.409 13466.399 6868.419 4488.250 5758.204 0.000 3276.283 8572.255 4366.906 2910.154 2122.811
1893.577 5482.624 2540.886 3676.290 1146.168 5755.113 5578.992 4396.782 5127.299 5933.560 4666.414 3780.402 4955.599 7453.201 3826.398 2731.738 11558.067 4554.313 7319.859 5237.176 3675.118 0.000 7050.690 4432.650 5711.959 4861.955
6909.614 12527.581 6636.241 4823.150 7937.568 5255.324 5711.967 7948.173 12126.102 3321.598 4371.640 8850.612 5876.509 5951.838 3747.495 6196.280 5471.424 4757.756 13282.884 12282.133 9513.878 7459.980 0.000 5825.798 9474.191 11451.915
3054.189 8491.767 2398.391 3924.748 4518.661 3039.801 1985.528 7527.956 9070.677 4620.687 6411.196 3674.071 7400.150 9748.103 3229.026 2564.213 10798.416 5222.104 7802.145 8443.484 4337.336 4454.148 5904.272 0.000 3821.847 6275.373
4495.536 7617.561 4934.978 6788.265 5280.565 6161.387 5107.114 9414.005 8903.792 8051.882 9040.721 2337.673 9972.821 12470.424 6230.346 5100.801 14063.157 7938.810 4514.550 7981.391 2765.976 5462.384 9169.013 4474.831 0.000 3879.401
4923.571 4127.679 5663.392 7814.773 4613.122 8559.532 7652.033 9066.431 5637.945 9629.970 9336.063 3286.546 9625.248 12122.851 7808.434 6029.001 15641.245 8965.318 2663.560 4662.510 2494.297 4732.457 10747.101 6541.752 4533.485 0.000
NODE_COORD_SECTION
1 -500.874011 70.822412
2 -2638.609714 -4769.377340
3 -534.659987 805.225976
4 1249.268362 1692.940602
5 -340.997373 -617.360523
6 -6.643186 4104.157400
7 -540.964367 3582.452921
8 2879.533506 -1806.708002
9 -544.368886 -4717.595754
10 2428.495472 3447.215231
11 3710.670732 548.177392
12 -2704.014527 829.864944
13 3635.106014 -105.680901
14 6391.390445 -126.648250
15 1176.237289 2273.883026
16 30.630105 973.245588
17 8290.789685 4157.525942
18 2416.239014 1234.627219
19 -6104.551525 -2083.809897
20 -1834.953986 -4595.427885
21 -2848.692915 -100.454890
22 -75.965872 -880.630446
23 3777.784804 3763.072543
24 -1020.431392 2590.159626
25 -4014.327699 1400.490430
26 -4010.111381 -1656.715570
DEMAND_SECTION
1 0
2 9
3 7
4 61
5 84
6 6
7 1
8 6
9 52
10 9
11 4
12 8
13 9
14 65
15 10
16 7
17 82
18 7
19 10
20 5
21 8
22 2
23 9
24 7
25 10
26 10
DEPOT_SECTION
1
-1
EOF
