NAME : poryos-hong_kong-n25-poi
COMMENT : Poryos2026 fastest metric; city hong_kong; 3-decimal seconds/meters; ENU ref in poryos-hong_kong-n25-poi.vrp.json
TYPE : CVRP
DIMENSION : 26
EDGE_WEIGHT_TYPE : EXPLICIT
EDGE_WEIGHT_FORMAT : FULL_MATRIX
CAPACITY : 141
EDGE_WEIGHT_SECTION
0.000 743.008 421.309 387.102 206.320 227.256 317.503 407.529 403.160 673.540 290.725 325.852 402.049 410.955 578.274 683.696 415.559 607.119 492.519 579.683 753.273 298.817 208.825 438.617 266.677 387.979
754.243 0.000 474.210 1023.676 810.155 807.505 755.683 1044.104 1039.734 1062.295 731.240 561.203 1038.624 1047.529 458.949 1072.451 1052.133 1243.693 1129.093 1077.148 56.790 736.997 845.400 833.560 903.251 1024.554
424.299 461.627 0.000 693.731 480.210 532.307 480.485 714.159 709.789 718.468 456.042 217.725 708.679 717.585 316.855 728.624 722.189 913.749 787.635 801.950 471.892 461.799 515.455 489.734 573.306 694.609
384.807 1013.341 691.642 0.000 360.057 272.647 420.269 68.893 60.709 845.146 441.181 596.185 46.333 100.478 831.272 855.302 124.067 270.829 223.542 302.454 1023.606 436.101 236.353 647.884 228.788 93.246
190.084 745.118 473.336 331.522 0.000 106.418 181.334 351.950 347.580 719.390 167.729 390.077 346.470 355.376 557.080 729.546 359.980 551.540 454.402 502.799 755.383 162.648 170.709 513.516 221.763 332.400
217.783 771.576 499.795 283.831 112.323 0.000 207.053 304.258 299.889 726.573 193.447 419.816 298.779 307.684 583.538 736.729 312.288 503.848 411.764 476.412 781.841 188.367 151.518 520.700 174.072 284.709
337.949 781.934 510.153 402.300 289.481 230.889 0.000 446.679 436.246 887.976 201.034 502.103 441.199 450.105 593.896 898.133 454.708 646.269 554.184 339.962 792.199 144.884 324.057 669.680 316.492 427.129
405.635 1034.169 712.470 79.218 380.885 293.475 441.097 0.000 53.071 865.974 462.009 617.013 86.746 34.793 852.100 876.130 91.831 274.710 165.068 329.881 1044.434 456.929 257.182 668.712 249.616 61.265
401.801 1030.335 708.636 69.759 377.051 289.641 437.263 35.024 0.000 862.140 458.175 613.179 101.053 56.985 848.266 872.296 89.735 298.673 182.180 327.233 1040.600 453.095 253.347 664.878 245.782 47.161
671.204 1050.991 711.884 860.079 756.648 744.402 852.111 880.507 876.137 0.000 838.505 696.634 875.027 874.031 922.527 27.311 871.793 1038.853 840.798 1052.660 1061.256 833.425 630.969 298.034 679.005 860.957
296.144 743.364 471.582 450.420 256.581 225.315 172.351 470.847 466.478 858.558 0.000 460.299 465.367 474.273 555.325 868.714 478.877 670.437 578.353 493.816 753.629 153.665 302.110 627.876 340.661 451.297
333.584 552.254 216.147 603.016 389.495 443.171 457.946 623.444 619.074 699.853 431.168 0.000 617.964 626.870 375.369 710.009 631.474 823.034 697.503 779.411 562.519 439.260 424.740 471.119 482.591 603.894
455.694 1084.227 762.529 130.545 430.944 343.534 491.156 118.589 133.782 916.032 512.068 667.072 0.000 150.174 902.159 926.189 194.953 324.768 280.449 379.940 1094.492 506.987 307.240 718.771 299.675 166.319
420.230 1048.764 727.065 108.491 395.480 308.070 455.692 34.793 65.549 880.569 476.604 631.608 118.331 0.000 866.695 890.725 72.091 306.294 130.275 345.662 1059.029 471.524 271.776 683.307 264.211 64.942
600.580 478.148 341.321 852.019 641.646 626.915 575.093 872.446 868.077 945.942 550.650 396.427 866.967 875.872 0.000 956.098 880.476 1072.036 975.430 896.558 488.413 556.407 691.737 717.208 742.260 852.897
661.662 1041.448 702.342 850.537 747.105 734.860 842.568 870.964 866.595 22.552 828.963 687.092 865.485 864.488 912.985 0.000 862.250 1029.310 831.255 1043.118 1051.714 823.883 621.427 288.492 669.463 851.415
430.129 1058.663 736.964 125.363 405.379 317.969 465.591 73.457 87.837 865.696 486.503 641.507 156.994 38.663 876.594 875.852 0.000 344.957 129.992 355.561 1068.928 481.423 281.675 668.434 274.110 81.813
596.617 1225.150 903.452 273.647 571.867 484.457 632.079 261.691 276.884 1026.444 652.991 807.995 281.176 293.276 1043.082 1036.600 335.876 0.000 389.652 520.863 1235.415 647.910 448.163 829.182 440.598 308.297
487.644 1115.127 776.020 238.464 482.988 413.387 561.009 186.558 200.938 828.098 567.789 693.440 262.907 151.764 951.444 838.254 149.526 402.572 0.000 424.383 1125.392 562.709 307.817 630.837 329.927 194.914
593.310 1058.957 787.176 256.577 552.194 481.150 345.061 312.144 290.524 1053.648 478.056 779.126 302.911 320.645 870.919 1063.804 325.249 511.734 420.707 0.000 1069.222 444.816 444.856 856.387 437.291 297.670
754.805 47.539 474.772 1024.238 810.717 808.066 756.245 1044.665 1040.296 1062.856 731.802 561.765 1039.186 1048.091 459.511 1073.013 1052.695 1244.255 1129.655 1077.710 0.000 737.559 845.962 834.122 903.813 1025.116
309.368 753.354 481.572 416.111 260.900 215.655 66.732 436.539 432.169 859.396 172.453 473.522 431.059 439.964 565.316 869.552 444.568 636.128 544.044 388.197 763.619 0.000 302.949 641.099 306.352 416.989
209.109 837.643 515.944 266.569 204.453 174.200 302.860 286.996 282.627 655.909 289.254 420.487 281.516 290.422 672.909 666.065 295.026 486.586 314.576 459.150 847.908 284.174 0.000 454.643 107.086 267.446
451.591 805.804 466.697 645.822 538.820 526.575 634.284 666.249 661.880 299.884 620.678 451.447 660.769 659.773 677.340 310.040 657.535 824.595 626.540 838.403 816.069 615.598 414.547 0.000 464.748 646.699
251.133 879.667 557.968 228.401 236.995 149.585 297.207 248.828 244.459 678.855 318.119 462.511 243.349 252.254 708.210 689.012 256.858 448.418 351.493 420.982 889.932 313.039 86.743 481.594 0.000 229.279
423.877 1052.411 730.712 83.254 399.127 311.717 459.339 83.307 61.480 884.216 480.251 635.255 129.587 66.596 870.342 894.372 74.780 346.956 174.255 347.090 1062.676 475.171 275.423 686.954 267.858 0.000
NODE_COORD_SECTION
1 1438.942575 -1211.855723
2 606.034796 10526.327715
3 3450.936963 4916.363532
4 2412.065493 -8187.728259
5 3264.032303 -2622.794823
6 3014.637515 -3322.311967
7 5763.251601 -3927.862086
8 1392.931499 -8628.895293
9 1657.151202 -8331.127986
10 -10408.836804 1725.461763
11 5843.925895 -1958.182873
12 2844.425478 2192.634833
13 2490.775824 -8792.788096
14 846.798385 -8315.690576
15 7561.666621 7858.721942
16 -10396.118462 1615.913891
17 497.007702 -8167.233631
18 -525.316509 -11485.933225
19 -934.915477 -7640.894735
20 6824.799442 -8201.209743
21 687.515044 11057.865037
22 5775.898317 -2998.184849
23 1064.730310 -4565.508184
24 -4551.942348 2130.487420
25 1603.968974 -5599.975802
26 1413.584964 -8172.503541
DEMAND_SECTION
1 0
2 1
3 9
4 7
5 4
6 9
7 71
8 84
9 100
10 1
11 1
12 82
13 8
14 1
15 4
16 3
17 5
18 8
19 79
20 87
21 3
22 4
23 99
24 5
25 3
26 4
DEPOT_SECTION
1
-1
EOF
