NAME : mamut-tokyo-n10-hyb
COMMENT : Mamut2026 euclidean metric; city tokyo; 3-decimal seconds/meters; ENU ref in mamut-tokyo-n10-hyb.vrp.json
TYPE : CVRP
DIMENSION : 11
EDGE_WEIGHT_TYPE : EXPLICIT
EDGE_WEIGHT_FORMAT : FULL_MATRIX
CAPACITY : 107
EDGE_WEIGHT_SECTION
0.000 4562.469 3910.124 14464.281 3842.603 6692.464 8696.977 10361.995 5554.609 8869.348 9944.903
4562.469 0.000 4622.062 18586.058 8205.423 10192.682 9033.795 12257.122 7219.178 7067.309 9103.440
3910.124 4622.062 0.000 14676.269 5447.866 6041.820 4982.723 7662.182 9265.893 11241.234 6034.978
14464.281 18586.058 14676.269 0.000 10633.817 8642.402 14355.820 10678.671 17798.597 22883.261 16813.523
3842.603 8205.423 5447.866 10633.817 0.000 3653.645 8593.582 8511.659 7962.393 12413.195 10588.326
6692.464 10192.682 6041.820 8642.402 3653.645 0.000 6707.237 5177.675 11539.169 15561.127 9099.522
8696.977 9033.795 4982.723 14355.820 8593.582 6707.237 0.000 4324.011 14197.116 16015.300 2471.823
10361.995 12257.122 7662.182 10678.671 8511.659 5177.675 4324.011 0.000 15808.967 18804.862 6529.423
5554.609 7219.178 9265.893 17798.597 7962.393 11539.169 14197.116 15808.967 0.000 5668.596 15202.309
8869.348 7067.309 11241.234 22883.261 12413.195 15561.127 16015.300 18804.862 5668.596 0.000 16162.299
9944.903 9103.440 6034.978 16813.523 10588.326 9099.522 2471.823 6529.423 15202.309 16162.299 0.000
NODE_COORD_SECTION
1 -2164.012052 1974.697434
2 -4680.138607 5780.644035
3 -84.613382 5286.066811
4 10665.173851 -4705.677706
5 1115.451785 -27.978974
6 4499.241187 1350.095319
7 4065.707000 8043.306447
8 7574.122157 5515.839169
9 -6770.409192 -1129.298533
10 -11008.752319 2634.931378
11 3190.549112 10355.017816
DEMAND_SECTION
1 0
2 2
3 2
4 100
5 5
6 6
7 2
8 3
9 3
10 58
11 79
DEPOT_SECTION
1
-1
EOF
