NAME : poryos-hong_kong-n50-poi
COMMENT : Poryos2026 shortest metric; city hong_kong; 3-decimal seconds/meters; ENU ref in poryos-hong_kong-n50-poi.vrp.json
TYPE : CVRP
DIMENSION : 51
EDGE_WEIGHT_TYPE : EXPLICIT
EDGE_WEIGHT_FORMAT : FULL_MATRIX
CAPACITY : 169
EDGE_WEIGHT_SECTION
0.000 9201.802 3514.224 3967.447 6356.025 10516.768 2728.851 10266.773 5793.347 8457.864 5967.991 3924.386 13321.954 12936.017 3584.530 10019.467 4795.837 8518.647 5339.848 9148.203 10532.051 3824.671 9857.743 10837.584 4088.470 4381.403 9505.030 4226.209 13743.346 5689.975 5809.657 4272.228 4231.039 5388.670 8069.682 12551.339 6221.049 8816.492 9487.888 5515.622 14559.587 5774.615 5425.839 13597.018 8023.483 9890.509 4009.498 13866.180 5003.997 8913.832 9188.901
9340.611 0.000 6771.270 9377.283 7154.913 2399.135 7928.456 2118.999 10980.438 2884.704 5656.828 7898.641 21160.838 7232.319 7056.693 16408.036 5871.659 592.718 6265.272 3943.755 2236.086 7798.927 4252.748 3037.179 8703.006 8087.566 15451.853 6473.655 21169.054 5867.105 6735.082 6146.833 7419.648 5938.910 2233.326 5353.906 6345.664 2754.611 1397.099 5480.962 15842.023 6240.930 8832.851 21022.726 10918.327 16386.963 6710.670 8162.482 6191.161 2048.992 374.124
3504.772 7121.967 0.000 3002.882 3396.800 7500.920 1554.054 7943.921 4585.170 6378.030 3462.646 1503.374 15434.370 10856.182 682.292 10012.768 1836.612 6438.813 3301.918 6132.355 7516.202 1403.659 7777.908 7821.736 3291.803 3477.884 9056.585 1266.984 15796.005 2818.346 3771.728 1313.003 1024.381 3350.741 5989.848 10471.505 3261.825 6736.657 7408.054 3185.800 13396.543 3736.685 4573.892 15649.677 6953.081 9991.695 640.967 11786.346 2044.772 6833.998 7109.066
3166.149 8942.052 1968.838 0.000 4692.500 8304.726 1104.784 8747.727 2910.230 8198.115 4949.226 1612.525 15366.192 12676.267 2048.927 8331.036 3323.192 8258.898 5256.384 6936.161 8320.009 1567.980 9597.993 8625.542 4400.564 4558.741 7374.853 2753.564 16209.491 4304.926 5726.194 2799.584 1974.348 5305.207 7809.933 12291.589 4557.524 8556.742 9212.020 4672.381 14736.924 5691.151 5682.652 16063.163 8293.462 8301.474 2360.106 13606.431 3531.353 8654.083 8929.151
6535.080 6996.038 3725.132 5589.816 0.000 7140.117 4422.705 7583.119 6712.301 6252.101 1144.853 3696.616 18436.708 10730.253 3805.221 11894.650 1854.342 6312.884 2821.396 5771.553 7155.400 3596.901 7651.979 7460.933 6294.142 5732.577 10948.241 2768.630 18798.344 1133.071 3291.206 2406.621 3186.834 3157.674 5863.918 10345.575 576.898 6610.728 7282.125 1592.480 15142.880 3016.998 6477.862 18652.015 8699.418 11873.577 3170.591 11660.416 1843.686 6708.069 6983.137
10941.476 2511.067 8372.135 9721.126 7839.371 0.000 9172.405 1282.535 10543.249 4506.051 7257.693 7977.577 22761.703 8956.759 8554.921 15725.599 6967.347 2489.814 7866.136 2427.762 836.097 8346.601 5905.929 1592.378 10303.871 9688.430 14779.190 7589.597 22769.919 7467.970 8335.946 7370.109 7897.255 7539.775 4117.869 7260.321 7704.396 4669.152 1566.288 7081.826 17533.733 7841.795 10433.715 22623.591 12610.037 15704.526 7991.559 9886.922 6890.613 4076.077 2498.166
3056.402 8125.768 1152.554 2617.161 4067.097 8166.805 0.000 8609.806 4304.922 7381.831 4132.942 1605.584 15346.293 11859.983 1232.643 9732.520 2506.909 7442.614 4440.101 6798.240 8182.087 1505.869 8781.710 8487.621 3585.580 3743.757 8776.337 1937.281 15767.685 3488.643 4909.911 1983.300 1690.266 4488.924 6993.649 11475.306 3932.121 7740.459 8411.855 3856.097 13921.941 4874.868 4867.669 15621.357 7478.479 9711.447 1543.823 12790.147 2715.069 7837.799 8112.868
9808.218 1764.595 7238.877 9844.890 7622.520 1783.728 8396.062 0.000 10713.784 3372.793 6124.435 8148.111 21628.445 7784.612 7524.299 15896.133 6339.266 1743.342 6732.878 2912.751 1560.353 8266.533 4772.671 2438.561 9170.613 8555.172 14949.724 6941.261 21636.661 6334.712 7202.688 6614.439 7887.255 6406.517 2984.611 6513.849 6813.270 3731.420 464.293 5948.568 16361.586 6708.537 9300.457 21490.333 11437.890 15875.060 7178.276 8714.775 6658.767 3329.605 1751.694
5638.236 11607.290 4634.076 2893.106 7040.979 10450.327 3991.750 10893.329 0.000 10863.353 7614.464 3762.962 14960.915 15341.505 4714.165 6202.092 5917.087 10924.136 7921.623 9081.762 10465.610 3820.890 12263.231 10771.143 7285.049 7443.225 5586.160 5418.803 15798.424 6970.165 8391.432 5269.351 4227.258 7970.445 10475.171 14956.828 6906.004 11221.981 11357.622 7337.619 17621.409 8356.390 8567.137 15652.096 11177.947 6073.134 5025.344 16271.669 6077.425 11319.321 11594.390
9800.944 3070.929 7231.603 9837.616 7615.246 4996.425 8388.788 4379.370 11440.771 0.000 6117.161 8358.974 21621.171 4478.152 7517.026 16868.369 6331.992 2686.317 6725.605 6219.127 4762.216 8259.259 1399.878 5651.258 9163.339 8547.899 15912.185 6933.987 21629.387 6327.438 7195.414 6607.166 7879.981 6399.243 1306.388 6371.545 6805.997 455.714 3661.335 5941.295 13072.062 6701.263 9293.184 21483.059 8148.367 16847.296 7171.002 5408.316 6651.494 1748.461 3058.028
5906.772 5851.185 3337.432 5918.125 2459.446 7472.361 4469.298 6916.156 7493.303 5107.247 0.000 4375.642 17726.999 9585.400 3622.854 12675.652 1877.085 5168.030 1676.543 6552.555 7238.152 4275.928 6507.126 8127.194 5269.168 4601.713 11729.243 2795.967 17735.216 938.362 2146.352 2469.145 3865.861 2086.765 4719.065 9200.722 1452.846 5465.875 6137.271 595.886 14064.030 1872.145 5348.354 17588.888 7620.568 12654.579 3197.929 10515.563 2317.912 5563.215 5838.284
4026.923 8258.624 1407.373 2539.957 3505.067 7106.359 1965.557 7549.361 3771.100 7514.687 4177.617 0.000 16333.583 11992.839 1487.462 9198.698 2565.330 7575.469 4694.920 5737.794 7121.642 469.927 8914.565 7427.175 4684.804 4870.885 8242.514 2137.081 17070.265 3560.809 5164.729 1917.593 661.768 4692.738 7126.504 11608.161 3370.091 7873.314 8013.654 3935.907 14789.544 5037.894 5966.893 16923.936 8346.082 9177.625 1798.641 12923.002 2556.308 7970.654 8245.723
13303.940 20971.007 15283.430 15673.337 18125.230 22285.973 15192.413 22035.978 15386.093 20227.070 17737.196 16213.526 0.000 21161.839 15353.735 15263.040 16565.042 20287.853 16715.538 20917.408 22301.256 16113.811 21503.809 22606.789 12583.006 14719.302 15728.169 15995.414 5794.825 17459.180 17185.347 16041.433 16165.013 16799.268 19838.888 24320.544 17990.254 20585.697 21257.094 17284.828 21323.857 17150.305 13569.421 5648.497 14767.674 15018.410 15778.704 22092.003 16773.202 20683.038 20958.106
14555.612 7867.571 11986.271 14592.284 12369.914 9722.019 13143.457 8981.006 16195.439 5491.171 10871.829 13113.642 22249.534 0.000 12271.694 21623.037 11086.660 7440.986 11480.273 10820.763 9468.366 13013.928 4219.847 10376.852 11976.109 11070.918 20666.854 11688.656 22257.750 11082.106 11950.083 11361.834 12634.649 11153.912 6061.056 11199.592 11560.665 5553.155 8416.004 10695.963 12337.858 11455.931 10196.163 22111.422 7414.163 21601.964 11925.671 1826.927 11406.162 6576.508 7854.671
3260.200 7694.690 592.654 2363.950 3636.019 7736.816 915.122 8179.817 4051.711 6950.753 3701.864 1352.373 15550.091 11428.905 0.000 9479.309 2075.831 7011.536 3890.150 6368.251 7752.099 1252.658 8350.631 8057.632 3789.378 3947.555 8523.126 1506.202 15971.483 3057.564 4359.960 1552.222 1260.277 3938.973 6562.571 11044.228 3501.043 7309.380 7980.777 3425.019 13984.775 4324.917 5071.467 15825.155 7541.313 9458.236 1112.744 12359.069 2283.991 7406.721 7681.789
10200.197 16474.609 9731.882 8029.037 11629.790 14938.952 9127.681 15381.954 6032.658 15730.672 12302.340 8490.691 15125.969 20208.824 9811.970 0.000 10757.766 15791.455 12967.900 13570.387 14954.235 8918.695 17130.550 15259.768 12382.854 12541.031 3041.272 10386.068 16569.823 11685.532 13437.710 10166.580 9152.460 12908.723 15342.490 19824.146 11494.814 16089.299 15846.247 12060.630 22719.215 13253.880 13664.942 16423.495 16275.753 693.058 10123.150 21138.988 10681.031 16186.640 16461.708
4817.489 6268.755 2022.888 4173.196 1850.365 6455.335 2724.369 6898.337 5754.979 5524.818 2089.627 2590.636 16719.117 10002.970 2102.977 11137.368 0.000 5585.600 2762.046 5086.770 6470.618 2490.921 6924.696 6776.151 4576.550 4573.437 10190.959 1051.038 17080.752 1445.328 3231.856 724.216 2080.855 2702.869 5136.635 9618.292 1715.389 5883.445 6554.842 1820.425 13983.740 3048.025 5318.722 16934.424 7540.277 11116.295 1453.000 10933.133 440.827 5980.785 6255.854
8977.936 1173.440 6408.595 9014.608 6792.238 2716.632 7565.781 2160.427 10617.763 2523.094 5294.153 7535.966 20798.163 6870.708 6694.018 16045.361 5508.984 0.000 5902.597 4159.570 2482.424 7436.251 3891.137 3371.465 8340.331 7724.891 15089.178 6110.980 20806.379 5504.430 6372.406 5784.158 7056.973 5576.235 1859.668 5681.888 5982.989 2393.001 1381.543 5118.287 15480.412 5878.255 8470.176 20660.051 10556.717 16024.288 6347.995 7800.872 5828.486 1799.926 1160.540
5693.631 6022.230 3426.263 6032.276 4007.476 7643.407 4583.448 7087.202 7635.431 5278.293 2361.091 4553.634 16661.436 9756.446 3711.685 13063.029 2724.222 5339.076 0.000 7402.033 7409.198 4453.919 6678.172 8298.239 4121.416 3242.575 12106.845 3326.217 16669.652 2717.146 717.346 2999.395 4074.641 1461.807 4890.111 9371.768 3049.927 5636.921 6308.317 2374.670 12846.681 1031.200 3989.216 16523.324 6403.219 13041.956 3620.124 10686.609 3043.723 5734.261 6009.330
9321.873 4390.617 6440.657 7686.951 5805.196 2202.633 7138.230 2815.364 8509.074 5975.060 6477.747 5943.402 21223.501 10269.586 6520.746 13691.423 4933.172 4369.364 7384.625 0.000 2285.499 6312.426 7374.938 2523.449 9080.934 9196.016 12745.015 5555.422 21585.136 5860.939 7854.435 5335.934 5863.080 7217.216 5586.877 9139.871 5670.221 6333.687 3279.657 6236.036 18475.225 7519.236 9920.616 21438.808 12031.763 13670.350 5957.383 11199.749 4856.438 5955.627 4377.716
10576.729 2773.140 7695.513 8941.807 7060.052 292.077 8393.086 1289.584 9763.930 4610.827 7350.055 7198.258 22478.357 8905.353 7775.602 14946.280 6188.028 2751.887 7958.499 1765.246 0.000 7567.282 6010.705 1884.456 10335.790 9780.793 13999.871 6810.278 22839.992 7115.795 8428.308 6590.790 7117.936 7632.137 4222.645 7522.394 6925.077 4931.224 1753.877 7174.189 17482.327 7934.157 10526.078 22693.664 12558.632 14925.207 7212.240 9835.516 6111.294 4338.149 2760.239
3936.705 8358.339 1504.522 2449.739 3604.782 7206.074 1875.340 7649.076 3680.882 7614.401 4277.332 99.715 16243.366 12092.554 1584.611 9108.480 2665.045 7675.184 4792.069 5837.509 7221.357 0.000 9014.280 7526.890 4781.954 4968.034 8152.297 2236.796 16980.047 3660.524 5261.879 2017.308 761.483 4792.453 7226.219 11707.876 3469.806 7973.029 8113.368 4035.621 14886.694 5137.609 6064.042 16833.719 8443.232 9087.407 1895.791 13022.717 2656.023 8070.369 8345.438
10689.055 4001.014 8119.714 10725.727 8503.357 5884.536 9276.900 5267.481 12328.882 1609.354 7005.272 9247.085 21928.008 3439.357 8405.137 17756.480 7220.103 3574.429 7613.716 7107.239 5650.328 9147.371 0.000 6539.369 10051.450 9436.010 16800.297 7822.099 21936.224 7215.550 8083.526 7495.277 8768.093 7287.355 2194.499 7317.775 7694.108 1671.338 4549.447 6829.406 12016.332 7589.375 9874.637 21789.896 7092.636 17735.407 8059.114 4369.521 7539.605 2694.691 3988.114
11352.656 2965.919 8783.315 10110.389 8228.634 1424.411 9561.668 1971.644 10932.512 4917.231 7668.873 8366.840 23172.883 9327.472 8944.184 16114.862 7356.610 2944.666 8277.317 2488.208 1541.062 8735.864 6317.110 0.000 10715.051 10099.611 15168.453 7978.860 23181.099 7879.150 8747.126 7759.372 8286.518 7950.955 4529.049 7715.173 8093.659 5124.003 1969.717 7493.007 17904.446 8252.975 10844.896 23034.771 12980.751 16093.789 8380.822 10257.636 7279.876 4530.928 2953.018
3595.587 8944.741 4170.467 6198.209 6780.738 10565.918 4749.381 10009.712 7876.319 8200.804 5920.195 5186.632 12877.887 10700.823 4314.118 12825.343 5220.550 8261.587 4654.116 9572.917 10331.709 5086.917 9600.682 11220.750 0.000 2968.709 12310.906 4650.922 12886.103 5642.179 5123.925 4696.941 4818.846 4737.846 7812.622 12294.279 6453.315 8559.432 9230.828 5467.826 10862.841 5088.883 3022.448 12739.775 4306.657 12696.385 4432.537 11630.986 5428.711 8656.772 8931.840
4655.473 7838.574 3383.700 5676.252 5823.819 9459.750 4227.425 8903.545 7354.362 7094.637 4814.028 4511.071 14572.505 10133.133 3669.122 12781.960 4433.783 7155.420 3313.295 8786.149 9225.542 4411.356 8494.515 10114.583 2032.486 0.000 11825.777 3864.155 14580.722 4536.012 3783.105 3910.174 4032.078 3538.188 6706.455 11188.112 5347.148 7453.264 8124.661 4361.659 10479.753 3748.062 1622.288 14434.394 4036.291 12760.887 3645.769 11063.296 4641.943 7550.605 7825.673
8741.102 15778.754 8805.539 7046.832 11070.148 14379.310 8072.061 14822.312 5094.290 15034.816 11742.698 7931.049 14669.666 19512.969 8885.628 2442.037 10088.551 15095.599 12093.086 13010.745 14394.593 7992.353 16434.695 14700.126 11447.396 11605.572 0.000 9590.266 16113.520 11125.890 12562.896 9440.814 8398.722 12141.909 14646.634 19128.291 10935.172 15393.444 15286.605 11500.988 21783.756 12527.853 12729.484 15967.192 15340.294 2313.079 9196.808 20443.132 10121.389 15490.784 15765.853
4413.010 6188.488 1618.409 3768.717 2134.693 6739.663 2319.890 7182.665 5350.500 5444.550 2195.662 2256.311 16314.638 9922.703 1698.498 10778.098 569.628 5505.333 2681.779 5371.099 6754.946 2156.596 6844.429 7060.479 4172.071 4358.151 9821.915 0.000 16676.273 1551.362 3151.589 319.737 1752.387 2622.602 5056.368 9538.025 1999.718 5803.178 6474.574 1918.816 13903.472 2967.758 5238.455 16529.945 7460.010 10757.025 1048.520 10852.866 777.788 5900.518 6175.587
13888.208 21093.555 15867.698 17064.108 18709.498 22714.732 15827.348 22158.526 16947.694 20349.618 18069.009 16810.517 6200.428 21249.231 15938.003 16854.420 17149.310 20410.401 16802.930 21501.677 22480.523 16710.802 21591.200 23191.058 12670.398 14806.694 17319.549 16579.682 0.000 17790.993 17272.739 16625.701 16749.281 16886.660 19961.436 24443.093 18574.523 20708.246 21379.642 17616.640 21411.249 17237.697 13656.813 972.178 14855.066 16609.790 16362.972 22179.395 17357.471 20805.586 21080.655
5714.808 6083.383 2945.596 5095.904 2002.051 7098.661 3647.077 7148.355 6670.844 5339.446 1039.333 3553.422 17616.436 9817.598 3025.685 11853.193 1054.626 5400.229 2408.065 5730.096 7113.944 3453.707 6739.325 7419.477 5342.503 4727.062 10906.785 1973.746 17808.551 0.000 2877.875 1646.924 3043.640 2152.159 4951.264 9432.921 1011.686 5698.074 6369.470 586.965 14137.365 2454.179 5472.347 17662.223 7693.903 11832.120 2375.708 10747.762 1495.453 5795.414 6070.483
6226.441 6222.030 3726.300 6332.313 3746.492 7843.206 4883.485 7287.001 7935.468 5478.093 2051.056 4853.671 17194.246 9956.245 4011.723 13363.066 2830.386 5538.876 532.810 7508.198 7608.998 4753.956 6877.971 8498.039 4654.226 3775.385 12406.882 3432.382 17202.462 2407.110 0.000 3105.560 4374.678 1397.851 5089.911 9571.567 2739.892 5836.720 6508.117 2064.634 13379.491 418.001 4522.026 17056.134 6936.029 13341.993 3665.700 10886.409 3149.888 5934.061 6209.129
4457.307 6879.344 1662.707 3813.014 2449.947 6610.690 2364.187 7053.692 5282.802 6135.407 2870.847 1981.543 16358.935 10613.559 1742.795 10710.401 1013.887 6196.189 3372.635 5242.125 6625.973 1881.828 7535.285 6931.506 4216.368 4402.449 9754.217 690.856 16720.570 2226.548 3842.445 0.000 1477.619 3313.458 5747.224 10228.881 2314.971 6494.034 7165.431 2601.645 14079.480 3658.614 5414.462 16574.242 7636.018 10689.328 1092.818 11543.722 1222.047 6591.374 6866.443
4690.931 7596.855 1562.162 3292.482 2843.298 6585.669 2259.735 7028.670 4114.605 6852.918 3515.849 1103.460 16916.476 11331.070 1642.250 9542.203 1903.561 6913.701 4090.147 5217.104 6600.951 1003.745 8252.796 6906.485 4839.593 5025.673 8586.019 1475.313 17337.869 2899.041 4559.956 1255.825 0.000 4030.970 6464.736 10946.393 2708.323 7211.546 7492.963 3274.138 14645.452 4376.126 6090.842 17191.541 8201.990 9521.130 1877.274 12261.234 1894.540 7308.886 7583.955
5426.759 5338.804 3159.391 5764.949 3324.049 6959.981 4316.122 6403.776 7346.732 4594.867 2314.258 4146.064 16582.622 9073.019 3444.813 12769.199 2040.795 4655.650 870.738 6718.607 6725.772 4046.349 5994.745 7614.813 4124.790 3269.623 11818.147 2642.791 16590.838 2036.242 1340.548 2315.969 3636.283 0.000 4206.685 8688.342 2847.378 4953.495 5624.891 1810.712 12873.729 1296.300 4016.264 16444.510 6430.267 12748.126 3044.753 10003.183 2360.297 5050.835 5325.904
8888.788 1993.745 6319.447 8925.460 6703.090 4079.997 7476.633 3528.064 10528.615 1432.982 5205.005 7446.818 20709.015 5780.596 6604.870 15956.213 5419.836 1774.162 5813.449 5514.842 3850.061 7347.103 2801.026 4718.040 8251.183 7635.743 15000.030 6021.832 20717.231 5415.282 6283.258 5695.010 6967.825 5487.087 0.000 5498.302 5893.841 1302.889 2749.180 5029.139 14390.300 5789.107 8381.028 20570.903 9466.605 15935.140 6258.847 6710.760 5739.338 1122.848 1980.844
12209.222 4735.316 9639.881 12245.894 10023.524 6759.018 10797.066 6478.881 13849.049 5744.162 8525.439 10767.252 24029.449 10094.848 9925.304 19276.647 8740.270 5018.209 9133.883 8303.638 6595.968 10667.537 7115.277 7397.061 11571.617 10956.177 18320.463 9342.265 24037.665 8735.716 9603.692 9015.444 10288.259 8807.521 5242.308 0.000 9214.274 5617.140 5890.341 8349.572 18704.552 9109.541 11701.462 23891.337 13780.856 19255.574 9579.280 11025.011 9059.772 4666.828 4722.415
5977.144 6616.981 3182.543 5332.851 1840.122 7335.608 3884.024 7681.952 6907.791 5873.044 1089.507 3790.369 17878.772 10351.196 3262.632 12090.140 1291.573 5933.827 2748.326 5967.043 7350.891 3690.654 7272.922 7656.424 5736.205 5260.660 11143.732 2210.693 18240.407 569.947 3218.136 1883.871 3280.587 2685.756 5484.862 9966.518 0.000 6231.671 6903.068 1120.562 14670.963 2943.928 6005.945 18094.079 8227.500 12069.067 2612.655 11281.360 1732.400 6329.012 6604.080
9589.314 2704.739 7019.973 9625.986 7403.616 4784.795 8177.158 4167.740 11229.141 390.834 5905.531 8147.344 21409.541 4509.454 7305.396 16656.739 6120.362 2474.688 6513.975 6007.497 4550.586 8047.629 1529.884 5429.034 8951.709 8336.269 15700.555 6722.358 21417.757 6115.808 6983.784 6395.536 7668.351 6187.613 1094.758 6005.355 6594.367 0.000 3449.706 5729.665 13119.158 6489.633 9081.554 21271.429 8195.463 16635.666 6959.373 5439.618 6439.864 1382.271 2691.838
9693.413 1603.227 7124.072 9730.085 7507.715 1633.467 8281.257 1294.821 11097.799 3257.988 6009.630 8251.443 21513.640 7736.140 7409.494 16280.149 6224.461 1581.974 6618.073 3178.087 1470.418 8151.728 4657.866 2288.300 9055.808 8440.368 15333.740 6826.456 21521.856 6219.907 7087.883 6499.635 7772.450 6291.712 2869.806 6352.481 6698.465 3616.616 0.000 5833.763 16330.050 6593.732 9185.653 21375.528 11406.355 16259.076 7063.471 8666.304 6543.963 3168.237 1590.326
5501.078 5857.361 2931.010 5465.074 2383.130 7468.069 4016.247 6922.333 7040.252 5113.424 883.781 3922.592 17402.706 9591.576 3216.432 12222.601 1424.034 5174.207 2114.376 6099.504 7244.329 3822.877 6513.303 7788.885 5128.773 4513.333 11276.193 2342.916 17594.821 635.752 2584.186 2016.094 3412.811 1928.060 4725.242 9206.899 1446.889 5472.052 6143.448 0.000 13923.635 2230.080 5258.618 17448.493 7480.173 12201.528 2744.878 10521.740 1864.861 5569.392 5844.461
14496.330 14422.277 13574.508 15867.061 15390.252 16276.725 14418.233 15535.712 17545.171 12046.779 14380.461 14701.879 21833.481 10433.485 13859.931 22972.769 14106.998 13995.692 13064.369 17375.469 16023.072 14602.165 10775.455 16931.558 11560.056 10654.865 22016.585 13999.393 21841.697 14102.445 13534.179 14045.412 14222.887 13198.111 12615.762 17755.199 14913.581 12108.762 14970.710 13928.092 0.000 13499.136 9894.230 21695.369 6998.109 22951.696 13836.578 11363.649 14426.500 13132.116 14409.377
6283.818 6382.172 3714.477 6320.489 3900.044 8003.349 4871.662 7447.144 7923.644 5638.235 2204.608 4841.848 17614.676 10116.387 3999.899 13351.242 2818.563 5699.018 953.240 7496.374 7769.140 4742.133 7038.113 8658.181 5074.657 4195.815 12395.059 3420.559 17622.893 2560.662 1423.050 3093.737 4362.855 1557.993 5250.053 9731.710 2893.443 5996.863 6668.259 2218.186 13799.921 0.000 4942.457 17476.565 7356.459 13330.170 3653.876 11046.551 3138.065 6094.203 6369.272
5766.008 8509.375 4494.235 6786.788 6494.620 10130.551 5337.960 9574.346 8464.898 7765.438 5484.828 5621.606 13778.507 9120.266 4779.658 13892.496 5211.366 7826.221 3984.096 9643.871 9896.343 5521.892 9165.316 10785.384 2589.666 1574.592 12936.312 4974.690 13786.724 5206.812 4453.906 5020.709 5142.613 4208.989 7377.256 11858.912 6017.949 8124.065 8795.462 5032.460 9466.887 4418.863 0.000 13640.396 3023.425 13871.423 4756.305 10050.430 5530.868 8221.406 8496.474
14071.191 21276.538 16050.681 17247.091 18892.481 22897.714 16010.331 22341.509 17130.677 20532.601 18251.991 16993.500 6383.410 21432.214 16120.986 17037.402 17332.293 20593.384 16985.912 21684.659 22663.506 16893.785 21774.183 23374.040 12853.381 14989.677 17502.531 16762.665 467.393 17973.975 17455.722 16808.684 16932.264 17069.642 20144.419 24626.075 18757.505 20891.228 21562.625 17799.623 21594.232 17420.679 13839.796 0.000 15038.048 16792.772 16545.955 22362.378 17540.453 20988.569 21263.637
7805.432 10570.111 6967.487 9260.039 8783.231 12419.162 7811.212 11683.545 10938.149 8194.612 7773.439 8094.858 15142.584 6581.319 7252.909 16365.747 7499.977 10114.831 6457.347 11695.141 12170.905 7995.143 6923.288 13073.994 4869.158 4047.843 15409.564 7392.371 15150.800 7495.423 6927.157 7438.390 7615.865 6591.090 8763.596 13903.033 8306.559 8256.596 11084.072 7321.071 6735.585 6892.114 3106.259 15004.472 0.000 16344.674 7229.556 7511.483 7819.478 9279.949 10557.210
9845.021 16786.512 9909.458 8150.751 11941.693 15250.855 9175.980 15693.856 6198.209 16042.574 12614.243 8802.594 14918.874 20520.727 9989.547 337.638 11069.668 16103.357 13197.005 13882.290 15266.138 9096.272 17442.453 15571.671 12551.315 12709.491 3262.647 10694.185 16362.727 11997.435 13666.815 10478.483 9464.362 13220.626 15654.392 20136.049 11806.717 16401.202 16158.149 12372.532 22887.675 13565.782 13833.403 16216.399 16444.213 0.000 10300.727 21450.890 10992.934 16498.542 16773.611
4089.149 6814.504 960.380 3587.259 2755.833 6916.576 2138.431 7359.578 5169.547 6070.567 2821.678 2087.751 16058.137 10548.719 1266.669 10597.145 1195.645 6131.350 3307.796 5548.011 6931.859 1988.036 7470.445 7237.392 3915.570 4101.651 9640.962 626.017 16419.772 2177.379 3777.605 672.036 1608.758 3248.619 5682.385 10164.042 2620.857 6429.195 7100.591 2544.833 13855.199 3593.775 5190.182 16273.444 7411.737 10576.072 0.000 11478.883 1403.805 6526.535 6801.604
15000.938 8312.897 12431.598 15037.610 12815.240 10196.420 13588.783 9579.364 16640.765 5921.237 11317.156 13558.969 22863.977 2018.901 12717.020 22068.363 11531.986 7886.312 11925.599 11419.122 9962.211 13459.254 4649.913 10851.252 12590.551 11685.361 21112.180 12133.982 22872.193 11527.433 12395.409 11807.160 13079.976 11599.238 6506.382 11629.658 12005.991 5983.221 8861.330 11141.289 12952.300 11901.258 10810.605 22725.865 8028.605 22047.290 12370.997 0.000 11851.488 7006.574 8299.997
4894.223 6345.489 2099.623 4249.931 1927.099 6532.069 2801.103 6975.071 5831.714 5601.552 2166.362 2667.370 16795.851 10079.704 2179.712 11214.102 76.734 5662.335 2838.781 5163.505 6547.352 2567.656 7001.430 6852.886 4653.284 4650.171 10267.694 1127.772 17157.486 1522.062 3308.590 800.951 2157.589 2779.603 5213.370 9695.027 1792.124 5960.179 6631.576 1897.160 14060.474 3124.760 5395.456 17011.158 7617.012 11193.029 1529.734 11009.868 0.000 6057.520 6332.588
8743.355 1491.943 6174.014 8780.027 6557.657 3578.195 7331.199 3191.184 10383.182 1680.021 5059.572 7301.385 20563.582 6027.636 6459.437 15810.780 5274.403 1431.203 5668.016 5122.815 3415.145 7201.670 3048.065 4216.239 8105.750 7490.310 14854.596 5876.398 20571.798 5269.849 6137.825 5549.577 6822.392 5341.654 1239.903 4780.068 5748.407 1549.928 2412.299 4883.705 14637.340 5643.674 8235.595 20425.470 9713.644 15789.707 6113.413 6957.799 5593.905 0.000 1479.042
9394.169 420.946 6824.828 9430.841 7208.471 2332.656 7982.013 2052.519 11033.996 2917.493 5710.386 7952.199 21214.396 7265.107 7110.250 16461.594 5925.217 659.597 6318.830 3877.276 2169.606 7852.484 4285.536 2970.699 8756.564 8141.124 15505.410 6527.212 21222.612 5920.663 6788.639 6200.391 7473.206 5992.468 2266.114 4979.782 6399.221 2787.400 1463.979 5534.519 15874.811 6294.488 8886.409 21076.284 10951.116 16440.521 6764.227 8195.271 6244.719 1875.287 0.000
NODE_COORD_SECTION
1 1438.942575 -1211.855723
2 1200.579557 -8537.677696
3 1207.655493 -3568.455033
4 77.496783 -2260.990907
5 926.013700 -6292.474637
6 -617.892096 -7808.174335
7 768.002165 -2751.471642
8 111.141581 -7814.918860
9 -2194.809285 -1491.793630
10 3201.824121 -7411.949060
11 1865.117719 -6105.913752
12 51.941487 -3446.405944
13 5324.321127 8121.643152
14 6645.334990 -7411.277841
15 996.536834 -3205.758753
16 -4551.942348 2130.487420
17 1137.862378 -5096.585335
18 1413.584964 -8172.503541
19 3126.371279 -5274.317745
20 -2057.780175 -7340.663993
21 -571.787626 -7612.265458
22 151.651824 -3445.452972
23 4060.200084 -6650.307221
24 -886.602516 -7994.426978
25 3882.621223 -2010.067659
26 3729.564917 -2859.972289
27 -2741.432474 1799.528116
28 1162.484312 -4625.065240
29 7450.568068 7713.914141
30 1408.132114 -5882.666268
31 3113.725551 -5466.610504
32 1055.721368 -4511.592185
33 378.416176 -3872.043037
34 2437.499834 -4959.191446
35 2645.824067 -7760.788501
36 1779.237300 -11861.835569
37 1100.101169 -6152.041187
38 3340.165439 -7563.027616
39 411.341717 -8044.000301
40 1884.922970 -5764.949436
41 11638.006149 -5636.313667
42 3028.941565 -5669.736192
43 4845.744777 -2952.315672
44 7536.755976 7956.323570
45 6717.628332 -4143.765124
46 -4299.959863 2297.570526
47 1174.788000 -4095.875228
48 7299.246556 -7944.500814
49 1119.949307 -5171.199471
50 2450.635253 -8153.959434
51 1228.499843 -8549.213985
DEMAND_SECTION
1 0
2 10
3 4
4 1
5 1
6 2
7 7
8 94
9 5
10 83
11 9
12 4
13 6
14 2
15 5
16 3
17 6
18 5
19 7
20 7
21 2
22 8
23 7
24 9
25 98
26 10
27 3
28 1
29 4
30 10
31 2
32 4
33 5
34 8
35 1
36 1
37 3
38 4
39 8
40 73
41 8
42 5
43 97
44 4
45 10
46 6
47 1
48 3
49 3
50 6
51 1
DEPOT_SECTION
1
-1
EOF
