NAME : mamut-tokyo-n100-poi
COMMENT : Mamut2026 shortest metric; city tokyo; 3-decimal seconds/meters; ENU ref in mamut-tokyo-n100-poi.vrp.json
TYPE : CVRP
DIMENSION : 101
EDGE_WEIGHT_TYPE : EXPLICIT
EDGE_WEIGHT_FORMAT : FULL_MATRIX
CAPACITY : 177
EDGE_WEIGHT_SECTION
0.000 3963.411 18760.977 1481.011 16118.822 4386.269 4413.157 8032.181 9761.991 4564.122 2069.911 4928.641 7342.302 9241.599 5817.408 5622.567 6345.439 11710.147 5099.122 6372.618 5425.503 3856.488 12655.955 4415.521 9085.575 10988.156 9498.638 10765.875 7685.644 6322.218 3908.701 10298.038 10932.984 12950.167 5279.882 15259.390 4320.853 10927.857 6654.158 9540.682 1942.452 6329.986 6651.591 6902.563 7309.197 4572.681 16527.806 2077.096 4592.585 4523.702 4739.484 11234.885 8199.251 5624.080 11183.017 2775.525 2810.375 1849.823 3168.620 9128.856 9228.249 2129.268 4608.808 2939.861 10495.495 5143.897 4618.329 13599.813 3139.220 2747.401 5691.900 4922.587 16013.315 6203.263 18252.143 3223.878 4172.817 3936.687 3129.334 1576.964 5176.957 5114.753 1153.125 4018.924 1526.206 15178.938 4650.234 9182.157 11608.515 7341.962 2693.502 4385.288 7833.529 8700.056 3144.632 9225.239 4521.206 5061.866 3331.732 4777.429 3679.005
3777.050 0.000 21758.530 3775.624 15721.370 7850.403 975.220 11047.627 13096.928 5334.755 5661.200 5266.570 10933.591 5950.939 7556.956 6758.595 4726.936 9245.155 7739.668 5109.076 6969.997 7015.115 16247.244 1336.419 9225.614 8209.403 8604.771 11323.798 11276.933 4864.401 6260.189 6860.101 11490.907 13280.191 2245.350 16693.646 882.916 7873.125 10045.320 10811.749 5533.741 4298.413 9667.037 8113.858 10900.486 5161.910 20058.681 5723.058 2715.611 1228.881 8330.773 11792.808 7879.792 7538.730 10556.368 4495.138 4529.988 3917.157 6381.039 5939.589 9786.173 3819.400 8200.097 2272.683 14086.785 7784.442 8009.491 17191.102 6351.639 4467.014 5089.782 4188.918 19544.191 4285.731 21249.696 6815.167 734.881 7327.849 6720.624 4217.510 8768.246 4840.152 4417.355 7610.213 4492.798 18770.227 2649.381 5744.220 10361.565 10933.251 4413.115 1384.026 8391.452 5783.565 6507.655 7671.903 1190.623 7357.782 6923.021 2776.576 211.364
19908.427 22966.576 0.000 20766.843 25318.100 18073.317 23275.694 21369.019 17942.595 19346.423 18270.451 19710.942 14547.019 28251.412 18877.417 23041.007 22430.813 30983.621 15532.357 25174.099 22706.379 20966.992 7842.304 22998.665 26785.955 27000.020 22320.246 27975.383 16505.718 22334.082 17149.183 29160.575 28128.591 20651.761 23835.871 21129.050 23183.390 29058.863 17875.504 19544.993 18170.617 23180.954 21277.538 19805.319 14580.125 19519.967 18890.436 18380.760 23866.059 23106.846 18077.191 27981.066 26167.974 18218.504 29246.958 18968.118 19018.812 20977.820 18985.960 28240.063 25974.430 21291.994 15574.917 21357.343 13408.232 15225.138 18565.220 16734.469 19005.803 18921.297 24414.718 21273.308 18597.349 22568.635 2527.447 17587.968 23035.354 18595.715 18152.420 18677.948 16421.389 23934.789 20065.523 17520.862 20299.763 17016.733 22186.161 28044.694 24805.251 14528.962 19028.125 23905.387 25018.437 27973.530 18899.989 25237.102 23704.617 17441.216 17609.112 22393.520 22682.170
1484.995 3460.654 19720.224 0.000 17109.844 4493.899 4165.419 7825.527 9740.424 5672.372 3029.158 5670.836 8018.079 8544.991 7161.441 4413.608 6909.924 10356.896 6525.484 4908.621 4359.218 3649.833 13615.202 4299.691 7876.616 11148.305 10206.614 9556.915 7965.760 7030.194 5252.734 9766.585 9724.024 14179.391 5164.051 16603.423 3976.679 10812.027 6688.815 10769.906 2901.699 6590.242 6444.936 8084.452 7984.973 5499.526 16702.177 3023.814 3239.335 4407.871 4981.808 10025.926 6962.649 6968.114 9719.019 3702.371 3737.221 376.082 3024.535 8170.598 8019.290 665.270 5568.055 3018.997 10785.149 6570.259 4652.987 13850.207 2995.135 3674.246 4227.903 5630.563 16187.687 6468.719 19211.390 3718.706 3973.557 3971.345 3532.725 3003.327 6074.941 3650.755 1087.684 4612.756 1095.799 15429.332 4910.490 8544.996 12316.491 8036.615 3620.347 3688.680 6624.570 7346.805 3151.151 9854.891 3824.598 6405.899 3844.973 5037.685 3356.754
16037.175 15829.337 24402.468 17049.183 0.000 18492.529 15544.769 23179.943 23293.827 12078.508 16575.930 11651.833 20545.968 16433.325 10807.298 21149.681 11211.880 20445.455 14490.407 20241.902 21178.197 19487.155 21982.792 14920.557 24215.377 9218.833 7853.136 26263.911 21060.247 10839.886 13256.545 17126.765 26431.020 4631.486 14353.768 7426.884 15781.109 13422.560 20123.777 8427.424 16476.095 12297.618 22080.183 9330.569 20512.863 12494.037 29902.408 16840.068 18190.060 14954.412 18777.582 26732.921 22825.012 11787.510 25405.935 13602.281 13652.975 17375.864 17837.468 16502.775 24726.286 17356.822 16697.204 14656.495 23736.512 14677.550 18804.805 26974.415 17857.311 13555.460 20029.895 12213.456 29387.918 11595.768 23893.634 17236.387 15663.116 18142.468 17420.319 14592.310 18380.622 19780.265 17158.540 17988.780 17531.621 28553.540 13161.387 16146.078 5603.184 20545.628 13693.757 16503.291 23331.565 18149.078 17751.496 9025.816 16332.379 12250.149 17301.588 12914.389 15544.931
4347.802 7540.263 17299.594 4490.794 18615.572 0.000 8245.027 4970.028 5734.257 7380.469 2468.689 7744.988 4289.777 12624.600 7707.813 5481.660 10458.531 14134.745 5054.855 7732.384 5147.032 3407.645 10797.381 8379.300 9041.605 15027.738 12098.650 10420.460 3833.619 10361.800 5367.169 13846.194 10573.668 14763.946 9243.660 16682.396 8056.288 14891.636 2626.424 11406.306 2599.208 10496.936 4292.077 9121.604 4256.672 7554.012 12675.781 2435.632 7371.062 8487.480 824.481 10675.443 8608.626 7136.815 11687.610 6512.790 6547.640 4685.143 1537.638 12511.857 8668.808 4709.037 2972.639 7098.606 7056.847 5099.630 511.274 9747.788 1521.831 6484.666 6973.004 9049.872 12161.290 10370.213 16790.760 1293.907 8053.166 613.047 1678.536 5033.460 2976.967 6493.074 3773.149 1000.225 3658.753 11326.912 8817.184 12624.604 15402.720 4308.313 6430.767 7768.289 7274.087 11228.935 1387.221 13264.820 7904.207 6552.107 1234.848 8944.379 7436.363
4391.800 798.184 22243.460 4214.163 15617.148 8288.942 0.000 11456.688 13535.467 5819.686 6275.951 5751.500 11548.342 5448.110 8041.887 7167.656 4735.461 8826.665 8224.598 5185.292 7379.057 7453.654 16764.845 833.591 9264.700 7706.575 8613.296 11341.917 11760.802 4872.926 6745.119 6357.273 11529.707 13366.117 1742.522 16911.207 236.340 7370.297 10483.858 11094.373 6148.492 4306.938 10076.097 8396.481 11515.237 5646.840 20497.220 6337.808 2791.827 726.053 8776.851 12165.434 7845.477 8023.660 10426.400 4980.068 5014.918 4355.696 6819.578 5436.761 10170.870 4257.939 8814.848 2757.614 14580.192 8269.373 8448.030 17645.250 6790.177 4951.944 5474.480 4471.542 19982.730 4294.256 21734.626 7429.918 273.880 7766.388 7327.768 4702.440 9382.996 5249.213 4855.894 8224.964 4931.336 19224.375 2932.005 5241.392 10206.916 11548.002 4898.045 1030.206 8776.150 5273.588 6946.194 7366.521 829.436 7842.713 7537.772 3059.200 826.114
8067.453 11051.937 20337.303 8002.468 23497.084 4972.530 11568.411 0.000 4860.544 12261.981 7074.884 12626.500 6863.321 14984.008 12589.325 5651.532 14179.098 15022.879 9896.215 8528.736 5316.904 4220.542 13769.029 11890.974 6769.822 18739.588 16980.162 7663.190 5204.068 14155.877 10248.681 16192.226 7816.397 19605.305 12755.334 21523.756 11379.672 18403.310 4083.255 16278.272 7256.269 14163.645 1660.895 14003.116 6830.216 12435.524 10229.866 7041.826 9333.955 11999.154 5313.723 7668.872 7218.690 12018.327 9836.254 10667.454 10702.304 7808.526 5625.068 14582.912 5662.237 7791.006 7576.397 10610.280 8220.862 9940.989 4695.836 8336.728 5544.784 10639.329 7769.356 12756.246 9715.375 14036.922 19828.470 6190.494 11456.696 5283.370 6516.012 9378.900 6438.834 7600.561 7284.984 5841.584 7148.502 9693.909 12483.893 15326.124 19442.174 6881.857 10585.430 10783.230 4838.879 12786.521 5769.332 17058.898 10919.148 11405.264 6131.434 12611.088 10948.037
10001.144 13080.592 16754.070 10031.122 23652.026 5935.024 13785.356 4282.495 0.000 12555.481 8214.030 12919.999 4632.904 18164.928 12837.987 8927.695 15633.543 18498.377 9872.266 11955.648 8593.067 7344.778 10580.175 13919.628 10702.766 20202.749 17206.093 11596.133 2977.737 15536.811 10518.768 19386.523 11749.341 19581.357 14783.989 21499.807 13596.617 20431.964 3865.067 16254.324 8166.027 16090.191 4898.288 14158.059 4633.028 12729.024 7759.875 8180.972 12542.221 14027.809 5879.541 11601.816 11123.853 12179.074 13769.197 11807.398 11842.370 10225.472 7151.642 17791.178 9595.180 10249.365 7200.660 12638.935 4492.249 9749.710 5658.330 4831.882 7134.363 11760.576 11196.267 14224.884 7245.384 15690.639 16245.236 7094.591 13593.494 6245.864 7478.506 10561.665 5275.848 10808.827 9313.638 6294.787 9199.082 6411.007 14410.439 18164.933 20524.040 4614.847 11725.497 13308.618 8771.822 15994.787 7031.236 18439.832 13444.535 11401.786 7035.532 14537.634 12976.691
4788.739 5581.743 18302.968 5733.938 12168.836 7616.543 5890.861 12303.957 12602.610 0.000 5699.667 463.242 10040.082 10845.414 2567.648 10015.666 3183.113 14317.013 4320.216 9756.334 10044.182 8366.029 13584.501 5235.562 13478.674 7752.320 5265.606 15158.974 10383.424 3086.382 2680.619 11754.577 15326.083 9236.950 5273.029 11709.362 5798.557 9946.882 9432.560 5827.465 5599.833 3933.255 11161.132 3142.011 10006.977 740.620 19225.586 5963.805 7704.492 5336.480 7901.596 15627.984 12415.072 2549.422 15130.988 2224.899 2275.593 6102.750 6961.205 10834.064 13621.348 6222.807 6527.013 3522.481 13193.275 4507.358 7928.819 16297.593 6981.048 2178.078 9544.328 2161.328 18711.095 3320.935 17794.135 6360.401 5650.521 7266.482 6544.333 3343.875 7874.736 9070.541 5863.713 7112.794 6236.794 17876.717 3302.585 10638.696 8148.263 10039.742 2316.375 6520.554 12226.628 10855.422 6875.234 5989.402 6319.784 2368.474 6425.602 3509.943 5297.337
2162.911 5830.138 17235.976 3021.327 16680.827 2454.150 6279.884 7114.556 7918.646 5434.770 0.000 5799.288 5422.150 11155.133 5875.305 5323.156 8097.405 13193.751 4157.554 7275.177 4988.528 3287.231 11077.219 6282.249 9206.890 12740.122 10163.905 10730.274 5765.492 8074.184 3681.607 12164.765 10883.482 13008.064 7146.609 15317.287 6187.580 12794.585 4810.813 9598.579 241.830 8081.952 5848.851 7186.859 5389.045 5608.313 14607.654 554.025 6120.543 6390.429 2807.365 10985.258 8450.123 5534.761 11529.107 4155.496 4190.347 3232.304 1551.425 11042.390 8978.622 3546.478 3083.807 4803.364 8575.344 4202.328 2739.419 11679.661 1571.268 4127.372 6515.797 6674.553 14093.164 7955.229 16727.142 1291.759 6039.545 2023.650 1197.215 2684.793 3256.805 6035.867 2266.582 2098.772 2479.827 13258.786 6402.200 11048.884 13360.481 5421.810 4073.473 6298.822 7583.902 10228.013 1465.453 10977.205 6434.740 4950.672 1411.580 6529.395 5545.733
5431.397 5595.836 19407.496 6153.417 11953.789 8493.917 5750.736 13181.331 13479.984 1202.466 6577.041 0.000 10917.456 10521.457 3050.169 10253.915 2848.230 14163.309 5354.536 9994.583 10282.431 9040.103 14479.239 4911.605 13716.923 7417.437 5050.559 15397.222 11260.798 2751.499 3679.986 11430.620 15564.331 9107.099 4949.072 11897.419 5777.166 9622.925 10309.934 6015.522 6477.207 3598.371 11835.206 3317.630 10884.351 1617.994 20102.960 6841.179 7942.741 5012.523 8778.970 15866.233 12653.320 3031.943 15369.236 3102.273 3152.967 6480.098 7838.579 10510.107 13859.597 6461.056 7404.748 3760.730 14070.649 5611.886 8806.193 17174.967 7858.422 3055.452 9782.576 1837.371 19588.469 2986.052 18898.662 7237.775 5629.130 8143.856 7421.707 4221.248 8752.110 9308.790 6308.680 7990.168 6681.761 18754.091 2978.628 10314.739 7813.380 10917.116 3193.749 6499.163 12464.877 10606.492 7752.608 5654.519 6298.393 3264.726 7302.976 3185.986 5311.430
7399.741 11066.968 13667.928 8137.029 20712.829 4260.745 11516.714 6862.195 4340.773 9784.071 5442.621 10148.590 0.000 16270.834 9898.789 9555.342 12862.133 17798.051 6561.533 11731.676 9220.713 7481.327 7073.976 11519.078 12516.978 17431.340 14266.896 13468.559 1998.894 12765.402 7747.359 17401.595 13621.767 16518.653 12383.439 17992.350 11424.410 18031.414 3388.923 13191.619 5394.617 13318.782 6770.714 11218.861 33.105 9957.615 10390.573 5409.563 11034.369 11627.259 3643.172 13474.242 12682.308 9239.876 15583.409 9035.988 9070.961 8331.378 5529.383 16158.092 11467.606 8372.343 4188.060 10040.194 3426.507 6403.857 4552.858 7462.580 5563.381 8989.167 10972.296 11453.475 9876.082 12919.230 13159.095 4616.771 11276.374 4686.729 5125.606 7790.256 2291.365 10492.366 7301.406 3941.172 7313.496 9027.526 11639.030 16270.839 17584.842 84.747 8954.087 11414.524 10644.248 14892.241 5378.966 15668.422 11550.442 8462.588 4637.914 11766.225 10782.562
9254.794 5661.178 27106.453 8553.563 16443.554 12774.491 5030.955 14860.596 17888.273 10682.679 11138.944 10614.494 16298.671 0.000 12904.880 10127.844 8386.942 4345.423 13087.592 7227.420 10508.674 11343.683 21627.838 5612.589 10384.401 7589.063 12082.475 12045.108 16246.352 8808.041 11608.112 1465.697 12242.382 16518.877 5964.107 20328.651 5267.295 5119.997 14969.408 15271.303 11011.485 7967.521 13480.006 12933.772 16265.566 10509.834 24539.201 11200.802 5722.052 5516.333 13262.400 12878.109 9075.051 12886.654 10116.255 9843.062 9877.912 8565.917 11305.128 410.562 12237.371 8356.797 13677.842 7620.607 19065.741 13132.366 12933.580 21998.056 11275.727 9814.937 8198.087 9250.540 24024.710 8263.839 26597.620 11999.298 5295.062 12251.937 11813.318 9565.434 14245.990 8137.436 9341.444 12893.348 9416.886 23437.717 7711.003 604.487 11092.354 16317.207 9761.039 4975.512 11343.520 2734.099 11431.744 8151.573 5329.867 12705.706 12125.565 7838.198 5689.108
5867.797 7703.484 17767.785 7147.909 11208.726 7748.718 8012.601 12436.132 12649.121 2581.065 5951.039 2711.556 9901.262 12988.320 0.000 10898.190 5217.884 16438.753 3845.701 11878.075 10563.562 8862.264 13109.986 7461.176 14781.923 9787.091 4711.317 16338.589 10415.541 5121.153 2525.323 13897.482 16491.797 7456.324 7498.642 9765.547 7920.298 12074.582 9479.072 4046.839 5851.204 6041.445 11336.372 1714.759 9868.157 2761.177 19257.703 6215.177 9826.233 7562.094 8033.771 16593.573 14025.157 1012.670 16818.645 3728.847 3779.540 7516.722 7212.577 12976.970 14586.937 7764.897 6052.498 5644.221 13091.806 4032.844 8060.994 16329.710 7232.420 3682.026 11327.529 4384.416 18743.212 5355.706 17258.952 6492.576 7772.262 7398.657 6676.508 4422.933 7735.917 10750.381 7020.922 7244.969 7394.003 17908.834 5528.199 12781.602 8015.387 9900.922 3820.323 8642.295 13192.217 12977.163 7126.605 8024.173 8441.525 1475.309 6557.777 5735.557 7419.078
5735.024 6767.295 22456.909 4312.149 21175.186 5662.095 7261.148 5909.618 8937.294 9804.364 5430.080 9736.179 9731.320 10359.474 11165.567 0.000 10838.777 10006.754 9447.816 3097.285 694.284 2532.376 16061.136 7606.332 3978.747 14454.946 14271.956 5659.047 8409.020 10976.242 8971.869 11542.383 5826.156 18298.326 8470.692 20607.549 7072.408 14118.668 7037.665 14888.842 5460.480 10458.322 4446.384 12379.588 9698.215 9631.519 15588.222 5381.836 5026.692 7714.513 6457.673 6128.057 3132.511 10825.023 6205.951 7997.507 8032.357 3948.470 4424.855 9933.069 4121.421 3723.485 8209.052 6947.851 12234.394 9492.591 5678.578 13047.078 4344.571 7969.383 2337.905 9612.258 15073.732 10397.572 21948.076 5866.694 7149.433 5139.541 5431.320 7118.888 8240.722 2176.741 4897.499 6563.608 4404.879 14486.739 8809.290 10793.514 16298.186 9749.856 7915.484 6475.967 2726.701 7945.318 4716.044 13783.745 6611.884 10240.934 5979.883 8936.485 6663.395
6338.415 4924.072 21345.932 6959.527 11248.920 10415.489 4868.380 14122.815 15418.421 3170.950 8099.131 2983.800 12855.892 8751.664 5336.611 10793.443 0.000 12649.046 7292.972 9336.637 10984.994 9947.121 16417.675 4029.250 13310.112 4808.978 4225.251 15358.646 13199.234 484.881 5618.422 9612.599 15525.755 8978.072 3541.993 12523.162 4986.907 7256.470 12248.371 6949.450 7971.672 1259.404 12742.224 4610.612 12822.787 3556.431 22041.396 8160.988 7284.795 4130.168 10717.406 15827.656 12107.353 5399.571 14783.929 4649.311 4700.005 7182.661 9259.254 8821.114 13821.020 7163.618 9343.184 4049.122 16009.086 7550.322 10700.757 19113.403 9229.853 4602.490 9124.630 1914.876 21526.906 690.502 20837.099 9176.212 4838.872 9984.989 9158.554 5411.009 10690.547 8875.000 7215.698 9928.605 7588.779 20692.528 2256.122 8544.945 5838.688 12855.552 4650.650 5708.905 12426.300 9111.908 9339.041 3046.973 5508.134 5459.699 9241.413 2009.124 4639.666
11913.821 9265.426 30028.425 10445.839 20726.999 14219.899 8868.296 15102.139 18700.010 14322.202 13230.540 14254.016 17861.917 4734.468 16544.403 10127.498 12470.357 0.000 16717.825 7161.429 10508.328 12155.420 23923.403 9520.341 8827.814 11872.508 16250.802 10408.214 17747.286 12891.456 15247.635 4234.207 10605.488 20802.322 9871.859 24612.096 8679.556 8804.866 16414.815 19356.025 13132.002 12050.936 14189.804 16920.087 17828.812 14149.356 23812.220 13204.300 7470.150 9424.085 14825.646 11241.216 8078.023 16526.177 8018.928 13482.585 13517.435 10159.218 12750.535 4556.520 10600.478 9780.569 15876.256 11260.130 20628.987 16762.599 14378.987 22809.793 12721.134 13454.460 8341.745 12995.148 23791.021 12347.254 29519.592 13814.561 8756.581 13697.345 13394.221 13195.667 16188.589 8305.152 11387.850 14526.509 10880.297 24085.206 11455.611 5169.148 15375.799 17880.453 13400.561 8071.821 10577.472 3874.025 12877.151 12435.017 8426.176 16345.229 13940.828 11582.806 9328.631
4901.904 7712.212 14397.998 6326.989 14774.357 4872.889 8021.330 9695.356 9386.843 4220.587 4078.708 4585.106 6397.736 12997.049 3960.317 9025.859 7304.977 16314.518 0.000 10977.879 8691.231 6989.933 9504.063 7744.301 12909.592 11874.184 8328.424 14466.258 7141.240 7208.245 1882.864 13906.211 14619.466 10279.630 8581.507 12194.865 7929.026 13891.273 6250.285 6952.597 3978.873 8055.118 9005.273 5280.389 6364.631 4394.131 15983.402 4342.846 9196.957 7852.482 5073.277 14721.242 12152.825 3301.404 15231.809 3688.232 3738.926 6648.304 5291.886 12985.699 12714.606 6943.977 2607.758 6102.979 9684.035 423.911 5364.792 13055.409 5311.729 3641.411 10212.202 6105.719 15468.912 7442.799 13889.164 4120.429 7780.991 5067.558 4498.827 3423.584 4461.616 9635.054 5736.006 4320.434 5970.246 14634.534 6906.276 12790.330 11646.370 6397.396 3748.239 8651.024 11319.886 12985.891 5205.915 10111.266 8450.253 2524.116 4141.572 7113.634 7427.806
6287.417 4853.717 24103.331 4819.434 20262.241 7727.201 4978.378 8683.634 11711.310 9704.411 7107.944 9636.225 11717.318 7292.351 11926.611 3087.469 9267.807 7020.260 11024.909 0.000 3468.300 5231.011 17864.404 5614.332 4305.613 12285.258 13145.642 6408.844 11107.655 9405.272 10020.426 8475.261 6596.634 17821.062 6523.263 21124.908 4789.639 11273.129 9736.300 15243.011 7138.345 8839.284 7220.400 12557.557 11684.212 9531.565 17957.011 7059.701 2656.757 5506.794 8522.780 7232.361 2912.405 11735.805 5493.328 8362.813 8397.663 4455.755 6257.838 6865.947 5562.599 4185.477 9951.163 6702.537 14484.388 11069.684 7886.290 15821.094 6228.437 8334.689 1210.792 8729.789 17442.521 8826.602 23594.498 7669.962 4866.663 7204.647 7249.622 7771.018 10043.990 1549.870 5610.447 8381.909 5102.894 17260.755 7190.252 7726.392 14902.436 11735.854 8280.790 4193.197 4167.879 4878.196 6549.027 12113.792 4329.115 11173.591 7796.228 7317.447 4996.717
5639.774 6877.744 21887.052 4325.615 21285.635 5092.238 7371.596 5215.335 8243.011 9914.813 4924.419 9846.627 9161.464 10787.193 10659.906 504.759 10949.226 10442.180 8942.155 3532.712 0.000 1962.519 15491.279 7716.781 4388.493 14565.395 14382.405 6068.792 7839.164 11086.691 8466.208 11977.810 6235.901 17792.665 8581.141 20101.888 7182.857 14229.117 6467.808 14383.180 4954.819 10568.771 3752.101 11971.460 9128.358 9741.967 14893.939 4876.175 5137.140 7824.961 5887.816 6408.988 3631.726 10319.362 6710.710 8020.716 8055.566 3949.532 3854.998 10368.496 4402.352 3833.934 7639.196 7058.299 11540.111 8986.929 5108.721 12352.794 3774.714 7992.591 2773.331 9722.707 14379.449 10508.021 21378.219 5296.837 7259.882 4569.684 4861.464 6957.900 7670.865 2612.167 4808.150 5993.751 4315.530 13792.455 8919.739 11129.309 16408.635 9180.000 7938.692 6586.415 3007.632 8380.745 4146.188 13894.193 6722.333 9735.273 5410.027 9046.934 6773.844
3846.910 6831.395 20073.528 3781.926 19672.564 3278.713 7536.159 4175.693 7044.653 8254.285 3131.555 8575.977 7347.939 11451.651 8867.043 2223.009 9958.556 12137.166 7149.291 5221.005 1888.381 0.000 13677.754 7670.432 6097.471 14519.046 13111.755 7476.325 6025.639 9935.335 6673.345 12659.869 7629.533 15999.802 8534.792 18309.024 7347.420 14182.768 4654.283 12590.317 3161.956 9943.103 2795.103 10178.597 7314.834 8244.067 13854.298 3083.312 5801.598 7778.612 4074.292 7731.309 5349.976 8526.499 8428.960 6446.911 6481.761 3737.333 2041.473 11050.555 5724.673 3719.813 5825.671 6389.738 9892.585 7194.066 3295.197 11154.437 1961.189 6418.787 4461.625 8535.704 13339.807 9816.380 19564.694 3483.313 7344.298 2756.159 3047.939 5165.037 5857.341 4068.204 3064.442 4180.226 2927.960 12733.562 8263.351 11793.767 15221.632 7366.475 6364.888 7059.421 4329.953 9254.164 2332.663 12838.356 7195.339 7942.409 3596.502 8390.546 6727.495
12510.922 16178.150 6808.545 13369.338 22574.313 10784.641 16516.661 13857.621 10595.308 13161.204 10872.946 13525.723 7035.622 21492.380 12904.601 15752.331 16245.594 23586.115 9455.222 17861.130 15417.702 13678.316 0.000 16239.633 19497.279 20814.800 17272.707 20463.985 8994.320 16148.862 10823.481 22401.542 20617.193 17907.974 17076.838 18385.263 16424.357 22631.200 10364.106 16113.717 10773.112 16865.139 13766.140 14224.673 7068.727 13334.747 13505.746 11013.991 16468.554 16347.813 10565.793 20469.668 18879.297 12245.688 21958.281 12506.697 12541.670 13580.315 11697.284 21390.401 18463.032 13894.489 8286.241 14598.310 6338.314 9297.546 11276.544 10856.894 11717.127 12459.876 17101.750 14924.184 13194.225 16383.415 6299.712 10299.292 16276.322 11307.038 10863.744 11918.915 8909.991 16567.066 12668.018 10231.987 12902.258 11278.012 15457.998 21285.661 20590.654 7017.564 12424.796 16646.833 17639.674 20576.025 11611.312 19051.883 16782.751 11468.400 10320.435 15665.356 15893.744
4397.642 1192.676 21947.771 4474.389 14949.941 8549.167 949.820 11752.124 13795.692 5312.599 6281.792 5160.581 11554.184 5728.045 7534.800 7463.092 3991.849 9369.898 7928.909 5932.899 7674.493 7713.879 16469.156 0.000 9979.761 7039.368 7869.684 12028.295 11897.525 4129.314 6449.430 6637.208 12195.404 12622.505 1075.315 16167.595 1055.816 6703.090 10744.084 10350.761 6154.333 3563.326 10371.533 7652.869 11521.078 5139.754 20739.687 6343.650 3539.434 108.181 8951.366 12497.305 8593.085 7516.574 11174.007 4684.379 4719.229 4615.922 7079.804 5716.696 10490.669 4518.164 8567.317 2461.925 14707.377 7973.684 8708.256 17811.694 7050.403 4656.255 5794.279 3727.930 20225.197 3550.644 21438.937 7435.759 907.780 8026.613 7341.216 4406.751 9388.838 5544.649 5116.120 8230.805 5191.562 19390.819 2188.393 5521.327 9539.709 11553.844 4602.356 1777.813 9095.949 5813.080 7206.419 6699.314 1577.043 7335.626 7543.614 2315.588 1220.606
9337.348 8945.655 25795.215 7869.366 24111.171 8996.295 8938.032 6603.868 10660.704 13361.581 8974.321 13293.395 12295.555 10608.769 14709.809 4193.255 13116.737 8878.275 12992.057 4254.081 4153.449 6012.422 19201.263 9706.270 0.000 15920.356 16994.572 2492.416 10636.302 13254.202 12516.111 11417.598 2659.525 21669.992 10615.201 24151.790 8749.293 14908.226 9268.800 18433.083 9004.722 12688.214 5867.020 15936.804 12262.449 13188.735 15543.696 8926.078 6748.695 9598.731 9791.874 3246.650 1421.530 14369.265 3390.061 11554.723 11589.573 7505.686 7802.382 10182.364 2284.383 7280.702 11586.579 10505.067 13957.804 13036.832 8959.916 14126.597 7722.098 11526.599 4188.551 12578.719 15072.856 12675.532 25286.381 9244.221 8826.317 8473.741 8808.848 10783.006 11602.885 4285.878 8561.617 9941.135 8009.878 15367.041 11039.182 11042.809 18751.365 12314.091 11472.700 8141.558 2396.408 7943.126 8093.571 15748.890 8421.052 13785.175 9357.410 11166.377 8893.287
10955.064 8251.692 25960.029 11539.265 9276.425 15032.138 7841.700 18739.464 20032.517 7785.047 12715.780 7597.896 17469.989 7549.031 9741.535 14527.969 4814.468 11561.161 11907.069 12248.242 14739.370 14563.770 21031.772 7224.238 15888.873 0.000 6640.950 17966.090 17813.331 4863.680 10232.519 8210.439 18153.880 9674.542 6762.488 13830.876 8078.040 4229.120 16862.467 10041.090 12588.321 5516.994 17358.873 8690.540 17436.884 8170.527 26655.492 12777.637 10330.794 7258.092 15331.503 18789.608 14469.651 10013.668 16660.500 9263.408 9314.102 11680.798 13875.903 7618.481 17555.546 11583.041 13957.281 8655.916 20623.182 12164.419 15317.406 23727.500 13846.502 9216.587 12859.156 6531.525 26141.002 5236.434 25451.195 13790.308 7966.796 14601.638 13775.203 10027.658 15304.643 12609.525 11832.347 14542.701 12205.428 25306.624 6827.179 7261.784 4248.019 17469.649 9267.299 8749.945 16160.826 9264.784 13955.690 1932.928 8588.249 10073.795 13855.509 6541.638 8279.622
9307.811 8765.780 21029.616 10029.831 7573.574 12129.731 8757.082 16817.145 16931.029 5059.156 10213.132 4632.481 14183.170 12055.041 4444.500 14130.329 4291.035 16067.171 8127.609 13178.345 14158.845 12916.517 17391.894 7917.952 17151.820 6649.456 0.000 19200.354 14697.449 3916.836 6893.747 12755.870 19367.463 4991.919 7583.603 8570.943 8875.609 9989.927 13760.979 3435.390 10113.297 5286.497 15711.620 2967.771 14150.065 5474.685 23539.611 10477.270 11126.503 8018.869 12414.784 19669.364 15949.061 5424.712 18625.637 6958.964 7009.657 10356.512 11474.670 12124.491 17662.729 10337.470 10334.406 7637.144 17373.714 8314.752 12442.007 20611.618 11494.513 6912.142 12966.338 4872.878 23025.120 4579.204 20520.783 10873.589 8727.573 11779.670 11057.521 8077.939 12017.825 12716.708 10185.094 11625.982 10558.175 22190.742 6054.596 11767.794 4139.615 14182.830 7050.439 9597.606 16268.008 12847.180 11388.698 4972.892 9396.836 5887.351 10938.790 5897.826 8481.374
11009.701 11155.302 27021.621 9541.718 26269.286 10555.258 11080.392 7568.448 11625.284 15033.933 10646.674 14965.748 13521.960 12269.824 16382.161 5865.608 15274.852 10500.516 14664.410 6453.633 5825.802 7677.084 20427.668 11858.171 2584.893 18062.716 19152.687 0.000 11862.707 15412.317 14188.463 13039.839 404.009 23514.921 12767.102 25824.143 10891.652 16781.581 10560.535 20105.436 10677.075 14846.329 6831.600 17609.157 13488.855 14861.088 15536.326 10598.431 9040.543 11750.633 11284.205 1207.852 3953.968 16041.617 3158.246 13227.076 13261.926 9178.039 9361.345 11843.420 2414.548 8953.054 13145.543 12177.420 14922.384 14709.185 10518.879 14596.757 9281.061 13198.952 6346.667 14736.834 15543.016 14833.647 26512.787 10803.184 10968.677 10032.704 10367.811 12455.359 12894.620 6561.598 10233.970 11500.098 9682.230 15837.201 13197.297 12703.865 20909.481 13540.497 13145.053 10283.918 3363.587 9742.700 9652.535 17891.249 10638.273 15457.528 10916.374 13324.492 11051.402
7796.409 11089.373 15461.143 8039.904 21277.285 3767.402 11794.138 5117.007 2819.912 10180.739 5839.289 10545.258 1961.482 16173.710 10463.245 8015.454 13258.802 17683.855 7481.706 11013.450 7680.826 5941.439 8867.191 11915.746 10771.790 17828.008 14831.352 11723.371 0.000 13162.070 8144.027 17395.304 11876.579 17206.616 12780.107 19117.445 11605.398 18428.082 1715.409 13879.582 5791.286 13715.450 5025.526 11783.318 1928.377 10354.283 8966.319 5806.231 10920.172 12023.927 3504.800 11729.054 11007.257 9804.333 13838.221 9432.656 9467.629 8234.253 5088.220 16060.967 9722.418 8258.147 4808.990 10436.862 3919.796 7324.030 3676.049 6038.326 5070.941 9385.835 10254.069 11850.143 8451.829 13315.898 14952.309 4719.850 11602.276 4151.724 5104.479 8186.924 2840.661 9860.649 7280.279 3920.045 7207.863 7617.451 12035.698 16173.715 18149.299 1980.019 9350.756 11317.399 8899.060 14778.045 4967.814 16065.091 11453.317 9027.044 4660.790 12162.893 10985.473
6563.296 5272.491 21570.813 7285.315 10907.395 10640.370 5216.800 14347.695 15643.301 3395.831 8324.011 3208.680 13080.773 9114.236 5245.725 11141.863 583.740 13065.677 7517.853 9685.056 11333.414 10172.002 16642.556 4377.669 13658.532 4780.118 3819.776 15707.065 13424.115 0.000 5843.303 9842.422 15874.174 8776.446 4043.321 12343.221 5335.327 7384.835 12473.251 6769.509 8196.552 1746.215 12967.105 4519.725 13047.668 3781.311 22266.277 8385.869 7633.214 4478.587 10942.287 16176.076 12455.772 5624.452 15132.348 4874.192 4924.886 7531.080 9484.134 9183.686 14169.440 7512.038 9568.065 4397.542 16233.966 7775.203 10925.638 19338.284 9454.734 4827.371 9473.050 2139.756 21751.786 1038.922 21061.979 9401.092 5187.291 10209.870 9383.435 5635.889 10915.427 9223.420 7440.578 10153.485 7813.660 20917.409 2604.541 8854.346 5497.163 13080.433 4875.530 6057.324 12774.720 9613.236 9563.922 3017.200 5856.554 5684.579 9466.293 2357.543 4988.085
3976.345 6502.239 16071.552 5340.467 13379.906 5401.621 6811.357 10089.035 10350.592 2620.291 3761.828 2984.809 7671.024 11787.075 2543.154 8708.979 5704.680 15237.509 1888.980 10191.973 8374.350 6673.053 11003.473 6534.328 12592.712 10273.887 6862.984 14149.378 8131.405 5607.949 0.000 12696.238 14302.586 9651.131 7124.338 11960.354 6719.053 12330.563 7180.542 6241.646 3661.993 6454.822 8989.275 3885.939 7637.919 2793.834 16973.567 4025.966 8210.435 6642.509 5686.674 14404.362 11835.945 1972.155 14914.929 2127.522 2178.215 5709.280 5023.366 11775.725 12397.726 5957.455 3945.985 4893.005 10861.568 2200.183 5713.897 14045.574 5043.209 2080.701 9520.087 4545.008 16459.077 5842.502 15562.719 4145.479 6571.017 5051.560 4329.411 2498.025 5505.678 8942.940 4952.348 4897.872 5408.762 15624.699 5345.565 11580.357 10167.054 7670.684 2187.529 7441.050 11003.005 11775.918 4937.394 8510.969 7240.280 1387.447 4210.681 5552.923 6217.833
10424.366 6830.749 28276.025 9709.117 17183.897 14002.227 6200.526 16016.150 19043.826 11852.251 12308.516 11784.065 17526.407 1392.814 14074.452 11283.398 9233.209 3955.536 14257.163 8382.973 11664.228 12499.237 22797.410 6782.161 11243.978 8329.406 12822.818 12824.377 17474.088 9654.308 12777.684 0.000 13021.652 17259.220 7093.014 21068.994 6436.867 4943.367 16197.144 16011.646 12181.057 8837.231 14635.560 13780.039 17493.302 11679.405 25694.755 12370.374 6877.605 6685.905 14490.136 13657.379 10230.605 14056.226 10895.525 11012.634 11047.484 9721.471 12532.864 1707.356 13016.641 9512.350 14847.413 8790.179 20293.477 14301.938 14161.316 23153.610 12503.463 10984.509 9353.641 10234.534 25180.264 9133.550 27767.191 13227.034 6464.633 13479.673 13041.054 10735.006 15415.562 9292.990 10569.180 14121.084 10613.847 24593.271 8880.575 1438.619 11832.697 17544.943 10930.610 6222.842 12499.074 3848.046 12659.480 8891.915 6514.357 13875.278 13353.301 9007.770 6858.679
11140.267 11285.868 27152.186 9672.284 26399.852 10685.824 11217.208 7699.014 11755.849 15164.499 10777.240 15096.313 13652.526 12406.641 16512.727 5996.174 15405.418 10637.333 14794.976 6590.450 5956.367 7807.650 20558.234 11994.988 2721.709 18199.533 19283.253 264.208 11993.273 15542.883 14319.029 13176.656 0.000 23645.486 12903.919 25954.709 11028.469 16918.397 10691.101 20236.001 10807.640 14976.895 6962.166 17739.723 13619.421 14991.653 15568.041 10728.996 9177.360 11887.450 11414.770 915.358 4090.785 16172.183 3027.470 13357.642 13392.492 9308.604 9491.911 11980.237 2462.642 9083.620 13276.108 12307.985 15052.949 14839.750 10649.445 14628.473 9411.627 13329.517 6477.232 14867.400 15574.732 14964.213 26643.353 10933.750 11105.494 10163.270 10498.376 12585.924 13025.185 6692.163 10364.536 11630.664 9812.796 15868.916 13327.863 12840.682 21040.046 13671.062 13275.618 10420.734 3494.153 9879.517 9783.100 18028.066 10775.089 15588.094 11046.939 13455.058 11181.968
12992.792 13697.156 20012.859 14176.326 4686.568 14810.059 13756.142 19550.918 19503.611 9243.695 13076.034 8978.978 16641.493 16526.003 7307.402 18023.185 9353.561 20538.133 10431.904 18109.721 17688.557 15987.259 17593.183 12917.012 21906.918 9637.762 5441.407 23463.584 17265.607 8979.362 9640.110 17219.442 23616.792 0.000 12646.128 4469.768 13874.669 13723.252 16333.561 3899.932 12976.199 10342.681 18451.158 6107.355 16608.388 9579.528 26107.769 13340.172 16057.879 13017.929 15010.448 23718.568 20876.231 8127.456 23557.013 10616.844 10667.537 14545.138 14337.572 16595.453 21711.932 14683.966 12851.515 11983.640 19927.791 10619.047 15175.780 23179.776 14357.415 10570.023 17897.715 9718.350 25593.278 9641.730 19504.025 13607.363 13726.634 14513.443 13791.295 11547.928 14585.983 17531.700 14145.916 14257.604 14518.998 24758.901 10985.973 16238.756 6075.187 16641.153 10708.320 14596.667 20317.212 17892.414 14251.600 8933.696 14395.896 8590.095 13672.564 10896.886 13412.750
5148.984 1954.292 22699.112 5225.730 14398.794 9300.508 1698.904 12503.465 14547.034 5337.258 7033.134 5185.239 12305.525 6031.610 7559.458 8214.433 3530.465 9673.463 8680.250 6694.514 8425.835 8465.221 17220.497 926.837 10731.102 6555.614 7541.862 12779.636 12648.867 3951.565 7030.828 6940.773 12946.745 12444.755 0.000 15989.845 1817.431 6219.336 11495.425 10375.420 6905.675 3035.230 11122.875 7677.528 12272.420 5164.412 21491.029 7094.992 4301.049 960.692 9702.707 13248.646 9354.700 7541.232 11935.623 5340.974 5375.824 5367.263 7831.145 6020.261 11242.011 5269.506 9318.658 3025.273 15458.718 8725.025 9459.597 18563.036 7801.744 5312.849 6545.620 3752.588 20976.538 3331.548 22190.279 8187.101 1669.396 8777.955 8092.557 5158.093 10140.180 6295.990 5867.461 8982.147 5942.903 20142.161 2213.051 5824.892 8988.562 12305.185 5258.950 2539.429 9847.290 6116.645 7957.761 6148.167 2338.658 7360.284 8294.955 2340.246 1982.222
14624.169 16230.332 19153.692 15904.281 6499.954 15648.993 16385.232 20471.460 20342.545 11093.914 14707.411 11105.967 16895.677 19565.337 8938.779 19654.562 12345.915 23577.467 11270.838 20472.858 19319.934 17618.636 16734.016 15546.102 23538.296 12677.096 8433.761 25094.962 17965.045 11971.716 11099.095 20258.776 25248.169 3333.529 15546.929 0.000 16411.663 16762.585 17172.495 5750.152 14607.577 13228.270 19701.464 8204.123 16872.800 11429.747 26848.801 14971.549 18421.016 15647.020 15849.381 25349.945 22781.529 9728.624 25575.018 12467.063 12517.757 16273.094 15961.255 19634.787 23343.309 16521.269 13687.091 14239.004 19809.145 11457.981 16140.896 23920.808 15981.097 12420.242 20083.901 12425.201 26334.311 12542.530 18644.859 14833.095 16263.627 15763.749 15195.018 13179.305 15424.916 19506.754 15777.294 15096.538 16150.375 25499.933 13613.125 19278.090 9114.521 16877.619 12558.539 17133.660 21948.589 20902.059 15875.283 11973.030 16932.890 9827.626 14854.238 13782.474 15945.927
4302.611 708.995 22154.271 3999.636 15837.927 8074.414 232.675 11242.161 13320.940 5730.497 6186.762 5662.311 11459.153 5384.726 7952.698 6953.129 4941.460 8612.138 8135.409 4970.764 7164.530 7239.127 16675.656 1054.370 9050.173 7927.354 8819.295 11127.389 11546.275 5078.926 6655.930 6293.888 11315.180 13494.715 1963.301 16908.170 0.000 7591.076 10269.331 11026.274 6059.303 4512.937 9861.570 8328.382 11426.048 5557.651 20282.693 6248.619 2577.300 946.831 8562.324 11950.907 7630.950 7934.471 10211.873 4890.879 4925.729 4141.169 6605.051 5351.303 9956.343 4043.412 8725.659 2668.425 14365.664 8180.184 8233.503 17430.723 6575.650 4862.755 5259.953 4403.442 19768.203 4500.255 21645.437 7299.222 150.574 7551.860 7113.241 4613.251 9293.807 5034.686 4641.367 8135.775 4716.809 19009.848 2863.905 5178.007 10427.695 11458.813 4808.856 815.679 8561.622 5150.547 6731.667 7587.300 614.909 7753.524 7425.488 2991.100 736.925
10939.511 7671.366 28085.756 11016.258 13287.263 15091.036 7041.143 18293.993 20337.562 9910.774 12823.662 9723.624 18096.053 4875.154 12130.915 14004.961 7077.238 8656.496 13960.590 11163.918 14216.362 14255.748 22861.072 6701.230 14685.319 4113.358 9978.792 16511.168 18439.395 7409.868 12286.040 4938.672 16708.442 13704.797 6239.481 17861.131 7277.483 0.000 17285.953 13378.932 12696.203 6681.260 16913.403 11584.759 18062.948 10202.525 27281.557 12885.519 9349.631 6735.085 15493.235 17344.170 13375.969 12139.395 14666.162 10871.351 10906.201 11157.791 13621.673 4962.027 16674.739 11060.034 15109.186 8950.334 21249.246 14271.793 15250.125 24353.564 13592.272 10843.227 12134.585 8078.563 26767.066 6977.579 27576.923 13977.629 7305.250 14568.482 13883.085 10948.621 15930.707 12073.934 11657.989 14772.675 11733.431 25932.688 7564.298 4546.996 8278.274 18095.713 10789.328 7913.066 15280.018 7270.446 13748.289 5537.079 7787.692 12199.523 14085.483 7278.758 7699.296
6706.241 9857.892 16892.692 6808.423 20337.636 2538.960 10562.657 4047.758 3759.685 9241.090 4899.640 9605.609 3411.578 14942.229 9523.596 6673.795 12319.152 16452.374 6557.875 9671.791 6339.167 4599.781 10298.740 10696.929 9430.131 16888.359 13891.703 10559.230 1763.932 12222.421 7204.378 16163.823 10712.437 16266.966 11561.289 18185.416 10373.917 17209.265 0.000 12939.933 4851.636 12775.801 3956.277 10843.668 3378.473 9414.633 10341.049 4866.582 9688.691 10805.110 2394.084 10564.912 9665.599 8864.683 12496.562 8493.007 8527.980 7002.772 3856.739 14829.486 8558.277 7026.666 3886.270 9416.235 5630.878 6435.320 2363.428 7413.056 3839.460 8446.186 8912.411 10910.494 9826.559 12376.249 16383.858 3780.200 10370.795 2923.282 4164.830 7247.275 2532.442 8518.990 6090.939 2980.396 5976.382 8992.181 11096.049 14942.234 17209.649 3430.115 8411.106 10085.918 7662.613 13546.564 3736.333 15125.441 10221.836 8087.395 3721.141 11223.244 9753.992
9598.475 10985.796 18129.650 10782.008 8521.576 11327.775 11140.696 16150.243 16021.327 5849.377 9681.716 5861.431 13159.209 15153.541 3913.085 14628.867 7140.385 19104.982 6949.620 15228.321 14294.239 12592.942 15709.974 10301.565 18512.601 9988.499 3470.339 20069.267 13783.323 6834.260 6245.792 15881.727 20222.475 3891.629 10302.392 6359.458 11167.126 13328.970 12851.277 0.000 9581.882 7983.733 15056.841 2959.587 13126.103 6185.210 22625.484 9945.854 13176.479 10402.483 11528.163 20324.250 17696.375 4733.139 20452.745 7222.527 7273.220 11150.821 10943.255 15222.991 18317.615 11398.996 9369.230 8994.467 16445.507 7136.763 11781.463 19697.491 10963.097 7175.705 14961.629 7180.665 22110.994 7297.994 17620.816 10213.045 11019.090 11119.126 10396.977 8153.611 11103.698 14384.481 10751.599 10775.320 11124.681 21276.616 8368.588 14893.652 7433.635 13158.868 7314.002 11889.123 16922.894 15787.336 10857.283 8311.935 11688.353 5195.778 10278.246 8537.937 10701.390
2042.699 5709.926 17237.942 2901.115 16682.793 2640.573 6159.672 7300.979 8091.833 5436.736 480.969 5801.255 5529.305 11034.920 5877.272 5202.944 7977.192 13073.538 4159.520 7154.964 4868.316 3167.018 11132.921 6162.036 9086.677 12619.910 10165.872 10643.343 5872.647 7953.972 3683.574 12044.553 10796.551 13010.031 7026.397 15319.254 6067.368 12674.372 4921.784 9600.546 0.000 7961.740 5962.121 7188.826 5496.200 5610.280 14714.809 542.827 6000.331 6270.217 2993.788 10898.327 8329.910 5536.728 11408.894 4035.284 4070.134 3112.091 1760.489 10922.178 8891.691 3426.266 3085.774 4683.152 8682.498 4204.295 2925.841 11786.816 1780.332 4007.159 6395.584 6554.341 14200.319 7835.017 16729.109 1433.996 5919.332 2210.073 1383.638 2564.580 3363.960 5915.654 2146.370 2205.927 2359.614 13365.941 6281.988 10928.672 13240.269 5528.965 3953.261 6178.610 7496.971 10107.801 1674.517 10856.992 6314.528 4952.639 1518.735 6409.183 5425.520
6214.617 4467.490 21615.780 6622.478 11927.775 10345.052 4404.448 13999.017 15646.525 3440.798 8028.694 3253.648 13083.997 8173.579 5660.939 10336.862 933.340 12070.961 7562.820 8880.055 10548.263 9823.323 16687.523 3572.668 12853.530 5453.389 4811.175 14902.064 13427.339 1070.806 5888.270 9034.514 15069.173 9563.996 2963.908 13109.086 4530.326 6678.385 12476.475 7535.374 7901.235 0.000 12618.426 5196.536 13050.891 3826.278 22269.500 8090.552 6828.213 3673.586 10698.267 15371.075 11650.771 5669.419 14327.347 4761.773 4796.623 6845.611 9135.456 8243.029 13364.439 6826.569 9571.289 3712.073 16237.190 7820.170 10630.321 19341.507 9106.055 4733.649 8668.048 1943.976 21755.010 296.318 21106.946 9182.661 4382.290 9914.552 9088.118 5440.109 10918.651 8418.418 7091.900 9977.707 7339.651 20920.632 1838.083 7966.860 6567.969 13083.657 4679.750 5252.323 11969.718 8533.823 9215.243 3878.308 5051.553 5729.547 9290.515 1552.542 4183.084
6686.862 9671.347 20335.350 6621.877 22202.760 4279.664 10187.820 1583.125 4939.013 10956.703 5694.293 11321.221 6835.689 13603.417 11350.040 4198.065 12798.507 13671.641 9182.940 7161.368 3863.437 2839.952 13741.397 10510.383 5876.030 17358.997 15685.838 6769.398 5176.436 12775.287 9009.396 14811.636 6922.605 18458.017 11374.744 20767.240 9999.081 17022.719 3960.102 15048.532 5875.678 12783.055 0.000 12708.792 6802.584 11084.019 11362.558 5661.235 7953.365 10618.564 4683.772 6775.080 6297.118 10779.042 8942.462 9286.863 9321.713 6427.936 4244.477 13202.322 4768.445 6410.416 6946.446 9229.690 8236.113 9227.715 4002.970 8903.893 4164.193 9258.739 6401.987 11375.656 10848.068 12656.332 19826.516 5181.606 10076.106 4084.503 5195.391 7998.309 6294.187 6219.970 5904.393 5148.718 5767.912 10261.075 11103.303 13945.533 18061.584 6854.226 9204.840 9402.639 3945.087 11405.931 4388.742 15678.307 9538.557 10194.334 5140.153 11230.498 9567.446
6970.431 8298.806 18989.948 8095.019 9493.967 9161.960 8453.706 13849.373 13963.258 3162.388 7245.361 3174.441 11215.399 13217.004 1476.729 12192.512 4845.326 16866.280 5159.838 12541.331 11857.883 10156.586 14424.123 7614.576 15923.352 8639.690 3048.034 17603.652 11729.677 4693.036 3925.975 14077.939 17770.761 6436.380 7652.042 8908.791 8480.136 11623.300 10793.208 3026.895 7145.526 5688.674 12749.614 0.000 11182.294 3498.221 20571.839 7509.499 10489.489 7715.493 9447.013 17887.894 15009.385 2456.941 17765.755 4535.537 4586.230 8463.831 8506.899 13213.078 15881.259 8712.006 7366.635 6307.477 14405.943 5346.981 9474.236 17643.846 8526.742 4488.716 12274.639 4537.816 20057.349 5002.934 18481.114 7905.818 8332.101 8811.899 8089.750 5525.566 9050.053 11697.491 8091.796 8658.211 8464.877 19222.971 5681.599 13010.285 6478.241 11215.059 4627.013 9202.134 14486.538 13309.462 8420.927 6959.776 9001.363 2919.580 7971.019 5888.957 8014.400
7432.846 11100.074 13701.034 8170.134 20745.934 4293.851 11549.819 6890.794 4307.668 9817.177 5475.726 10181.695 33.105 16303.940 9931.894 9588.447 12895.239 17831.157 6594.639 11764.782 9253.819 7514.432 7107.082 11552.184 12545.576 17464.445 14300.001 13497.157 2027.493 12798.507 7780.464 17434.700 13650.365 16551.758 12416.544 18025.456 11457.516 18064.520 3417.521 13224.725 5427.723 13351.887 6799.312 11251.967 0.000 9990.720 10357.467 5442.668 11067.474 11660.364 3676.277 13502.840 12715.414 9272.982 15612.007 9069.094 9104.066 8364.483 5562.489 16191.197 11496.204 8405.448 4221.165 10073.299 3393.402 6436.962 4585.963 7429.474 5596.486 9022.272 11005.401 11486.580 9842.977 12952.335 13192.200 4649.876 11309.480 4719.834 5158.711 7823.361 2324.471 10525.472 7334.511 3974.277 7346.602 8994.420 11672.135 16303.945 17617.948 51.642 8987.193 11447.629 10672.847 14925.347 5412.071 15701.528 11583.547 8495.693 4671.020 11799.330 10815.668
4732.844 5319.907 18654.250 5572.277 12406.614 7740.671 5629.025 12428.085 12726.738 643.545 5823.795 695.928 10164.210 10604.743 2967.190 9753.830 3385.291 14055.177 4601.290 9494.498 9782.346 8458.963 13725.993 5154.836 13216.838 7954.497 5503.384 14897.137 10507.552 3288.559 2926.740 11513.906 15064.246 9559.924 5192.302 12198.887 5536.721 9866.156 9556.688 6316.990 5723.961 4100.095 11254.066 3631.536 10131.105 0.000 19349.713 6087.933 7442.656 5255.754 8025.724 15366.148 12153.236 2948.964 14869.152 2208.649 2259.342 5941.090 7085.333 10593.394 13359.512 5960.971 6651.502 3260.645 13317.403 4858.640 8052.947 16421.720 7105.176 2161.828 9282.492 2080.602 18835.223 3523.112 18145.416 6484.529 5388.685 7390.610 6668.461 3468.002 7998.864 8808.705 5727.540 7236.922 6100.621 18000.845 3221.859 10398.025 8350.441 10163.870 2300.125 6258.718 11964.792 10593.586 6999.362 6191.580 6057.948 2768.016 6549.730 3429.217 5035.501
16713.829 19929.278 18064.908 16879.809 30194.705 12684.822 20634.043 10080.055 8092.218 19098.159 14756.709 19462.678 10584.433 24739.971 19380.665 15475.393 22176.221 23751.982 16399.126 17662.117 15140.764 13976.506 13437.665 20768.315 15198.409 26745.428 23748.772 15553.927 9043.649 22079.490 17061.447 25948.190 15628.992 26124.035 21632.676 28042.486 20445.304 27280.651 10420.240 22797.002 14708.705 22632.870 11445.985 20700.737 10584.556 19271.702 0.000 14723.651 19089.919 20876.496 12422.220 15298.621 16025.917 18721.752 18188.020 18350.076 18385.049 17074.159 14005.640 24338.876 13307.938 17098.052 13726.409 19354.282 9235.646 16241.450 12565.657 3826.013 13988.361 18303.255 16902.737 20767.563 737.547 22233.318 17556.075 13637.270 20442.181 13069.144 14021.899 17104.344 11758.081 17117.668 16162.325 12837.465 16047.768 2638.351 20953.118 25013.620 27066.718 10566.375 18268.175 20157.304 13646.106 22366.224 13885.234 24982.510 20293.222 17944.464 13578.210 21080.313 19825.378
2277.062 5944.289 17416.938 2959.082 16861.789 2635.112 6394.035 7141.634 8099.608 5615.732 180.962 5980.251 5603.113 11092.887 6056.267 5001.866 8211.556 13020.262 4338.516 6953.887 4667.238 2965.941 11258.181 6396.400 8885.600 12854.273 10344.867 10442.266 5946.454 8188.335 3862.569 12278.916 10595.474 13189.027 7260.760 15498.249 6301.732 12908.736 4991.775 9779.542 422.792 8196.103 5761.044 7367.821 5570.007 5789.275 14788.616 0.000 6058.298 6504.580 2988.327 10697.249 8128.833 5715.723 11207.817 4269.647 4304.498 3165.615 1732.387 10980.145 8690.614 3484.233 3264.769 4917.515 8756.306 4383.291 2920.381 11860.623 1752.230 4241.523 6194.507 6788.704 14274.126 8069.380 16908.104 1472.721 6153.696 2204.612 1378.178 2798.944 3437.767 5714.577 2135.642 2279.734 2348.887 13439.748 6516.351 11092.892 13474.632 5602.772 4187.624 6236.577 7295.893 10114.452 1646.415 11091.356 6372.495 5131.634 1592.542 6643.546 5659.884
4834.823 2388.447 22960.472 3377.319 17808.570 7734.147 2513.108 9709.797 12737.473 7603.172 6269.406 7534.986 11258.327 5856.595 9825.372 5404.678 6814.135 7581.310 9606.660 3185.732 5632.166 6192.883 16855.450 3149.062 7302.270 10022.046 10691.970 9499.067 11206.008 6951.600 8252.699 7064.814 9686.857 15367.390 4057.993 18780.845 2324.369 9616.577 9929.064 12898.949 6141.947 6385.612 8329.206 10201.057 11225.221 7430.326 19388.401 6264.062 0.000 3041.524 8222.056 10177.947 5956.448 9807.146 8583.550 6487.648 6522.498 3389.673 6264.783 5455.499 8171.311 3180.553 8808.303 4541.100 14025.397 9651.435 7893.235 16847.256 6235.383 6459.524 3474.921 6276.117 18873.911 6372.930 22451.638 6958.954 2401.393 7211.593 6772.973 6084.502 9315.189 3414.270 4327.932 7853.004 4282.049 18286.917 4736.580 6198.711 12448.764 11276.863 6405.625 1590.706 6776.590 4631.707 6391.399 9681.992 1863.845 9405.863 7085.221 4863.775 2531.448
4505.823 1085.915 22055.951 4582.569 14983.796 8657.348 843.058 11860.304 13903.873 5420.780 6389.973 5268.762 11662.364 5621.284 7642.981 7571.273 4100.030 9263.136 8037.090 5826.137 7782.674 7822.060 16577.336 108.181 9905.545 7073.222 7977.865 11982.762 12005.706 4237.495 6557.611 6530.447 12170.553 12730.686 1109.169 16275.776 949.055 6736.944 10852.264 10458.942 6262.514 3671.507 10479.714 7761.050 11629.259 5247.934 20847.868 6451.831 3432.672 0.000 9059.546 12605.486 8486.323 7624.754 11067.246 4792.560 4827.410 4724.102 7187.984 5609.934 10598.850 4626.345 8675.498 2570.105 14815.558 8081.864 8816.436 17919.875 7158.584 4764.435 5902.460 3836.111 20333.378 3658.825 21547.118 7543.940 801.019 8134.794 7449.397 4514.932 9497.019 5652.829 5224.300 8338.986 5299.743 19499.000 2296.574 5414.566 9573.564 11662.024 4710.537 1671.052 9204.130 5706.319 7314.600 6733.169 1470.282 7443.807 7651.794 2423.769 1113.845
4841.019 8151.459 16957.861 5101.989 19027.602 936.538 8856.223 5250.100 5601.579 7792.499 2880.720 8157.018 3833.122 13235.795 8119.843 6190.526 10870.561 14763.012 5307.148 8451.683 5855.897 4116.511 10455.648 8990.495 9725.993 15439.768 12510.680 11104.848 3382.393 10773.830 5779.199 14457.390 11258.056 15016.239 9854.856 16934.689 8667.484 15502.831 2275.411 11689.205 3011.238 10935.402 4572.150 9533.634 3800.017 7966.042 12224.555 2847.662 7999.329 9098.676 0.000 11151.616 9317.492 7548.845 12396.476 6924.820 6959.670 5296.339 2258.409 13123.052 9144.980 5337.304 2818.069 7600.028 6600.192 5351.923 1188.042 9296.562 2241.130 6896.696 7692.303 9461.903 11710.064 10807.940 16449.027 1705.937 8664.361 1321.913 2090.567 5445.491 2630.834 7212.373 4266.366 939.563 4278.457 10875.686 9255.650 13235.800 15814.750 3851.658 6842.797 8379.484 7958.475 11857.202 2138.003 13676.850 8515.402 6816.198 1646.878 9382.845 8047.558
11345.632 11673.376 26962.808 9877.649 26740.686 10628.117 11968.780 7509.635 11566.471 15369.864 10881.498 15301.678 13463.147 13202.394 16586.964 6201.539 15792.925 11433.086 14814.479 7298.161 6161.733 7749.942 20368.856 12512.412 3337.125 18951.105 19670.760 1251.760 11803.894 15930.390 14393.266 13972.409 991.978 23719.723 13376.773 26028.946 11780.041 17714.150 10501.722 20310.238 10911.898 15364.402 6772.787 17898.518 13430.042 15197.019 15201.760 10833.254 9792.775 12565.887 11225.392 0.000 4728.097 16195.731 3701.857 13563.007 13597.857 9513.970 9434.203 12775.990 2096.361 9288.985 13218.401 12513.350 14863.571 14859.253 10544.590 14262.192 9353.919 13534.883 6864.740 15177.758 15208.451 15351.720 26453.974 10876.042 11857.066 10105.563 10440.669 12791.290 12835.807 7079.671 10569.901 11572.956 10018.161 15502.635 13715.370 13636.435 21427.554 13481.684 13480.984 11172.306 3436.445 10675.270 9725.393 18737.893 11388.208 15611.023 10989.232 13842.565 11569.475
8286.965 7894.921 25077.926 6818.983 23060.437 8283.111 7791.676 7024.117 11041.096 12311.198 8115.292 12243.012 12352.337 9719.628 13850.780 3263.410 12066.002 8451.612 12133.028 3164.917 3294.420 5153.392 18682.152 8569.455 1444.989 14774.000 15943.838 3824.259 10739.343 12203.468 11657.081 10902.538 3995.792 20619.258 9478.386 23292.761 7602.936 13761.870 9371.842 17571.876 8145.693 11637.480 6228.092 14886.421 12319.232 12138.352 16288.581 8067.049 5697.961 8461.917 9078.690 4582.917 0.000 13510.235 3615.219 10504.340 10539.191 6455.303 7045.871 9293.224 3424.045 6230.319 10830.069 9454.684 14338.196 12177.803 8299.595 14827.832 6965.587 10476.216 3137.817 11527.985 15774.091 11624.797 24569.092 8487.710 7679.961 7760.557 8052.337 9740.131 10861.738 3235.144 7518.742 9184.624 6967.002 16068.276 9988.447 10153.669 17700.631 12370.873 10422.317 6995.201 2499.449 7053.985 7337.061 14602.533 7349.556 12926.146 8600.900 10115.643 7842.553
5743.590 7741.820 17043.451 7023.702 11840.751 7142.707 8050.938 11878.836 11864.118 2619.401 5696.936 2749.892 9116.259 13026.656 887.616 10644.087 5511.712 16477.090 3060.698 11875.207 10309.459 8608.161 12324.983 7564.161 14527.821 10080.918 5345.893 16084.487 9630.537 5414.980 2041.168 13935.819 16237.695 7992.714 7601.627 10301.936 7958.634 12275.481 8694.068 4583.229 5597.102 6261.853 10779.076 2346.784 9083.153 2799.514 18472.699 5961.074 9864.569 7665.078 7343.096 16339.470 13771.054 0.000 16694.438 3767.183 3817.877 7392.514 6910.115 13015.306 14332.834 7640.689 5267.495 5682.558 12306.802 3247.841 7503.698 15544.706 6929.958 3720.362 11203.322 4489.926 17958.209 5649.533 16534.617 5935.280 7810.598 6841.361 6192.353 4298.726 6950.913 10626.174 6891.892 6590.252 7269.796 17123.831 5631.183 12819.938 8649.963 9115.919 3858.659 8680.631 12938.114 13015.499 6824.143 8318.001 8479.861 769.699 6000.481 5838.542 7457.414
11130.416 10304.767 28414.819 9662.433 25482.093 11620.004 10139.025 9730.252 13787.087 15148.034 11452.185 15079.848 15421.938 10257.077 16806.862 6545.612 14711.430 8158.641 15469.921 5517.407 6631.313 8490.285 22019.045 10916.805 3258.124 16743.103 18589.265 3112.080 13762.685 14848.895 14898.155 11027.091 3245.910 23264.685 11825.736 26248.844 9950.286 14817.760 12395.183 20415.326 11482.585 14282.907 8993.404 17729.872 15388.833 14975.188 18149.653 11403.941 8107.806 10809.267 12415.583 3798.434 3508.734 16613.534 0.000 13347.791 13382.641 9298.754 10382.764 9830.672 5027.874 9073.769 14166.962 12146.160 17084.187 15514.695 11636.488 17210.084 10302.480 13319.667 6062.391 14173.412 18156.343 14270.225 27905.985 11824.603 10027.311 11097.450 11389.230 12648.747 14198.631 6078.595 10453.446 12521.517 9945.893 18450.528 12633.875 10691.117 20071.861 15440.474 13265.768 9342.551 5522.791 7729.952 10673.954 16833.858 9696.906 16051.320 11937.793 12761.070 10447.767
3172.613 4898.042 18025.104 4112.905 13917.568 6941.165 5207.160 11130.439 11927.232 2088.221 4673.857 2444.199 9364.704 10182.879 3909.130 8399.648 4414.326 13633.312 3822.156 8607.138 8427.890 6954.746 12946.859 4930.132 11862.656 9057.044 7251.655 13542.955 9708.045 4391.106 2147.606 11092.041 13710.064 10796.247 5161.613 13268.659 5114.856 10548.700 8757.182 7386.762 4546.398 4782.639 9749.849 4701.308 9331.598 1915.376 18550.207 4735.715 6625.600 5038.312 7226.218 14011.966 10948.689 3862.986 13705.059 0.000 153.070 4481.718 6050.397 10171.529 12005.330 4651.310 5851.996 3139.150 12517.897 4133.360 7253.441 15622.214 6034.531 441.461 8213.943 2991.475 18035.717 4307.439 17516.270 5685.023 4966.821 6559.715 5733.281 2001.719 7199.358 7636.795 4223.322 6437.416 4596.404 17201.339 3375.497 9976.161 9677.403 9364.364 91.476 5836.854 10610.610 10171.722 5983.266 7294.126 5636.084 3300.771 5750.224 3582.855 4613.637
3019.543 5031.864 17872.034 4073.475 13764.498 6788.095 5340.982 10977.369 11774.162 1935.151 4520.787 2291.129 9211.634 10316.701 3756.060 8438.801 4349.491 13767.134 3669.086 8740.960 8342.631 6801.676 12793.789 5034.644 11901.809 8992.208 7098.585 13582.109 9554.975 4326.270 1994.536 11225.863 13749.218 10643.177 5096.778 13115.589 5248.678 10483.864 8604.112 7233.692 4393.328 4717.803 9596.779 4548.238 9178.528 1762.306 18397.137 4582.645 6759.422 5135.562 7073.148 14051.119 10987.842 3709.916 13744.212 335.212 0.000 4442.288 5897.327 10305.351 12044.483 4690.463 5698.926 3092.419 12364.827 3980.290 7100.371 15469.144 5881.461 288.391 8253.096 2926.639 17882.647 4242.603 17363.200 5531.953 5100.643 6406.645 5580.211 1848.649 7046.288 7675.948 4070.252 6284.346 4443.334 17048.269 3310.662 10109.982 9566.475 9211.294 426.688 5970.676 10649.763 10305.543 5830.196 7229.291 5769.905 3147.701 5597.154 3518.020 4747.458
1853.808 3574.335 19959.235 376.082 17478.657 4597.181 4279.100 7517.009 9830.885 6041.185 3247.760 6039.649 8216.191 8584.047 7530.254 4163.128 7170.193 10204.942 6880.813 4685.768 4014.283 3341.315 13854.213 4413.372 7626.135 11261.986 10575.427 9306.435 8124.568 7307.658 5621.547 9792.266 9473.544 14548.203 5277.733 16972.236 4090.361 10925.708 6792.097 11138.718 3140.710 6850.511 6136.418 8453.264 8183.085 5868.339 16792.638 3221.926 3251.689 4521.553 5179.920 9775.445 6739.797 7336.926 9496.167 4071.183 4106.033 0.000 3127.817 8182.951 7768.810 485.750 5807.066 3279.266 10983.261 6925.588 4756.269 13940.668 3098.416 4043.059 4005.050 5943.674 16278.148 6728.988 19450.401 3916.818 4087.238 4074.627 3730.837 3372.139 6273.053 3427.903 1326.695 4810.868 999.162 15519.793 5170.758 8658.677 12629.602 8234.727 3989.160 3802.361 6374.089 7299.132 3254.433 10115.160 3938.279 6774.712 4043.085 5297.954 3470.435
2994.094 6238.086 18032.054 3188.617 17958.282 1726.778 6942.850 6053.866 7029.528 6712.225 1449.816 7076.744 5474.161 11322.423 7152.761 4430.896 9158.681 12841.131 5380.275 6606.245 4096.268 2356.881 11636.281 7077.123 8175.844 13801.399 11441.361 9554.699 5254.165 9135.461 4959.063 12544.017 9707.906 14285.520 7941.483 16594.743 6754.111 13589.459 3921.695 10876.035 1631.201 9143.229 4673.275 8464.315 5441.056 6885.769 14067.304 1416.758 6077.448 7185.303 2437.891 9809.682 7557.863 6761.528 10636.847 5398.250 5433.101 3382.966 0.000 11209.680 7803.046 3415.423 3784.198 5753.103 8241.231 5425.050 1885.867 11139.311 395.692 5370.126 5846.865 7735.830 13552.814 9016.506 17523.221 1441.839 6750.989 1204.224 1006.466 3927.547 3815.867 5366.935 2419.442 2138.753 2356.576 12718.436 7463.477 11322.427 14421.758 5492.698 5316.227 6466.112 6408.326 9935.321 291.190 12038.481 6602.030 6176.820 1555.029 7590.672 6134.186
9262.689 5729.114 27174.390 8161.728 16511.491 12518.556 5098.891 14468.761 17496.438 10750.616 11053.815 10682.430 16042.736 541.506 12972.817 9736.009 8454.878 3954.188 13155.528 6835.584 10116.839 10951.848 21639.859 5680.526 9992.566 7656.999 12150.411 11634.546 15990.416 8875.977 11676.049 1973.753 11831.820 16586.814 6032.044 20396.587 5335.232 5431.763 14713.472 15339.240 10926.356 8035.457 13088.171 13001.708 16009.630 10577.770 24147.366 11048.471 5330.217 5584.270 13006.465 12467.548 8683.216 12954.590 9705.694 9910.998 9945.848 8174.082 11049.192 0.000 11826.810 7964.961 13592.712 7688.544 18809.805 13200.303 12677.644 21606.221 11019.791 9882.874 7806.252 9318.477 23632.875 8331.775 26665.556 11743.363 5362.998 11996.002 11557.382 9633.370 14099.598 7745.601 9112.341 12637.413 9066.458 23045.882 7778.940 975.546 11160.290 16061.272 9828.975 4877.387 10951.685 2342.264 11175.808 8219.509 5231.742 12773.643 11869.630 7906.135 5757.044
9249.271 9577.014 24866.447 7781.288 24644.325 8531.755 9941.110 5413.274 9470.110 13273.503 8785.137 13205.317 11366.786 12423.250 14490.603 4105.178 13696.564 10653.942 12718.117 5527.759 4065.371 5653.581 18272.494 10416.051 2292.286 17264.665 17574.399 2458.806 9707.533 13834.029 12296.905 13193.265 2533.872 21623.362 11280.411 23932.585 9752.371 16443.926 8405.361 18213.877 8815.537 13268.041 4676.426 15802.157 11333.681 13100.657 13713.113 8736.893 7705.706 10469.526 9129.031 2203.501 3410.532 14099.370 5092.900 11466.646 11501.496 7417.608 7337.842 11996.846 0.000 7192.624 11122.040 10416.989 12767.210 12762.892 8448.229 12252.364 7257.558 11438.521 4768.379 13081.397 13198.623 13255.359 24357.613 8779.681 9829.395 8009.201 8344.308 10694.928 10739.446 4983.310 8473.540 9476.595 7921.800 13492.807 11619.009 12857.291 19331.192 11385.322 11384.622 9155.929 1340.084 9868.246 7629.032 16641.531 9291.847 13514.661 8892.871 11746.204 9473.114
2133.253 3541.241 20248.423 665.270 17473.507 4711.556 4246.005 7514.081 9899.535 6102.685 3515.146 6034.500 8353.575 8407.730 7809.699 3824.944 7137.098 9719.192 7170.001 4269.698 3853.460 3338.387 14143.401 4380.278 7287.952 11228.892 10570.277 8968.252 8238.943 7274.563 5900.992 9615.948 9135.361 14626.817 5244.638 17251.680 4057.266 10892.614 6906.473 11418.163 3416.608 6817.416 6133.490 8732.709 8320.469 5929.840 16861.288 3489.313 2955.509 4488.458 5317.304 9437.262 6373.985 7616.371 9130.355 4350.628 4385.478 378.649 3242.193 8006.634 7430.626 0.000 6096.254 3246.172 11120.645 7214.775 4870.645 14009.318 3212.792 4322.503 3639.239 5910.580 16346.798 6695.893 19739.589 4184.204 4054.144 4189.002 3885.879 3651.584 6540.440 3062.091 1615.883 5018.166 1170.966 15588.443 5137.664 8624.556 12596.508 8372.111 4268.605 3768.241 6035.906 6813.382 3368.809 10082.066 3904.158 7054.156 4310.471 5264.859 3437.341
4670.461 8337.688 14687.105 5528.877 16875.607 2607.939 8787.434 7432.874 6864.907 6294.690 2948.440 6659.209 4105.026 13662.683 6061.568 7575.629 9372.752 15745.654 2870.621 9708.720 7241.000 5501.614 8409.500 8587.505 11320.577 13941.959 10429.674 12699.431 4619.304 9276.021 3979.709 14672.315 12852.639 12804.938 9451.866 14723.388 8695.130 15099.841 3786.762 9477.905 2900.436 9905.049 6754.923 7381.640 4071.920 6468.233 13461.466 2915.382 8628.093 8695.686 2672.952 12954.415 10702.595 5402.655 13781.579 5546.607 5581.580 5739.853 3520.582 13549.940 10947.779 6054.028 0.000 6946.183 7295.569 2728.669 3099.842 10533.473 3540.424 5499.786 8949.340 7964.094 12946.976 9429.849 14178.272 2122.590 8547.094 3130.336 2687.041 4468.873 1939.680 8469.410 4827.556 2055.484 5061.796 12112.598 8421.023 13556.434 13747.621 4104.685 5464.706 8806.372 9553.058 12735.563 3434.610 12179.041 8942.290 4625.367 2143.733 8548.218 8053.282
3030.511 2059.262 20401.635 3122.274 15152.731 7197.053 2368.380 10537.458 12443.578 3948.322 4898.584 3880.136 10170.975 7344.099 6170.522 7119.225 4340.955 10794.532 6382.773 6380.638 7147.741 6361.765 14923.020 2091.351 10354.113 8939.966 8036.131 12262.532 10514.317 4478.421 4903.294 8253.261 12429.641 12472.453 2955.712 15368.819 2276.076 8603.688 9391.969 9486.923 4771.125 4021.273 9156.868 6801.468 10137.870 3775.476 19356.479 4960.441 4328.796 2199.532 7568.157 12731.542 9151.354 6152.296 11827.930 3138.244 3173.094 3345.407 5727.689 7332.749 10724.907 3326.365 7021.181 0.000 13324.168 6427.548 7356.141 16428.486 5698.288 3110.119 6168.631 3300.316 18841.988 3899.750 19892.802 6052.551 2128.041 6674.499 5958.007 2860.616 8005.629 5919.001 3764.005 6847.597 3839.447 18007.610 2341.521 7137.380 9975.584 10170.635 3056.220 2998.074 9330.186 7332.942 5854.305 7285.923 2797.303 5971.349 6160.405 2468.716 1774.857
10598.418 13967.380 12601.683 10917.911 23936.075 6876.552 14672.144 8065.518 4636.269 12982.748 8641.298 13347.267 3414.442 19051.717 13122.035 11789.432 16060.811 20578.934 9794.597 14390.644 11454.804 9715.417 6427.789 14717.755 13868.068 20630.017 17490.142 14761.436 3801.518 15964.079 10946.036 20273.311 14914.644 19751.716 15582.116 20758.548 14483.405 21230.091 5455.675 16424.683 8593.295 16517.459 8063.591 14442.108 3447.547 13156.292 8984.250 8608.240 13815.251 14825.936 6424.054 14767.119 14289.156 12463.123 16934.500 12234.665 12269.638 11112.260 8197.369 18938.974 12760.483 11153.225 7421.124 13238.871 0.000 9636.921 6982.776 5967.282 8180.090 12187.844 13631.263 14652.152 8469.759 16117.907 12092.850 7521.859 14475.052 7260.873 7906.488 10988.933 5461.690 13151.334 10082.288 6722.054 10094.379 6553.546 14837.707 19051.721 20808.089 3396.384 12152.764 14195.406 11937.125 17673.124 8076.963 18867.100 14331.324 11685.834 7462.799 14964.902 13863.480
5110.833 7921.141 14364.899 6535.918 14719.471 5081.817 8230.259 9904.285 9497.842 4374.438 4287.637 4738.957 6448.835 13205.977 3905.431 9234.788 7458.828 16523.447 411.106 11186.808 8900.160 7198.862 9538.494 7953.230 13118.521 12028.034 8273.538 14675.187 7252.239 7362.096 2081.143 14115.140 14828.395 10403.943 8790.436 12322.393 8137.955 14086.878 6395.547 7076.910 4187.802 8208.969 9214.202 5225.504 6415.730 4547.982 16094.401 4551.775 9405.885 8061.411 5272.498 14930.171 12361.754 3246.519 15440.738 3886.512 3937.205 6857.232 5500.815 13194.628 12923.535 7152.906 2725.804 6311.908 9735.134 0.000 5573.721 13166.408 5520.658 3839.691 10421.131 6301.323 15579.911 7596.649 13856.065 4329.357 7989.919 5276.487 4707.756 3632.513 4572.615 9843.983 5944.935 4529.363 6179.175 14745.533 7104.555 12999.259 11591.485 6448.495 3946.519 8859.952 11528.814 13194.820 5414.844 10265.117 8659.182 2469.230 4350.501 7311.913 7636.735
4382.705 7534.357 17806.277 4484.887 18841.140 506.684 8239.121 4673.733 5477.823 7606.037 2685.776 7970.555 4575.910 12618.693 7933.381 5038.803 10547.292 14128.839 5561.539 7726.478 4704.175 2964.789 11304.065 8373.393 8537.952 15190.010 12324.218 9916.806 3774.086 10524.072 5592.737 13840.288 10070.014 15041.359 9237.754 17189.080 8050.382 14885.729 2369.990 11631.874 2824.776 10531.840 3943.563 9347.172 4542.804 7779.580 12515.599 2652.718 7365.156 8481.574 1319.525 10171.790 8165.770 7362.383 11244.754 6738.358 6773.208 4679.237 1533.204 12505.951 8165.154 4703.130 3479.322 7092.700 7257.191 5606.314 0.000 9587.606 1515.925 6710.233 6967.098 9124.441 12001.109 10405.117 17297.444 1534.550 8047.259 627.425 1860.067 5259.028 3292.048 6487.168 3767.403 1506.909 3652.847 11166.731 8852.088 12618.698 15628.288 4594.446 6656.335 7762.383 6770.434 11223.029 1412.798 13427.092 7898.300 6777.675 1475.490 8979.283 7430.456
13702.140 16982.877 15920.186 13933.408 27183.016 9673.133 17687.641 7832.243 5080.529 16086.470 11745.020 16450.989 7572.744 21815.484 16368.976 12550.905 19164.532 22121.587 13387.437 15578.857 12216.277 11052.018 10641.157 17821.477 14044.190 23733.739 20737.083 14461.431 6031.960 19067.801 14049.758 23023.702 14536.496 23112.346 18685.838 25030.796 17498.902 24333.813 7408.551 19785.313 11697.016 19621.181 8521.498 17689.048 7572.867 16260.013 3765.682 11711.962 16165.431 17929.658 9410.530 14206.126 14747.063 15710.063 17095.525 15338.387 15373.360 14127.757 10993.951 21414.388 12153.718 14151.651 10714.720 16342.592 6098.307 13229.760 9560.616 0.000 10976.672 15291.566 14819.477 17755.874 3251.192 19221.629 15411.352 10625.580 17495.780 10057.454 11010.210 14092.655 8746.391 14432.037 13186.009 9825.776 13101.367 1698.441 17941.429 22067.218 24055.029 7554.686 15256.486 17210.903 12395.032 19617.997 10873.545 21970.821 17346.821 14932.775 10566.521 18068.624 16878.977
3074.378 6069.315 18112.339 3019.846 18038.566 1549.647 6774.080 5658.174 6852.397 6792.510 1530.100 7157.028 5554.445 11153.652 7233.045 4035.204 9196.476 12663.797 5460.559 6261.437 3700.576 1961.189 11716.565 6908.352 7780.152 13756.966 11521.645 9159.007 5077.034 9173.256 5039.347 12375.246 9312.214 14365.804 7772.713 16675.027 6585.341 13420.688 3744.564 10956.319 1711.485 9181.024 4277.583 8544.599 5521.340 6966.053 13890.173 1497.042 5900.115 7016.533 2345.226 9413.990 7162.171 6841.812 10241.155 5478.534 5513.385 3214.196 80.284 11040.909 7407.354 3238.089 3864.482 5627.658 8320.228 5505.334 1708.736 10962.180 0.000 5450.410 5502.056 7773.625 13375.683 9054.301 17603.505 1522.123 6582.218 1027.093 1086.750 4007.831 3896.151 5022.127 2302.362 2219.037 2187.805 12541.305 7501.272 11153.657 14459.553 5572.982 5396.511 6297.341 6012.634 9757.987 371.474 12076.276 6433.259 6257.104 1635.313 7628.467 5965.415
2893.256 4905.577 17745.746 3947.188 13643.742 6661.807 5214.695 10851.082 11647.874 2018.005 4394.499 2373.983 9085.346 10190.413 3635.304 8312.514 4662.923 13640.847 3542.799 8614.672 8216.343 6675.388 12667.502 4937.666 11775.521 9255.492 7041.641 13455.821 9428.688 4589.554 1868.249 11099.576 13622.930 10522.421 5410.210 12994.833 5122.391 10797.296 8477.824 7112.936 4267.040 5031.235 9470.491 4427.482 9052.241 1845.159 18270.850 4456.357 6633.135 5045.846 6946.860 13924.831 10861.554 3583.628 13617.924 422.096 456.946 4316.000 5771.040 10179.063 11918.196 4564.176 5572.638 3296.343 12238.539 3854.003 6974.083 15342.857 5755.173 0.000 8126.808 3094.282 17756.359 4556.035 17236.912 5405.665 4974.355 6280.358 5453.923 1722.361 6920.000 7549.660 3943.965 6158.058 4317.046 16921.981 3624.094 9983.695 9651.435 9085.006 340.072 5844.388 10523.475 10179.256 5703.908 7492.574 5643.618 3021.413 5470.866 3831.452 4621.171
5803.538 4963.009 23599.734 4335.556 20076.993 7270.586 5327.105 8227.019 11254.695 9519.162 6651.329 9450.976 11260.702 8256.832 11479.984 2630.854 9082.559 8264.375 10521.312 1466.239 3011.684 4774.395 17407.788 5802.046 4622.683 12650.660 12960.394 6671.217 10651.040 9220.024 9571.278 9439.741 6838.326 17635.814 6666.406 20921.966 5138.366 12237.609 9279.684 15057.763 6681.730 8654.036 6763.785 12372.309 11227.597 9346.317 17528.003 6603.086 3091.701 5855.521 8066.165 7140.227 3433.030 11286.657 6363.856 8020.914 8055.764 3971.876 5801.222 7830.427 5133.592 3746.892 9447.565 6517.289 14027.772 10566.087 7429.674 15364.478 5771.822 7992.789 0.000 8544.541 17013.513 8641.354 23090.900 7213.346 5215.390 6748.032 6793.007 7321.870 9587.374 923.255 5126.568 7925.294 4619.015 16804.140 7005.004 8690.872 14717.187 11279.239 7938.890 4541.924 3738.871 5842.676 6092.412 12027.526 4677.842 10724.442 7339.613 7132.199 4859.109
5211.719 4644.032 20295.684 5933.739 12036.663 9288.793 4798.932 12996.119 14297.262 2120.702 6972.435 1933.552 11734.734 9569.653 4340.843 9980.498 1648.439 13211.506 6183.242 9056.597 10009.015 8820.426 15307.945 3959.802 13030.072 6291.157 4848.872 15078.606 12078.076 1625.219 4508.692 10478.816 15245.715 9394.110 3983.633 12880.908 4825.362 8223.465 11127.212 6999.012 6844.976 2113.890 11615.529 4415.037 11701.628 2425.177 20920.237 7034.293 7004.755 4060.719 9596.248 15547.616 11827.313 4349.323 14503.889 3186.055 3236.749 6206.681 8132.558 9558.304 13540.981 6187.639 8222.026 3271.094 14887.927 6494.446 9574.062 17992.244 8103.158 3139.234 8844.590 0.000 20405.747 1541.552 19786.851 8055.053 4677.327 8858.293 8031.859 4284.313 9569.388 8594.960 6089.002 8807.446 6462.084 19571.369 1932.848 9362.935 6911.516 11734.394 3277.531 5547.360 12146.260 9654.688 8212.345 4528.239 5346.589 4409.451 8120.254 1868.547 4359.626
16107.955 19323.405 17636.505 16273.936 29588.831 12078.949 20028.169 9656.028 7486.344 18492.286 14150.835 18856.804 9978.559 24134.098 18774.791 14869.519 21570.348 23394.695 15793.252 17238.091 14534.891 13370.632 12927.730 20162.442 14774.383 26139.554 23142.898 15191.624 8437.776 21473.616 16455.573 25342.316 15266.689 25518.162 21026.802 27436.612 19839.430 26674.778 9814.366 22191.129 14102.832 22026.996 10840.112 20094.864 9978.682 18665.829 673.442 14117.777 18484.045 20270.622 11816.346 14936.319 15601.891 18115.879 17825.718 17744.203 17779.175 16468.285 13399.766 23733.002 12883.911 16492.179 13120.536 18748.408 8639.689 15635.576 11959.783 3220.139 13382.487 17697.381 16478.710 20161.689 0.000 21627.444 17127.671 13031.396 19836.308 12463.270 13416.025 16498.470 11152.207 16693.641 15556.452 12231.592 15441.895 2042.394 20347.244 24407.746 26460.845 9960.502 17662.302 19551.431 13222.079 21936.611 13279.360 24376.637 19687.349 17338.590 12972.337 20474.439 19219.505
6108.558 4465.939 21509.722 6520.147 11656.878 10238.994 4410.248 13892.958 15540.466 3334.739 7922.636 3147.589 12977.938 8337.483 5529.037 10335.311 662.443 12234.866 7456.762 8878.505 10545.614 9717.265 16581.465 3571.118 12851.980 5299.819 4540.279 14900.514 13321.280 799.909 5782.212 9198.419 15067.623 9293.099 3127.813 12838.189 4528.775 6842.290 12370.417 7264.477 7795.177 732.715 12512.368 4925.640 12944.833 3720.220 22163.442 7984.493 6826.663 3672.036 10592.209 15369.524 11649.220 5563.360 14325.796 4655.715 4690.565 6743.280 9029.397 8406.933 13362.888 6724.238 9465.230 3609.742 16131.131 7714.112 10524.262 19235.449 8999.996 4627.590 8666.498 1837.917 21648.952 0.000 21000.888 9076.603 4380.740 9808.494 8982.059 5334.050 10812.593 8416.868 6985.841 9871.649 7237.320 20814.574 1816.741 8130.765 6297.072 12977.598 4573.692 5250.773 11968.168 8697.728 9109.184 3607.411 5050.002 5623.488 9184.457 1550.992 4181.534
18050.511 21108.659 2668.422 18908.927 23460.183 16215.400 21417.777 19511.102 16151.783 17488.507 16412.534 17853.025 12689.103 26393.495 17019.500 21183.090 20572.896 29125.704 13674.440 23316.182 20848.462 19109.076 5984.387 21140.748 24928.038 25142.103 20462.330 26117.466 14647.801 20476.165 15291.267 27302.658 26270.674 18793.844 21977.954 19271.133 21325.473 27200.946 16017.587 17687.076 16312.700 21323.038 19419.621 17947.403 12722.208 17662.050 17868.470 16522.844 22008.143 21248.929 16219.274 26123.149 24310.057 16360.587 27389.041 17110.201 17160.895 19119.903 17128.044 26382.146 24116.513 19434.078 13717.000 19499.426 11617.419 13367.222 16707.304 15712.503 17147.886 17063.380 22556.802 19415.392 17575.384 20710.718 0.000 15730.051 21177.437 16737.798 16294.503 16820.031 14563.472 22076.872 18207.606 15662.946 18441.846 15994.768 20328.245 26186.777 22947.334 12671.045 17170.208 22047.471 23160.520 26115.613 17042.072 23379.185 21846.700 15583.299 15751.195 20535.603 20824.253
3476.798 7038.436 16705.898 3988.967 17488.038 1485.143 7593.771 6171.322 6952.676 6252.935 1490.049 6617.454 4622.871 12122.773 6580.280 5693.709 9330.997 13893.176 4252.437 7826.801 5359.081 3619.695 10277.939 7596.135 9438.657 13900.204 10971.116 10817.512 4733.490 9234.266 4239.636 13344.367 10970.720 13688.257 8460.496 15881.031 7501.467 14108.471 3782.626 10278.772 1471.674 9395.839 5293.477 7994.071 4589.766 6426.479 13575.652 1456.992 7088.183 7704.316 1836.397 11072.495 8820.676 6009.282 11899.660 5385.256 5420.107 4183.316 1638.662 12010.030 9065.860 4467.468 2448.036 6117.250 7543.341 4297.212 1796.185 10647.659 1658.505 5357.132 7067.420 7922.339 13061.161 9268.376 16197.064 0.000 7353.431 1355.762 805.122 3905.927 2457.526 6587.491 3153.344 1020.674 3366.589 12226.783 7716.087 12122.777 14275.186 4622.531 5303.233 7266.462 7671.139 10987.366 1552.691 12137.286 7402.380 5424.573 295.266 7843.282 6859.619
4160.407 566.790 22012.066 4076.660 15695.722 8151.439 282.539 11319.185 13397.964 5588.292 6044.557 5520.106 11316.948 5461.750 7810.493 7030.153 4799.255 8689.162 7993.204 5047.789 7241.555 7316.151 16533.451 912.165 9127.197 7785.149 8677.091 11204.414 11623.300 4936.721 6513.725 6370.913 11392.204 13352.511 1821.096 16765.965 148.036 7448.871 10346.356 10884.069 5917.098 4370.733 9938.595 8186.177 11283.843 5415.446 20359.717 6106.415 2654.324 804.627 8639.348 12027.932 7707.975 7792.267 10288.898 4748.674 4783.525 4218.194 6682.075 5428.327 10033.367 4120.436 8583.454 2526.220 14442.689 8037.979 8310.527 17507.748 6652.675 4720.550 5336.977 4261.238 19845.227 4358.050 21503.232 7198.524 0.000 7628.885 7103.980 4471.047 9151.603 5111.710 4718.392 7993.570 4793.834 19086.872 2721.701 5255.032 10285.490 11316.608 4666.651 892.704 8638.647 5227.571 6808.691 7445.095 691.933 7611.319 7306.378 2848.896 594.720
3888.757 7040.409 17791.814 3990.939 18320.524 619.426 7745.173 5155.077 5959.167 7085.421 2165.160 7449.939 4688.651 12124.745 7412.765 4971.372 10053.344 13634.891 5245.666 7232.530 4636.744 2897.357 11291.033 7879.445 8531.318 14696.062 11803.602 9910.172 4146.813 10030.124 5072.121 13346.340 10063.380 14520.743 8743.806 16829.965 7556.434 14391.781 2851.334 11111.258 2304.160 10037.892 4077.575 8826.556 4655.546 7258.964 12988.975 2132.102 6871.208 7987.626 1318.133 10165.156 8098.339 6841.767 11177.323 6217.742 6252.592 4185.289 1039.256 12012.002 8158.520 4209.182 3466.291 6598.752 7390.006 5290.440 779.939 10060.982 1021.977 6189.617 6473.150 8630.493 12474.484 9911.169 17282.980 1244.332 7553.311 0.000 1333.458 4738.412 3404.790 5993.220 3273.455 1493.877 3158.899 11640.107 8358.140 12124.750 15107.672 4707.188 6135.719 7268.435 6763.800 10729.081 918.850 12933.144 7404.352 6257.059 1193.230 8485.335 6936.508
3363.745 6674.184 17267.589 3624.715 17679.079 1448.589 7378.949 6108.995 6913.084 6443.976 1270.011 6808.495 4838.074 11758.521 6771.321 5116.886 9367.416 13316.353 4678.708 7249.978 4782.258 3042.871 10871.816 7513.221 8861.834 14010.134 11162.158 10240.689 4785.755 9344.196 4430.677 12980.116 10393.896 13879.298 8377.582 16188.521 7190.210 14025.557 3805.251 10469.813 1451.397 9351.964 4954.224 8185.112 4804.969 6617.520 13627.917 1236.954 6552.670 7621.402 1801.803 10495.672 8243.853 6200.323 11322.837 5425.508 5460.358 3819.065 1061.839 11645.778 8489.036 3890.644 3019.732 6073.375 7605.144 4723.482 1733.857 10699.924 1081.682 5397.383 6490.597 7944.565 13113.427 9225.241 16758.755 677.374 7187.087 1018.089 0.000 3954.804 3051.402 6010.668 2789.092 1400.985 2831.798 12279.049 7672.211 11758.526 14466.227 4856.610 5343.484 6902.210 7094.316 10410.543 929.570 12247.216 7038.128 5615.614 790.563 7799.407 6570.284
1543.204 4303.086 17747.698 2917.863 14716.420 5102.820 4612.204 9331.069 10420.631 3161.720 2786.462 3526.239 7858.103 9587.922 4415.006 7165.771 5483.458 12905.392 3728.836 7769.368 6856.673 5155.376 12269.083 4335.175 10628.779 10126.175 8114.320 12309.078 8201.445 5460.237 2506.299 10497.085 12476.187 11547.765 5199.536 13856.988 4519.900 10847.511 7250.581 8138.280 2659.003 5718.078 7950.479 5500.161 7824.998 3290.607 17043.606 2848.320 5787.830 4443.356 5456.035 12778.089 9742.454 4221.678 12588.599 1493.451 1528.301 3286.675 4163.002 9576.573 10771.453 3534.850 4565.787 2693.853 11011.296 3773.611 5388.088 14115.613 4147.136 1465.326 7097.483 4060.606 16529.116 5376.570 17238.864 3940.429 4371.864 4672.320 3845.885 0.000 5692.757 6520.335 2696.328 4697.877 3069.410 15694.738 4038.326 9381.204 10746.534 7857.763 1411.428 5241.897 9376.733 9576.765 4095.871 8363.258 5041.127 3659.464 4010.685 4165.521 4018.680
5328.410 8995.637 15335.961 6177.021 18641.498 3011.932 9445.383 6503.076 5142.244 7712.740 3371.290 8077.259 2440.203 14310.827 7827.458 7998.479 10790.803 16197.945 4808.158 10131.570 7663.851 5924.464 8812.989 9447.748 11743.427 15360.009 12195.565 12991.707 2896.641 10694.071 5676.028 15330.264 13144.915 14570.829 10312.108 16489.279 9353.079 15960.084 2511.000 11243.795 3323.287 11247.451 6411.594 9147.531 2407.098 7886.284 11738.803 3338.232 9276.237 9555.928 2394.359 12997.390 11125.446 7168.546 14204.429 6964.657 6999.630 6371.371 3943.432 14198.084 10990.754 6702.172 2135.441 7968.863 5572.906 4650.482 3359.626 8810.810 3963.275 6917.836 9372.190 9382.144 11224.313 10847.899 14827.127 2545.440 9205.044 3493.497 3109.892 5718.925 0.000 8892.260 5341.398 2052.733 5554.643 10389.935 9567.699 14214.383 15513.512 2458.739 6882.757 9454.517 9975.909 13292.135 3857.460 13597.092 9590.434 6391.257 2566.583 9694.894 8711.232
5131.105 4900.149 22927.300 3663.122 20014.133 6567.997 5334.888 7653.471 10681.147 9155.337 5948.740 9087.151 10558.114 8374.838 10807.550 2188.055 9019.698 8382.382 9848.878 1572.590 2507.270 4138.307 16705.200 5739.185 4611.379 12587.800 12897.533 6659.913 10014.951 9157.164 8898.844 9557.748 6827.022 17572.953 6603.546 20249.532 5146.148 12251.521 8643.596 14416.015 5979.141 8591.175 6259.370 11730.561 10525.008 8982.491 17332.075 5900.497 3099.483 5847.366 7363.576 7128.923 3421.726 10614.223 6137.642 7348.480 7383.330 3299.442 5098.634 7948.434 5122.287 3074.458 8775.131 6298.823 13325.184 9893.653 6727.086 14790.930 5069.233 7320.355 646.526 8481.680 16817.584 8578.493 22418.466 6510.758 5223.173 6045.443 6090.418 6649.436 8884.786 0.000 4454.134 7222.705 3946.582 16230.591 6942.143 8808.879 14654.327 10576.650 7266.456 4549.707 3727.567 5960.683 5389.823 11964.666 4685.624 10052.008 6637.024 7069.338 4796.249
1004.828 3987.467 18870.625 937.998 16980.102 3906.549 4692.231 7373.191 9263.454 5425.402 2179.559 5670.510 7296.034 9071.803 6678.688 4846.108 7053.089 11154.775 5792.203 5681.368 4599.734 3197.498 12765.603 4826.503 8309.116 11675.117 10206.288 9989.415 7243.715 7029.868 4769.981 10293.398 10156.524 13811.447 5690.864 16120.669 4503.492 11338.839 6155.621 10401.962 2052.100 7021.217 5992.601 7763.843 7262.929 5338.600 16085.877 2186.743 4037.214 4934.684 4259.764 10458.426 7422.791 6485.360 10463.903 3541.444 3576.295 1148.974 2563.422 8959.061 8451.790 1463.149 4718.456 3449.973 10063.104 5836.977 4119.793 13157.884 2534.021 3513.320 5000.650 5630.237 15571.387 6899.694 18361.791 2996.662 4500.370 3438.150 2810.681 2401.891 5286.604 4423.502 0.000 3890.711 700.437 14737.009 5341.465 9071.808 12316.165 7314.571 3459.421 4215.493 7057.069 8144.684 2646.095 9932.889 4351.411 5923.146 3122.928 5468.660 3883.566
4271.588 7665.141 16459.293 4615.671 18282.828 994.177 8369.905 5813.826 6040.301 7047.726 2171.070 7412.244 3873.434 12749.477 7375.070 6265.921 10125.788 14465.388 4571.764 8399.013 5931.293 4191.907 9957.080 8390.925 10010.869 14694.994 11765.907 11389.724 3821.115 10029.056 5034.426 13971.072 11542.932 14280.855 9255.286 16199.305 8181.166 14903.261 2862.360 10953.822 2266.465 10190.629 5135.875 8788.861 3840.329 7221.269 12663.277 2138.012 7701.705 8499.106 872.009 11644.707 9392.888 6804.072 12471.872 6180.047 6214.897 4810.021 2196.720 12636.734 9638.072 5039.680 2319.502 6912.041 6640.504 4616.539 1480.794 9735.284 2230.717 6151.922 7639.633 8717.129 12148.787 10063.166 15950.460 996.287 8148.222 1530.896 1380.917 4700.717 2132.267 7159.703 3780.048 0.000 3980.833 11314.409 8510.877 12749.482 15069.976 3891.970 6098.023 7893.167 8243.351 11559.578 2046.302 12932.077 8029.084 6080.814 937.228 8638.072 7561.240
1616.709 4215.643 19255.035 1018.819 17591.982 3671.491 4920.408 6870.661 8918.017 6037.282 2457.150 6282.391 7313.510 9299.980 7290.568 4252.578 7664.913 10869.055 6176.613 5209.791 4006.204 2694.967 13150.013 5054.680 7715.586 11903.294 10818.168 9395.885 7198.878 7641.749 5381.861 10521.574 9562.994 14423.327 5919.040 16732.550 4731.668 11567.016 5866.408 11013.842 2358.611 7345.231 5490.070 8375.723 7280.405 5950.480 15879.770 2431.316 4097.071 5162.860 4277.239 9864.896 6829.261 7097.240 9870.374 4153.325 4188.175 1115.084 2202.128 9028.334 7858.260 1443.346 5102.866 3773.986 10080.580 6221.388 3830.580 13027.800 2172.727 4125.200 4529.073 6242.118 15365.280 7223.708 18746.201 3119.465 4728.546 3148.937 2845.814 3013.771 5482.444 3951.926 614.460 3978.102 0.000 14606.925 5665.479 9299.985 12928.046 7332.046 4071.301 4443.669 6463.540 7963.245 2328.744 10544.769 4579.587 6535.026 3245.732 5792.674 4111.743
15126.330 18407.068 15816.906 15357.599 28607.206 11097.324 19111.832 9344.887 6504.720 17510.661 13169.210 17875.180 8996.934 23328.128 17793.167 14063.550 20588.723 23634.231 14811.627 17091.502 13728.922 12564.663 10905.616 19245.668 15173.099 25157.930 22161.274 15590.341 7456.151 20491.992 15473.949 24536.347 15665.406 24536.537 20110.028 26454.987 18923.093 25758.004 8832.742 21209.504 13121.207 21045.371 10034.142 19113.239 8997.057 17684.204 2585.779 13136.153 17678.076 19353.849 10834.721 15335.035 16000.607 17134.254 18224.435 16762.578 16797.550 15551.948 12418.142 22927.033 13282.628 15575.841 12138.911 17766.783 6617.575 14653.951 10984.807 1561.015 12400.862 16715.757 16332.122 19180.064 2071.289 20645.820 15308.072 12049.771 18919.971 11481.645 12434.401 15516.845 10170.582 15944.682 14610.200 11249.967 14525.558 0.000 19365.619 23491.409 25479.220 8978.877 16680.677 18635.094 13620.796 21130.642 12297.736 23395.012 18771.012 16356.966 11990.712 19492.814 18303.168
4528.397 2820.679 21245.967 4938.053 13231.891 8658.833 2975.579 12312.797 14123.329 3490.608 6342.475 3303.458 11614.866 7746.300 5721.552 8690.051 2237.457 11388.153 7133.103 7233.244 8901.452 8137.104 15767.352 2136.449 11206.719 6874.833 6115.292 13255.253 11958.208 2374.922 5458.553 8655.463 13422.362 10868.113 2173.915 14375.534 3002.009 7515.200 11007.344 8493.638 6215.016 1808.934 10932.206 5795.746 11581.761 3582.580 20800.370 6404.332 5181.402 2237.366 9012.048 13724.263 10003.960 5719.229 12680.536 3777.632 3812.482 5161.186 7449.236 7734.951 11717.628 5142.144 8465.072 2027.648 14768.059 7271.880 8944.101 17872.377 7419.835 3749.507 7021.237 1844.284 20285.879 1796.252 20737.134 7496.442 2853.974 8228.333 7401.898 4289.754 9449.520 6771.607 5405.680 8291.488 5655.226 19451.501 0.000 7539.582 7872.085 11614.526 3695.609 3724.007 10322.907 7831.335 7529.023 5182.424 3523.236 5742.732 7604.296 256.377 2536.273
9106.133 5512.517 26957.792 8585.121 16281.817 12659.899 4882.294 15076.398 17906.424 10534.018 10990.283 10465.832 16184.079 459.573 12756.219 10343.645 8238.281 4580.551 12938.931 7443.221 10724.476 11559.484 21479.177 5463.928 10600.202 7427.325 11920.737 12260.909 16131.760 8659.380 11459.451 1528.042 12458.183 16357.140 5815.446 20166.913 5118.634 4790.507 14854.816 15109.566 10862.824 7818.860 13695.807 12785.111 16150.974 10361.173 24755.002 11052.141 5937.853 5367.672 13147.808 13093.911 9290.853 12737.993 10332.057 9694.401 9729.251 8726.654 11190.536 626.363 12453.173 8572.598 13529.181 7471.946 18951.149 12983.705 12818.988 22016.208 11161.135 9666.276 8413.888 9101.879 24240.512 8115.178 26448.959 11884.706 5146.401 12137.345 11698.726 9416.773 14097.329 8353.237 9226.852 12778.756 9302.294 23595.333 7562.342 0.000 10930.616 16202.615 9612.377 4860.920 11559.321 2949.900 11317.152 7989.835 5196.124 12557.045 12010.973 7689.537 5540.447
11558.466 10330.981 24088.449 12280.486 5744.468 15333.095 9982.917 19342.865 20224.510 8144.251 13319.182 7762.958 17476.651 10941.005 7737.981 16200.352 5650.028 14953.135 11421.090 14743.546 16329.864 15167.172 20685.375 9358.705 18682.382 4052.764 4110.029 20759.599 17990.930 5278.034 10097.111 11634.444 20932.664 6054.831 8791.916 10211.164 10219.257 8138.253 17054.460 7316.747 13191.723 6735.766 17962.275 6432.497 17443.546 8529.732 26833.092 13381.039 12691.704 9392.560 15618.148 21234.565 17263.160 8670.994 19844.083 9622.613 9673.306 12527.531 14479.305 11010.455 19227.929 12508.489 13627.887 9456.031 20667.195 11608.233 15645.371 23905.099 14449.904 9575.792 14531.539 7055.790 26318.601 6097.411 23579.616 14076.953 10101.264 14983.034 14260.885 10631.059 15311.306 14281.909 12435.749 14829.346 12808.830 25484.223 7663.031 10653.758 0.000 17476.311 9714.089 10941.439 17833.209 12656.758 14559.092 3463.964 10770.527 9133.633 14142.154 7416.033 10046.575
7417.798 11085.025 13685.986 8155.086 20730.886 4278.803 11534.771 6880.253 4322.352 9802.129 5460.678 10166.647 18.057 16288.892 9916.846 9573.399 12880.191 17816.109 6579.591 11749.734 9238.771 7499.384 7092.034 11537.136 12535.035 17449.397 14284.953 13486.616 2016.952 12783.459 7765.416 17419.652 13639.824 16536.710 12401.496 18010.408 11442.467 18049.472 3406.980 13209.677 5412.675 13336.839 6788.771 11236.919 51.163 9975.672 10372.152 5427.620 11052.426 11645.316 3661.229 13492.299 12700.365 9257.934 15601.466 9054.046 9089.018 8349.435 5547.441 16176.149 11485.663 8390.400 4206.117 10058.251 3408.086 6421.914 4570.915 7444.159 5581.438 9007.224 10990.353 11471.532 9857.661 12937.287 13177.152 4634.828 11294.432 4704.786 5143.663 7808.313 2309.423 10510.424 7319.463 3959.229 7331.554 9009.105 11657.087 16288.897 17602.900 0.000 8972.145 11432.581 10662.306 14910.299 5397.023 15686.480 11568.499 8480.645 4655.972 11784.282 10800.620
3136.417 4980.066 17988.907 4190.349 13881.371 6904.968 5289.184 11094.243 11891.035 2052.025 4637.661 2408.002 9328.507 10264.902 3872.934 8481.671 4466.364 13715.336 3785.960 8689.161 8459.504 6918.549 12910.663 5012.155 11944.679 9109.082 7215.459 13624.979 9671.849 4443.144 2111.410 11174.065 13792.088 10760.051 5213.652 13232.463 5196.880 10600.738 8720.985 7350.566 4510.202 4834.677 9713.652 4665.112 9295.402 1879.179 18514.011 4699.518 6707.624 5120.336 7190.021 14093.989 11030.712 3826.789 13787.082 82.023 116.873 4559.162 6014.201 10253.552 12087.353 4733.333 5815.799 3209.292 12481.700 4097.164 7217.244 15586.018 5998.335 405.264 8295.966 3043.513 17999.520 4359.477 17480.073 5648.826 5048.844 6523.519 5697.084 1965.523 7163.162 7718.818 4187.126 6401.219 4560.207 17165.143 3427.535 10058.184 9683.349 9328.167 0.000 5918.877 10692.633 10253.745 5947.069 7346.164 5718.107 3264.575 5714.027 3634.894 4695.660
4385.302 1317.220 22955.718 3724.200 16695.418 7798.979 1134.081 10670.525 13045.504 6531.944 6307.405 6463.758 11323.159 4856.311 8754.145 6381.493 5742.908 7933.862 8936.856 4399.128 6592.894 6963.691 16893.449 1911.861 8371.897 8784.845 9620.743 10449.114 11270.840 5880.373 7457.377 6220.684 10636.904 14296.163 2820.792 17709.618 945.342 8114.855 9993.896 11827.721 6179.946 5314.385 9289.934 9129.829 11290.054 6359.098 20007.257 6314.590 1801.275 1804.323 8286.888 11272.632 6952.675 8735.919 9533.598 5692.327 5727.177 3865.733 6329.615 4743.568 9384.707 3735.540 8846.302 3469.872 14090.229 8981.631 7958.067 17155.288 6300.215 5664.202 4688.317 5204.890 19492.767 5301.703 22446.885 7023.786 1022.366 7276.425 6837.806 5414.699 9380.021 4463.050 4365.932 7917.836 4441.374 18734.412 3665.353 4856.315 11285.186 11341.695 5610.303 0.000 7989.986 4522.638 6456.231 8444.791 354.355 8554.971 7150.053 3792.548 1493.071
8050.179 8377.923 24131.584 6582.197 23445.234 7332.664 8742.019 4706.171 8763.006 12074.412 7586.045 12006.226 10631.924 11393.343 13291.512 2906.087 12497.473 10262.323 11519.026 4328.668 2866.280 4454.490 17537.632 9216.960 2134.011 16065.574 16375.308 3211.872 8972.671 12634.938 11097.814 12576.253 3365.079 20424.271 10081.320 22733.493 8553.280 15374.121 7605.169 17014.786 7616.446 12068.950 3969.323 14603.066 10598.818 11901.566 13970.635 7537.802 6506.614 9270.435 8128.243 3466.855 2458.133 12900.279 5200.443 10267.555 10302.405 6218.517 6138.751 10966.939 1460.219 5993.533 9922.948 9217.898 12060.106 11563.801 7296.285 12509.886 6058.467 10239.430 3569.287 11882.306 13456.145 12056.268 23622.750 7580.590 8630.304 6810.110 7145.217 9495.837 9939.254 3784.218 7274.448 8277.504 6722.709 13750.329 10419.918 11827.384 18132.101 10650.460 10185.531 7956.838 0.000 8798.440 6429.940 15442.440 8092.755 12315.570 7693.779 10547.113 8274.023
8602.469 5410.771 26763.319 7180.167 18153.224 11214.092 5013.640 12868.055 15895.732 10467.547 10072.253 10399.361 14856.111 2811.556 12689.748 7846.766 8738.047 3808.818 12872.459 4946.341 8227.596 9351.142 20658.298 5646.317 7921.454 9298.733 12518.492 9734.714 14741.479 9159.147 11392.980 3994.466 9931.989 17250.332 5997.835 21003.768 4824.901 7373.389 13409.009 15623.715 9944.794 8297.592 11487.465 13065.432 14823.005 10294.701 22546.660 10066.910 4348.655 5550.061 11819.840 10567.716 6612.104 12671.522 7805.862 9627.930 9662.780 7153.412 9744.729 2385.152 9926.978 6774.762 12611.151 7405.475 17623.181 12917.234 11373.181 20005.515 9715.328 9599.805 5917.009 9140.493 22032.169 8593.910 26254.486 10761.802 4901.926 10691.538 10388.415 9350.302 13118.037 5856.358 8130.780 11520.703 7874.491 21445.176 7600.956 3245.597 12706.282 14874.647 9545.906 4217.166 9062.442 0.000 9871.345 9328.207 4571.521 12490.574 10888.068 7728.151 5473.975
3081.218 6323.281 18106.845 3273.812 18033.073 1435.589 7028.046 5934.248 6738.338 6787.016 1524.606 7151.535 5504.814 11407.618 7227.551 4340.053 9245.805 12917.763 5455.066 6515.402 4005.425 2266.038 11711.072 7162.318 8085.001 13888.523 11516.151 9463.856 4962.976 9222.585 5033.853 12629.212 9617.063 14360.311 8026.678 16669.533 6839.306 13674.654 3630.505 10950.826 1705.992 9230.353 4582.432 8539.105 5471.709 6960.559 13776.115 1491.549 6154.080 7270.498 2231.167 9718.839 7467.020 6836.318 10546.004 5485.374 5520.224 3468.161 150.417 11294.875 7712.203 3492.055 3858.988 5840.227 8206.169 5499.841 1594.677 10848.122 304.849 5457.250 5756.022 7822.953 13261.624 9103.630 17598.011 1516.630 6836.184 913.035 1081.256 4014.671 3890.658 5276.093 2506.566 2213.544 2441.771 12427.247 7550.600 11407.623 14508.882 5523.351 5403.351 6551.307 6317.483 10011.953 0.000 12125.605 6687.225 6251.610 1629.819 7677.796 6219.381
9364.076 7748.373 24369.041 10012.909 9048.071 13441.150 7345.130 17148.475 18441.529 6194.058 11124.792 6006.908 15879.001 8112.535 7948.511 13846.825 3223.480 12124.665 10316.081 12169.785 14038.376 12972.782 19440.784 6720.919 15810.416 1998.097 4868.002 17887.633 16222.342 3272.692 8641.531 8813.364 18075.424 8634.342 6154.130 12387.778 7581.470 5587.285 15271.479 8268.143 10997.333 4145.272 15767.885 6917.592 15845.895 6579.539 25064.504 11186.649 10095.131 6754.773 13740.515 18711.151 14391.194 8422.679 16786.182 7672.420 7723.113 10236.043 12284.915 8181.986 16874.403 10217.001 12366.293 7102.504 19032.194 10573.431 13726.418 22136.511 12255.514 7625.599 12178.012 4940.536 24550.014 3743.884 23860.207 12199.320 7463.477 13010.650 12184.215 8436.669 13713.655 11928.382 10241.359 12951.713 10614.440 23715.636 5309.504 7825.289 3497.872 15878.661 7676.311 8303.652 15479.682 9737.890 12364.702 0.000 8132.740 8482.807 12264.521 5062.506 7693.048
4411.525 962.865 22601.363 3756.645 16382.987 7831.424 1087.526 10702.970 13077.949 6177.589 6295.676 6109.403 11355.604 5297.643 8399.790 6413.938 5388.553 8375.194 8582.501 4431.573 6625.339 6996.136 16881.720 1723.480 8548.111 8596.463 9266.388 10794.381 11303.285 5526.018 7103.022 6662.016 10982.172 13941.808 2632.411 17355.263 898.786 8260.185 10026.340 11473.366 6168.217 4960.030 9322.379 8775.474 11322.498 6004.743 20039.702 6347.035 2038.109 1615.941 8319.333 11423.787 7202.289 8381.564 9878.865 5337.972 5372.822 3898.178 6362.060 5184.900 9417.152 3767.985 8834.573 3115.517 14122.674 8627.276 7990.512 17187.732 6332.660 5309.847 4720.761 4850.535 19525.212 4947.348 22092.530 7056.231 975.811 7308.870 6870.250 5060.344 9402.721 4495.495 4398.376 7950.281 4473.819 18766.857 3310.998 5297.647 11023.181 11374.140 5255.948 441.332 8022.431 4963.970 6488.676 8256.410 0.000 8200.616 7182.498 3438.193 1138.716
5089.354 7531.237 16395.711 6369.466 12404.380 6487.213 7840.355 11223.341 11216.378 2553.735 5041.442 2902.683 8468.519 12816.074 1448.365 9988.593 5638.125 16266.507 2412.958 11220.971 9653.964 7952.667 11677.243 7559.117 13872.326 10207.331 5906.643 15428.992 8982.798 5541.393 1385.674 13725.236 15582.200 8556.342 7621.251 10865.565 7748.051 12398.048 8046.329 5146.857 4941.607 6388.266 10123.581 2910.413 8435.414 2733.848 17824.960 5305.580 9239.433 7660.035 6687.601 15683.976 13115.559 877.367 16040.202 3156.520 3207.214 6738.278 6254.620 12804.724 13677.340 6986.453 4619.755 5616.892 11659.063 2600.101 6848.204 14896.967 6274.463 3109.699 10549.086 4612.493 17310.469 5775.947 15886.878 5279.786 7600.016 6185.867 5536.859 3644.490 6303.174 9971.938 6237.656 5934.758 6615.560 16476.091 5757.597 12609.355 9210.712 8468.179 3216.528 8470.049 12282.619 12804.917 6168.648 8444.414 8269.278 0.000 5344.987 5964.955 7246.832
3562.469 7006.595 16791.569 3957.126 17573.709 1190.941 7679.442 5963.864 6745.333 6338.606 1512.524 6703.125 4578.466 12090.932 6665.951 5610.958 9416.669 13810.425 4338.109 7744.050 5276.330 3536.944 10356.711 7681.806 9355.906 13985.875 11056.788 10734.761 4526.147 9319.937 4325.307 13312.526 10887.969 13773.928 8546.167 15966.702 7522.620 14194.142 3567.392 10364.443 1557.346 9481.510 5191.171 8079.742 4545.361 6512.150 13368.309 1479.466 7046.742 7789.987 1542.195 10989.744 8737.925 6094.953 11816.909 5470.928 5505.778 4151.475 1555.911 11978.189 8983.109 4384.716 2531.968 6202.922 7345.536 4382.883 1521.566 10440.316 1575.754 5442.803 6984.669 8008.010 12853.818 9354.047 16282.736 252.045 7439.102 1158.257 722.371 3991.598 2536.297 6504.740 3121.503 828.136 3325.870 12019.441 7801.758 12090.937 14360.857 4597.002 5388.904 7234.621 7588.388 10904.615 1469.940 12222.958 7370.539 5510.244 0.000 7928.953 6902.695
4672.197 2952.562 21248.555 5069.936 12975.514 8802.632 3107.462 12456.596 14267.128 3493.196 6486.274 3306.045 11758.665 7878.183 5724.140 8821.933 1981.080 11520.035 7135.691 7365.127 9033.334 8280.903 15769.940 2268.331 11338.602 6618.456 5858.915 13387.136 12102.007 2118.545 5461.141 8787.346 13554.245 10611.736 2305.798 14156.826 3133.892 7258.823 11151.144 8496.225 6358.815 1552.557 11076.006 5798.334 11725.560 3585.167 20944.169 6548.132 5313.285 2369.249 9155.847 13856.146 10135.843 5721.817 12812.419 3780.220 3815.070 5293.069 7593.036 7866.833 11849.510 5274.027 8589.735 2159.530 14911.859 7274.468 9087.901 18016.176 7563.635 3752.095 7153.120 1685.357 20429.679 1539.875 20739.721 7640.241 2985.856 8372.132 7545.698 4433.554 9593.320 6903.490 5549.480 8435.287 5787.109 19595.301 285.540 7671.465 7615.708 11758.325 3698.196 3855.889 10454.790 7963.218 7672.823 4926.047 3655.119 5745.320 7748.095 0.000 2668.156
3658.972 284.406 21640.452 3564.261 15603.293 7639.039 857.143 10836.264 12885.565 5216.678 5543.123 5148.492 10815.514 5832.861 7438.879 6547.232 4608.858 9283.295 7621.590 5090.425 6758.633 6803.751 16129.167 1218.342 9063.901 8091.325 8486.693 11112.434 11110.900 4746.324 6142.111 6742.024 11279.543 13162.113 2127.273 16575.568 764.839 7755.047 9833.956 10693.672 5415.664 4180.335 9455.673 7995.780 10782.408 5043.832 19847.318 5604.980 2808.645 1110.803 8126.948 11581.445 7861.141 7420.652 10537.717 4377.060 4411.911 3705.794 6169.676 5821.511 9574.809 3608.037 8082.020 2154.606 13930.289 7666.365 7798.128 16995.348 6140.275 4348.936 4878.419 4070.840 19332.827 4167.653 21131.618 6697.089 616.803 7116.485 6602.546 4099.432 8650.168 4628.788 4205.992 7492.135 4281.434 18574.473 2531.303 5626.143 10243.487 10815.174 4295.037 1477.059 8180.089 5821.704 6296.292 7553.826 1283.656 7239.705 6804.944 2658.499 0.000
NODE_COORD_SECTION
1 -2164.012052 1974.697434
2 -5556.079339 1891.390506
3 10370.772512 -4794.865172
4 -2800.124155 2954.627064
5 -6887.073050 -11717.627728
6 1059.686221 3303.175934
7 -6120.608800 1963.869761
8 1710.197853 7691.492738
9 4736.400244 6344.619715
10 -2958.570106 -1638.936721
11 -339.802688 2182.966347
12 -3240.527403 -1773.535103
13 4564.712457 2370.732994
14 -10523.810824 3145.107820
15 -1653.428735 -3148.119698
16 -2557.789534 6482.518098
17 -5889.563545 -2096.279654
18 -11440.243013 6779.957979
19 521.084562 -1124.115419
20 -5096.769337 6139.898083
21 -2283.882196 6307.890602
22 -1038.084760 5006.046241
23 8646.469062 -1476.308781
24 -6003.877506 1361.480081
25 -3998.768825 9401.679459
26 -9806.313828 -3496.674426
27 -4546.846414 -5443.513338
28 -3789.566371 11285.907663
29 4160.046915 3849.090205
30 -5841.762242 -2332.019026
31 -964.342211 -1064.374685
32 -11710.107948 3135.728816
33 -3637.938162 11401.259392
34 -3230.885317 -9621.996694
35 -6386.116720 847.222947
36 -1356.624577 -10556.988266
37 -5978.220995 2067.558679
38 -11884.259725 -979.353308
39 2728.977192 4178.378801
40 -2019.611491 -6641.317893
41 -386.011417 2080.070078
42 -6027.583941 -1564.379640
43 678.569381 6737.980527
44 -2579.281089 -4178.691623
45 4562.025593 2403.729163
46 -3109.131861 -1303.785782
47 9781.227489 10385.038635
48 -335.868452 2346.899834
49 -5469.445405 3959.443785
50 -6052.352382 1422.903389
51 1563.087857 3165.567931
52 -2937.202669 11730.879663
53 -4485.825308 8445.118844
54 -1163.449567 -2787.046823
55 -6165.611116 11077.623460
56 -2483.606277 -79.372970
57 -2517.276722 -182.427749
58 -2816.241316 3242.933806
59 -286.917493 3349.163138
60 -10315.839256 3392.767762
61 -2541.810083 9808.756705
62 -3017.512294 3439.831472
63 1667.520468 956.649738
64 -4237.895353 1023.120904
65 7273.714912 3181.886811
66 660.267673 -1282.302707
67 963.235283 3718.874777
68 8281.754199 7765.299423
69 -300.950770 3427.363678
70 -2404.658330 -161.289079
71 -4497.241981 6191.412210
72 -4629.807392 -1477.741793
73 9636.942448 10089.397618
74 -5815.294566 -1682.541419
75 10957.984839 -4712.733557
76 577.498245 2402.599761
77 -5912.813182 1994.929243
78 621.702344 3420.811871
79 295.361155 2793.064372
80 -1964.677153 767.624036
81 2567.159233 2139.514955
82 -4190.000535 5802.534773
83 -2034.611670 2718.243336
84 1279.971238 2559.228423
85 -2073.774140 3213.404597
86 9576.256473 8339.546193
87 -5179.592962 -350.501274
88 -10494.539259 2911.393864
89 -7973.125702 -6630.553137
90 4582.731584 2371.907273
91 -2549.836077 -70.311558
92 -6044.456532 2757.977956
93 -2422.062032 8552.408332
94 -9131.511511 4848.494781
95 -142.405068 3311.779394
96 -8279.887958 -3744.495920
97 -5912.213966 2541.906997
98 -1056.267264 -2199.033609
99 709.551186 2450.263812
100 -5377.475078 -414.902991
101 -5451.391305 1852.358892
DEMAND_SECTION
1 0
2 1
3 10
4 5
5 58
6 6
7 7
8 7
9 95
10 8
11 8
12 5
13 10
14 1
15 5
16 7
17 63
18 57
19 2
20 7
21 6
22 7
23 4
24 10
25 8
26 6
27 8
28 4
29 1
30 1
31 5
32 5
33 3
34 10
35 1
36 2
37 64
38 4
39 1
40 9
41 4
42 5
43 6
44 9
45 1
46 3
47 54
48 7
49 6
50 1
51 1
52 10
53 6
54 8
55 5
56 3
57 10
58 10
59 2
60 10
61 9
62 3
63 9
64 2
65 10
66 9
67 83
68 10
69 3
70 85
71 1
72 93
73 10
74 7
75 10
76 5
77 10
78 7
79 1
80 10
81 5
82 8
83 2
84 4
85 2
86 3
87 6
88 5
89 53
90 6
91 4
92 8
93 1
94 6
95 4
96 5
97 1
98 4
99 6
100 1
101 6
DEPOT_SECTION
1
-1
EOF
