NAME : poryos-tokyo-n25-poi
COMMENT : Poryos2026 shortest metric; city tokyo; 3-decimal seconds/meters; ENU ref in poryos-tokyo-n25-poi.vrp.json
TYPE : CVRP
DIMENSION : 26
EDGE_WEIGHT_TYPE : EXPLICIT
EDGE_WEIGHT_FORMAT : FULL_MATRIX
CAPACITY : 125
EDGE_WEIGHT_SECTION
0.000 8915.643 4359.030 2693.502 12197.892 10226.541 7536.433 5346.029 3268.791 7386.458 9216.232 3808.213 8941.130 3922.638 12602.378 2393.747 12868.769 3754.684 3389.120 15918.840 12563.297 1041.379 3488.927 5882.379 13920.928 4326.167
8910.253 0.000 10601.937 7743.060 19201.985 6778.864 5470.601 10303.606 7632.183 13518.252 6128.347 8788.872 5938.143 12601.928 20917.493 11048.166 6432.638 12409.103 7160.030 24573.259 21072.245 9675.790 5691.569 14388.736 14475.380 13011.266
3906.819 10668.215 0.000 3522.543 9367.028 13136.863 10695.424 8073.150 3449.039 9064.927 12278.013 2199.166 12087.809 3312.947 12014.218 2251.782 13479.047 3096.274 3589.247 14470.332 11337.701 3952.170 6246.033 5383.852 16606.042 3703.687
3136.417 7663.595 3832.179 0.000 12452.600 11102.568 8661.130 7950.094 759.021 10245.562 10243.718 2039.487 10053.514 6515.259 15292.276 4961.497 10943.602 6322.434 695.618 17905.045 14772.414 4075.381 4211.738 8619.131 16486.869 6938.967
12278.079 19250.378 9193.488 12191.953 0.000 22097.203 19565.136 16102.631 12090.313 16638.819 21238.353 10606.561 20969.833 10845.403 12300.032 10304.899 21618.065 10449.333 12258.658 12265.217 10332.163 12323.430 15206.373 11111.553 24635.523 10682.974
10358.392 6971.343 13567.611 10864.636 22273.373 0.000 3425.722 9226.530 11439.926 12261.935 1352.207 12639.787 1761.590 13399.651 20522.077 12566.378 12648.656 13415.861 11560.255 25021.519 21350.112 10522.657 7176.683 15180.649 9548.064 13803.180
7536.448 5470.601 10964.005 8261.030 19586.532 3373.881 0.000 6883.149 8836.320 9918.553 1954.314 10036.181 1679.212 10413.522 18043.935 9782.387 11903.239 10429.731 8956.648 22543.377 18871.969 7536.527 4573.077 12194.520 9677.894 10817.051
5374.093 10453.187 8703.540 7509.445 16214.426 9531.456 7060.697 0.000 8084.735 3313.359 8387.449 9069.909 8206.573 6091.983 11681.587 6482.924 16128.460 6227.836 8205.063 16695.890 13024.482 4716.573 5140.900 7142.477 8768.320 6495.512
3049.209 7708.221 3496.761 552.580 12108.237 11184.032 8742.594 7936.890 0.000 10232.358 10325.182 1695.124 10134.978 6212.809 14956.858 4734.474 10695.998 5996.135 445.908 17569.627 14436.996 3988.173 4293.202 8283.713 16511.789 6603.549
7500.156 13167.058 9651.625 9635.508 16499.851 12159.473 9688.714 3082.955 10210.798 0.000 11015.466 10399.525 10834.590 6309.643 8659.295 7261.534 18842.332 6592.154 10331.126 13740.923 10971.805 6743.876 7854.771 5578.456 9407.672 6570.567
9229.427 6271.607 12438.647 9735.672 21144.409 1419.567 2073.515 8109.879 10310.962 11145.284 0.000 11510.823 409.383 12212.522 19405.426 11437.414 11948.920 12228.732 10431.290 23904.868 20233.461 9335.528 6047.719 13993.520 9305.268 12616.051
3762.883 8806.100 2373.958 2011.736 10762.966 12448.948 10007.510 8998.423 1646.036 10248.756 11590.098 0.000 11399.894 5108.499 13852.549 3630.165 11489.822 4891.826 1936.532 16465.318 13332.687 4627.140 5558.118 7179.404 17573.322 5499.239
9035.322 6077.502 12244.542 9541.567 20950.304 1711.657 1795.951 7980.902 10116.857 11016.306 292.090 11316.718 0.000 11934.958 19276.449 11243.309 11754.815 11951.167 10237.185 23775.891 20104.483 9057.963 5853.614 13715.956 9191.392 12338.487
3839.711 12365.518 3811.309 6096.812 10848.505 13260.794 10405.531 5985.844 6143.027 6208.964 12085.330 5049.138 11810.228 0.000 8962.291 2043.167 16329.019 381.527 6283.234 12495.297 8867.792 3166.138 7053.231 2289.146 14518.736 630.663
12216.326 20576.293 12197.640 14489.955 11948.530 20689.077 18098.784 11656.347 14536.170 8943.340 19519.762 13442.281 19244.660 8568.751 0.000 10436.311 24722.162 8736.525 14676.378 5644.549 2723.371 11489.632 15264.006 6665.846 17033.392 8130.070
2370.013 10989.472 2845.173 4280.575 10389.152 12300.371 9657.070 6192.683 4542.427 6974.993 11336.868 3480.882 11061.767 1855.389 10654.449 0.000 14739.373 1662.564 4682.635 13861.983 10559.951 2374.763 5562.756 3981.304 14725.575 2301.139
13198.820 6767.047 13708.155 11354.443 21867.667 12804.114 12158.526 16086.048 11028.002 19300.693 12153.598 11800.480 11963.394 16616.707 25360.757 15138.650 0.000 16400.034 10555.850 27864.480 24731.849 13964.358 11283.090 18687.612 20500.631 17007.448
3884.841 12509.716 3623.994 5909.497 10617.656 13404.993 10549.729 6130.042 5955.712 6491.475 12229.528 4861.823 11954.426 401.642 9147.532 1855.853 16141.704 0.000 6095.920 12672.569 9053.034 3211.267 7192.916 2474.387 14662.934 794.222
3295.222 7262.314 3759.468 798.593 12370.944 11372.819 8931.381 8182.903 472.153 10478.371 10513.969 1957.831 10323.765 6475.515 15219.565 4997.181 10250.091 6258.842 0.000 17832.334 14699.703 4234.186 4481.989 8546.420 16757.120 6866.256
16011.936 24566.544 14919.104 17566.283 12127.201 25182.028 22591.734 16446.382 17492.779 13733.375 24012.712 16375.478 23737.610 12500.430 5939.950 13784.727 27625.080 12585.253 17632.987 0.000 3852.897 15396.885 19204.679 10656.097 21823.427 12120.321
12439.239 20799.206 11981.301 14628.480 10426.962 21414.689 18824.396 12893.028 14554.977 10779.184 20245.374 13437.675 19970.272 8791.664 3031.120 10659.224 24687.277 8959.439 14695.184 3841.599 0.000 11712.545 15486.919 6888.759 19475.026 8352.983
1043.682 9498.810 4507.531 3498.275 12346.394 10394.086 7538.823 4631.038 4073.565 6538.605 9218.621 4627.575 8943.520 3245.410 11788.332 2501.668 13615.273 3091.518 4193.893 15298.219 11784.885 0.000 4173.100 5101.375 13163.930 3648.939
3410.036 5671.701 6529.484 3826.509 15235.246 7077.529 4636.090 4849.028 4401.799 8063.674 6218.679 5601.660 6028.475 7049.070 15462.915 5618.023 11146.230 6978.960 4522.127 19143.115 15513.577 4137.336 0.000 8830.068 12461.830 7452.599
5813.417 14137.060 6085.010 8331.395 11099.116 15032.336 12177.073 6987.031 8423.540 5692.393 13856.871 7329.651 13581.770 2456.121 7079.192 4323.681 18448.393 2623.895 8563.748 10656.101 6984.693 5050.399 8824.773 0.000 14971.654 2017.440
14032.366 14651.479 17237.763 16167.718 24748.650 9742.236 9455.393 8829.305 16743.008 9686.729 9394.660 17728.182 9281.182 14626.207 17021.971 15017.148 20466.081 14762.060 16863.336 22103.599 19525.104 13374.846 12645.699 14831.633 0.000 15029.736
4116.974 12607.784 4067.570 6359.886 10661.956 13503.060 10647.797 6228.110 6406.100 6451.229 12327.596 5312.211 12052.494 464.156 8672.173 2306.241 16592.092 606.456 6546.308 12176.519 8577.675 3443.401 7295.497 1999.028 14761.002 0.000
NODE_COORD_SECTION
1 -2164.012052 1974.697434
2 -8708.413453 -1913.724102
3 145.521853 320.855216
4 -2549.836077 -70.311558
5 8622.843196 -866.323896
6 -11620.308060 3134.634601
7 -8924.304114 3170.919249
8 -4167.809643 5991.723045
9 -2319.323552 -510.114592
10 -2384.197296 8168.451755
11 -10498.444188 3145.133306
12 -1035.962287 -927.872429
13 -10276.754181 3150.288826
14 489.515740 3424.398505
15 4815.586488 8874.085730
16 -152.434563 2110.963517
17 -8675.802706 -7750.442605
18 635.963845 3175.660997
19 -2613.650680 -653.827968
20 9588.576464 10010.867079
21 6747.086473 7913.490335
22 -1959.248072 2728.434128
23 -5194.258738 1572.247549
24 1449.630687 4884.420784
25 -10098.574996 11508.566481
26 848.103618 3512.822201
DEMAND_SECTION
1 0
2 8
3 82
4 3
5 53
6 3
7 10
8 67
9 7
10 3
11 4
12 9
13 4
14 5
15 80
16 3
17 5
18 1
19 8
20 5
21 7
22 6
23 79
24 3
25 6
26 5
DEPOT_SECTION
1
-1
EOF
