NAME : mamut-lyon-n25-poi
COMMENT : Mamut2026 fastest metric; city lyon; 3-decimal seconds/meters; ENU ref in mamut-lyon-n25-poi.vrp.json
TYPE : CVRP
DIMENSION : 26
EDGE_WEIGHT_TYPE : EXPLICIT
EDGE_WEIGHT_FORMAT : FULL_MATRIX
CAPACITY : 171
EDGE_WEIGHT_SECTION
0.000 52.143 165.787 143.162 83.030 82.290 203.629 198.686 45.676 175.748 154.869 146.706 68.172 129.794 96.191 188.078 212.159 179.862 124.768 194.929 169.690 206.730 69.064 104.755 136.057 193.616
93.481 0.000 199.033 153.606 150.306 93.629 268.073 199.758 110.121 176.841 159.789 102.856 135.448 197.070 44.048 252.522 279.436 247.138 135.213 144.746 236.966 274.006 133.508 169.199 146.501 226.862
229.680 209.159 0.000 331.332 263.870 160.429 388.383 151.415 246.319 359.324 342.271 218.551 249.012 310.634 253.206 388.721 385.573 360.702 312.938 266.774 350.531 387.570 269.707 305.398 324.227 128.647
85.760 91.984 231.480 0.000 156.030 147.984 259.736 252.063 101.784 128.596 105.893 145.102 152.404 214.027 66.352 240.753 284.298 262.986 75.792 186.992 253.923 290.963 125.171 160.862 96.000 259.310
93.126 143.742 228.499 177.592 0.000 152.041 143.878 262.143 66.291 188.715 189.299 210.163 38.355 112.419 181.770 144.391 182.342 116.197 159.198 258.387 106.026 143.066 52.903 117.722 170.487 256.329
108.687 70.310 132.735 192.483 165.113 0.000 283.279 131.682 125.327 220.475 203.422 79.702 150.255 211.877 114.358 267.728 291.797 261.945 174.089 127.926 251.773 288.813 148.714 184.405 185.378 160.564
160.472 211.089 304.235 244.938 97.904 227.777 0.000 337.878 142.027 228.478 256.646 285.899 92.616 180.621 249.116 125.231 227.534 100.866 224.311 334.122 90.695 46.166 150.808 157.486 222.725 332.064
211.325 161.234 152.525 283.407 267.750 161.797 385.916 0.000 227.964 310.691 293.639 169.919 252.892 314.514 205.281 370.365 396.880 364.582 265.013 218.142 354.411 391.450 251.351 287.043 276.301 67.492
61.231 111.847 225.491 145.697 63.005 141.994 195.838 258.390 0.000 167.957 157.404 206.410 90.976 152.599 149.874 180.287 220.400 178.718 127.303 254.633 168.547 205.587 32.145 96.964 138.592 253.320
152.796 159.770 298.517 90.349 177.322 215.020 249.666 319.849 135.818 0.000 69.334 212.888 198.649 260.271 134.138 182.339 242.725 204.571 95.991 254.778 245.040 284.368 146.463 117.690 64.060 326.346
168.834 149.665 309.590 97.983 212.565 222.766 284.909 309.744 171.061 56.575 0.000 202.783 233.892 295.514 124.033 217.582 277.968 239.814 114.858 242.080 280.283 319.611 181.706 152.933 71.693 337.419
123.028 72.937 195.800 194.360 179.454 90.396 297.620 177.374 139.667 170.935 153.882 0.000 164.596 226.218 86.380 282.069 308.583 276.285 176.716 78.386 266.114 303.154 163.055 198.746 168.071 213.309
96.626 147.242 231.999 181.092 25.669 155.541 150.182 265.643 69.791 213.678 192.799 213.663 0.000 88.006 185.270 150.694 154.798 122.500 162.698 261.887 112.329 149.369 78.572 142.686 173.987 259.828
171.703 222.319 307.076 256.169 100.746 230.618 225.259 340.720 144.868 288.755 267.876 288.740 85.888 0.000 260.347 225.771 229.875 197.577 237.775 336.963 187.406 224.446 153.649 217.763 249.064 334.905
76.279 30.885 190.810 136.404 133.104 106.005 250.871 223.709 92.918 167.195 148.111 117.217 118.246 179.868 0.000 235.320 262.233 229.935 118.010 159.107 219.764 256.804 116.306 151.997 129.299 218.640
177.257 227.092 340.735 227.383 200.420 257.239 170.654 373.634 158.915 197.581 229.351 310.310 221.746 283.368 231.561 0.000 282.459 59.917 193.414 352.201 92.538 156.139 169.560 103.726 191.828 368.565
218.445 269.061 359.516 286.768 169.064 283.058 287.802 393.160 200.103 256.966 288.736 341.180 163.775 251.781 290.946 250.636 0.000 232.697 252.799 389.403 222.526 193.627 210.748 185.039 251.213 387.345
187.296 237.912 351.555 271.761 198.842 268.059 110.737 384.454 168.954 252.741 283.469 332.475 193.553 281.559 275.939 83.843 236.781 0.000 248.574 380.698 40.469 96.222 179.599 140.525 246.988 379.385
103.648 109.873 249.369 80.064 173.919 165.873 267.921 269.952 119.672 70.160 58.685 162.991 170.293 231.915 84.241 212.842 273.228 235.074 0.000 204.881 265.583 302.623 143.060 148.193 21.163 277.199
192.630 147.235 271.690 224.331 249.454 166.286 367.221 253.264 209.269 200.906 183.853 146.303 234.596 296.219 116.351 343.930 378.584 346.286 221.929 0.000 336.115 373.155 232.656 268.348 198.041 289.199
181.272 231.888 345.532 249.469 204.435 262.035 122.477 378.431 162.931 219.667 251.437 326.451 205.294 287.384 253.647 43.374 273.232 38.803 215.500 374.287 0.000 132.672 173.576 125.812 213.915 373.361
227.806 278.422 371.568 312.272 165.238 295.110 119.776 405.212 209.360 285.538 317.307 353.232 159.949 247.955 316.449 118.443 220.746 96.520 281.371 401.456 86.348 0.000 218.141 184.529 279.785 399.397
41.478 92.094 205.738 125.944 64.641 122.241 163.693 238.637 23.137 135.811 137.651 186.657 85.967 147.590 130.122 148.142 188.255 170.374 107.550 234.880 161.354 198.394 0.000 64.819 118.839 233.567
73.530 124.147 237.790 157.996 96.693 154.294 168.131 270.689 55.189 141.536 169.704 218.710 118.020 179.642 162.174 110.083 193.979 132.315 137.369 266.933 165.792 202.832 65.834 0.000 135.783 265.620
119.556 125.781 265.277 60.529 186.663 181.781 259.006 285.860 135.580 48.997 75.989 178.899 186.201 247.823 100.149 191.679 252.066 213.911 62.002 220.789 254.381 293.708 155.803 127.030 0.000 293.107
216.844 197.168 128.423 319.341 266.706 163.265 391.219 67.492 233.483 346.626 329.573 205.853 251.848 313.470 241.216 375.884 388.409 363.537 300.947 254.077 353.366 390.406 256.870 292.562 312.236 0.000
NODE_COORD_SECTION
1 135.757630 21.597263
2 925.524907 -664.465151
3 -755.754223 -2463.491125
4 1572.232122 356.712536
5 -210.602233 919.675547
6 147.915374 -1185.142064
7 -550.549337 1522.423208
8 -362.969805 -3120.010774
9 190.540062 677.808509
10 2074.301446 1510.073939
11 2112.517818 724.790285
12 1226.581033 -1760.138503
13 -551.831834 918.829512
14 -588.252048 678.722575
15 1331.992481 -636.438086
16 -133.100240 2408.152359
17 -2625.151057 2450.429506
18 -215.970471 2016.839551
19 1311.527865 586.258915
20 2795.689880 -2582.291274
21 -16.484506 2008.933276
22 -688.801394 1564.083706
23 187.490929 925.365521
24 268.267214 1822.623460
25 1553.680396 844.508492
26 -492.268409 -3111.087982
DEMAND_SECTION
1 0
2 1
3 2
4 7
5 10
6 1
7 7
8 2
9 10
10 2
11 3
12 6
13 2
14 9
15 1
16 5
17 5
18 9
19 93
20 1
21 61
22 4
23 2
24 8
25 3
26 91
DEPOT_SECTION
1
-1
EOF
