NAME : mamut-san_francisco-n25-poi
COMMENT : Mamut2026 euclidean metric; city san_francisco; 3-decimal seconds/meters; ENU ref in mamut-san_francisco-n25-poi.vrp.json
TYPE : CVRP
DIMENSION : 26
EDGE_WEIGHT_TYPE : EXPLICIT
EDGE_WEIGHT_FORMAT : FULL_MATRIX
CAPACITY : 193
EDGE_WEIGHT_SECTION
0.000 18505.943 2180.832 746.130 1055.176 1872.664 8621.351 905.463 6922.256 1754.770 14749.449 1381.855 535.076 8566.889 10839.907 1464.650 1845.288 14639.918 1518.895 348.003 16036.441 14480.621 6865.871 2834.145 1992.631 15629.910
18505.943 0.000 18665.011 18335.685 18166.095 18582.971 20626.891 18639.572 16332.755 17533.124 32215.164 17162.452 18052.693 23170.982 25454.026 19121.820 17628.813 20927.110 17500.196 18673.160 30800.710 20817.022 16336.888 17952.309 19873.798 32782.911
2180.832 18665.011 0.000 1473.536 1255.989 311.869 10800.683 3080.180 8906.438 1305.828 15893.657 2322.006 1961.092 10605.481 12794.924 989.067 1147.519 12529.605 3457.296 1878.791 17829.766 12371.872 8850.092 4974.011 3897.266 16877.212
746.130 18335.685 1473.536 0.000 322.810 1161.687 9350.505 1648.351 7483.868 1096.339 15270.300 1232.547 518.497 9306.131 11566.406 979.624 1150.229 13894.114 2019.722 543.448 16731.955 13734.765 7427.414 3500.659 2679.688 16181.935
1055.176 18166.095 1255.989 322.810 0.000 949.760 9626.318 1947.644 7653.606 791.303 15564.270 1191.260 714.022 9621.435 11886.656 1002.100 830.978 13594.917 2201.358 865.289 17054.742 13435.269 7597.224 3740.025 3002.489 16483.070
1872.664 18582.971 311.869 1161.687 949.760 0.000 10493.771 2774.122 8603.153 1109.254 15755.143 2050.109 1650.846 10328.034 12532.224 784.990 974.804 12815.134 3149.699 1576.591 17594.933 12656.995 8546.779 4662.143 3625.347 16724.419
8621.351 20626.891 10800.683 9350.505 9626.318 10493.771 0.000 7720.621 4393.845 10117.875 12761.704 9068.354 8925.720 3115.481 4937.405 9973.716 10269.440 23159.293 7619.315 8925.000 10174.231 22997.892 4403.679 5972.233 7198.660 12951.384
905.463 18639.572 3080.180 1648.351 1947.644 2774.122 7720.621 0.000 6212.084 2585.002 14235.709 1894.838 1308.769 7697.399 9998.806 2294.288 2698.503 15541.358 1171.287 1206.230 15250.163 15381.863 6156.159 2029.195 1341.789 15069.008
6922.256 16332.755 8906.438 7483.868 7653.606 8603.153 4393.845 6212.084 0.000 7831.748 16284.880 6678.990 6969.018 6865.740 9121.942 8380.224 8011.386 20346.838 5464.154 7270.241 14519.192 20183.796 56.461 4213.865 6515.515 16687.783
1754.770 17533.124 1305.828 1096.339 791.303 1109.254 10117.875 2585.002 7831.748 0.000 16355.302 1153.082 1276.349 10281.217 12579.867 1600.159 182.150 13046.592 2526.665 1633.678 17791.211 12885.664 7775.946 4158.683 3743.579 17274.039
14749.449 32215.164 15893.657 15270.300 15564.270 15755.143 12761.704 14235.709 16284.880 16355.302 0.000 16082.871 15283.936 9671.122 8203.935 14976.093 16371.376 26806.319 15196.696 14757.676 6794.449 26675.518 16263.705 14363.671 12894.024 1290.899
1381.855 17162.452 2322.006 1232.547 1191.260 2050.109 9068.354 1894.838 6678.990 1153.082 16082.871 0.000 891.403 9435.964 11791.929 2178.046 1332.396 14095.923 1450.227 1511.024 17104.024 13934.163 6623.157 3096.616 3216.354 16939.034
535.076 18052.693 1961.092 518.497 714.022 1650.846 8925.720 1308.769 6969.018 1276.349 15283.936 891.403 0.000 9005.800 11304.634 1480.107 1392.259 14271.128 1505.589 620.668 16532.686 14110.950 6912.574 3026.154 2508.791 16164.932
8566.889 23170.982 10605.481 9306.131 9621.435 10328.034 3115.481 7697.399 6865.740 10281.217 9671.122 9435.964 9005.800 0.000 2453.406 9653.982 10395.543 23128.306 8061.369 8791.493 7967.220 22971.501 6855.954 6571.278 6710.027 9925.115
10839.907 25454.026 12794.924 11566.406 11886.656 12532.224 4937.405 9998.806 9121.942 12579.867 8203.935 11791.929 11304.634 2453.406 0.000 11821.010 12683.043 25259.233 10449.385 11037.394 5519.303 25104.880 9118.933 8999.625 8911.690 8191.759
1464.650 19121.820 989.067 979.624 1002.100 784.990 9973.716 2294.288 8380.224 1600.159 14976.093 2178.046 1480.107 9653.982 11821.010 0.000 1534.302 13474.325 2936.286 1118.687 16840.879 13317.564 8323.794 4291.130 2945.700 15941.302
1845.288 17628.813 1147.519 1150.229 830.978 974.804 10269.440 2698.503 8011.386 182.150 16371.376 1332.396 1392.259 10395.543 12683.043 1534.302 0.000 12900.458 2690.830 1693.528 17875.190 12739.757 7955.552 4316.640 3822.685 17299.817
14639.918 20927.110 12529.605 13894.114 13594.917 12815.134 23159.293 15541.358 20346.838 13046.592 26806.319 14095.923 14271.128 23128.306 25259.233 13474.325 12900.458 0.000 15541.985 14378.756 30043.033 163.057 20295.903 17188.412 16418.985 27984.335
1518.895 17500.196 3457.296 2019.722 2201.358 3149.699 7619.315 1171.287 5464.154 2526.665 15196.696 1450.227 1505.589 8061.369 10449.385 2936.286 2690.830 15541.985 0.000 1857.220 15824.235 15380.382 5407.702 1647.085 2384.688 15983.352
348.003 18673.160 1878.791 543.448 865.289 1576.591 8925.000 1206.230 7270.241 1633.678 14757.676 1511.024 620.668 8791.493 11037.394 1118.687 1693.528 14378.756 1857.220 0.000 16190.569 14220.034 7213.854 3174.625 2140.045 15659.498
16036.441 30800.710 17829.766 16731.955 17054.742 17594.933 10174.231 15250.163 14519.192 17791.211 6794.449 17104.024 16532.686 7967.220 5519.303 16840.879 17875.190 30043.033 15824.235 16190.569 0.000 29894.703 14521.782 14448.852 14052.908 5917.413
14480.621 20817.022 12371.872 13734.765 13435.269 12656.995 22997.892 15381.863 20183.796 12885.664 26675.518 13934.163 14110.950 22971.501 25104.880 13317.564 12739.757 163.057 15380.382 14220.034 29894.703 0.000 20132.858 17026.870 16261.976 27851.670
6865.871 16336.888 8850.092 7427.414 7597.224 8546.779 4403.679 6156.159 56.461 7775.946 16263.705 6623.157 6912.574 6855.954 9118.933 8323.794 7955.552 20295.903 5407.702 7213.854 14521.782 20132.858 0.000 4158.619 6462.374 16670.558
2834.145 17952.309 4974.011 3500.659 3740.025 4662.143 5972.233 2029.195 4213.865 4158.683 14363.671 3096.616 3026.154 6571.278 8999.625 4291.130 4316.640 17188.412 1647.085 3174.625 14448.852 17026.870 4158.619 0.000 2410.453 15053.064
1992.631 19873.798 3897.266 2679.688 3002.489 3625.347 7198.660 1341.789 6515.515 3743.579 12894.024 3216.354 2508.791 6710.027 8911.690 2945.700 3822.685 16418.985 2384.688 2140.045 14052.908 16261.976 6462.374 2410.453 0.000 13729.485
15629.910 32782.911 16877.212 16181.935 16483.070 16724.419 12951.384 15069.008 16687.783 17274.039 1290.899 16939.034 16164.932 9925.115 8191.759 15941.302 17299.817 27984.335 15983.352 15659.498 5917.413 27851.670 16670.558 15053.064 13729.485 0.000
NODE_COORD_SECTION
1 27567.380647 -311.862562
2 18558.110903 15853.006480
3 29487.347060 722.427523
4 28109.050252 201.268483
5 28253.013969 490.198821
6 29194.524315 615.108414
7 20153.498359 -4712.093979
8 26837.037261 -847.084565
9 20645.207927 -345.848943
10 28306.400320 1279.699218
11 27620.544383 -15061.215451
12 27183.939810 1015.727688
13 27590.995832 222.692284
14 22242.849753 -7023.118427
15 21673.783172 -9409.615103
16 29023.164818 -150.950206
17 28488.398697 1287.141722
18 38480.547359 9446.723631
19 26094.369660 58.651241
20 27915.342580 -306.484125
21 20828.961636 -14863.878073
22 38338.690917 9366.322541
23 20701.578827 -342.655176
24 24811.866972 -974.825654
25 26894.992416 -2187.621195
26 26652.277364 -15914.960294
DEMAND_SECTION
1 0
2 7
3 5
4 9
5 1
6 10
7 1
8 6
9 2
10 5
11 4
12 2
13 9
14 7
15 2
16 87
17 5
18 83
19 3
20 8
21 9
22 6
23 9
24 10
25 4
26 10
DEPOT_SECTION
1
-1
EOF
