NAME : mamut-lyon-n50-hyb
COMMENT : Mamut2026 shortest metric; city lyon; 3-decimal seconds/meters; ENU ref in mamut-lyon-n50-hyb.vrp.json
TYPE : CVRP
DIMENSION : 51
EDGE_WEIGHT_TYPE : EXPLICIT
EDGE_WEIGHT_FORMAT : FULL_MATRIX
CAPACITY : 159
EDGE_WEIGHT_SECTION
0.000 3139.068 6565.443 1683.303 5128.485 5400.649 1285.920 1287.358 3993.932 3377.563 1906.741 3703.466 909.795 4805.129 4675.465 6972.195 2077.068 6100.204 1544.349 1413.135 6751.130 3893.764 4091.891 1616.326 4742.372 7347.925 1346.741 3113.592 3552.909 1832.213 4581.563 4179.045 2898.284 7321.835 3705.128 4168.944 5514.218 3471.586 4928.225 3343.128 3191.321 3261.717 7480.465 6450.046 7717.224 4135.295 1596.511 1478.538 5483.934 8512.339 2466.114
4096.000 0.000 9965.210 3464.007 8528.252 8193.452 4045.150 4495.918 6924.298 3328.620 5039.834 6633.833 4118.354 6445.417 5930.803 8580.104 3422.395 9059.132 4668.029 4772.348 6903.406 3900.837 1520.492 2341.584 6131.469 6360.182 4378.715 4919.375 6483.275 4423.900 6949.175 6310.795 5938.717 10721.602 5955.710 5974.727 4209.847 6680.146 4690.892 4974.076 4959.388 3965.332 6492.723 7240.248 5299.632 5541.538 3856.736 4518.971 4947.463 6094.747 5535.031
6324.400 9325.393 0.000 7587.625 2526.108 5573.912 6326.767 6027.545 4268.580 8671.575 5233.487 3693.439 6297.630 8582.329 9641.995 9433.763 7507.824 5971.026 5671.768 5299.460 11335.658 8715.437 10132.706 7802.652 9039.934 12314.455 6315.003 7318.815 4027.886 5819.538 6762.729 7845.216 7306.643 756.392 7098.719 7620.156 10369.541 5723.919 9666.801 8063.159 7791.305 8083.389 12446.995 11416.576 13737.267 8578.585 6910.256 6131.950 10463.355 14510.212 5091.542
1956.470 2824.254 7283.253 0.000 6055.491 5316.051 1407.801 2618.393 4082.330 2272.024 2197.866 3791.865 2240.830 6076.059 5561.445 8210.746 971.529 7431.239 1826.061 2635.512 5645.591 2788.225 3103.746 1228.704 3972.443 8195.613 2677.776 2343.663 3641.307 1581.932 4025.494 5510.080 4229.319 8039.645 3032.029 3399.015 4408.679 4802.621 3822.686 4604.718 2421.392 2156.178 8328.154 7336.027 8035.361 3365.366 933.054 2809.573 6201.741 8830.475 2693.063
3798.292 6909.346 2632.540 5171.578 0.000 5505.200 3910.719 3501.437 3174.243 6865.838 2817.440 2599.102 3771.522 6488.249 7115.887 7958.393 5565.343 5007.099 3255.721 2773.352 10181.989 7382.039 7744.580 5386.604 7945.598 9788.347 3788.895 6224.479 2933.550 3934.464 5698.401 5751.135 4780.535 3388.932 6004.383 6525.819 9002.493 3395.976 8359.084 5537.051 6603.238 6749.992 9920.887 8890.468 11211.159 7484.249 4494.209 3605.842 7937.247 11984.104 2754.530
5277.314 7337.927 6199.296 5191.642 5462.329 0.000 4672.721 5296.808 2507.986 5883.501 3919.564 3030.924 5250.544 8393.222 9048.716 10039.683 5024.312 9132.573 4051.931 4706.180 6501.618 5117.891 7649.194 5742.376 4389.564 11721.175 5657.499 3778.663 2950.292 4077.870 1242.646 7656.108 6713.364 6955.688 3256.120 3777.556 6879.724 6689.447 5372.028 7469.880 4251.152 5477.053 11853.716 10823.297 12549.034 4102.217 4645.048 5538.670 9870.075 13344.148 3759.504
682.746 3349.859 6260.464 1894.094 5032.702 4476.700 0.000 1403.455 3141.018 3588.354 1175.078 2850.552 1076.147 4971.481 5240.970 7138.547 2287.859 6266.556 808.041 1343.405 6961.921 4104.555 4302.682 1827.117 4953.163 7913.429 1707.277 3324.383 2699.994 1105.523 3657.615 4345.397 3064.637 7016.856 3509.576 4031.013 5725.009 3587.683 5139.016 3821.153 3402.112 3472.508 8045.970 7015.551 8095.612 4346.086 1419.586 1644.890 6049.439 8890.727 1729.806
1286.923 4304.650 5935.297 2961.741 4498.339 5295.486 1625.800 0.000 3888.769 4656.001 1425.312 3548.367 596.529 3822.028 4250.536 5989.094 3355.507 5117.103 1439.186 584.038 8029.569 5172.203 5346.548 2894.764 6020.810 6922.996 923.544 4392.030 3140.059 2157.716 4476.400 3195.945 1915.184 6691.689 4567.422 5088.859 6792.656 2184.228 6206.664 2671.700 4469.759 4540.155 7055.536 6025.117 8406.675 5413.733 2513.062 740.491 5071.896 9118.754 1985.723
4018.320 6698.690 4184.375 4708.794 3107.102 2395.259 3454.887 3944.060 0.000 5607.897 2429.359 1398.867 3991.550 6776.487 7558.510 8422.948 4543.519 7290.602 2792.937 3215.975 7596.301 5290.354 7168.401 5092.701 5300.577 10230.970 4231.518 3814.339 1333.557 2874.117 2588.460 6039.373 5223.158 4940.767 3594.243 4115.680 7043.607 5072.712 6162.325 5979.674 4286.829 5019.710 10363.511 9333.091 11431.187 5013.230 4031.425 4048.465 8379.870 12226.302 2269.299
3551.996 2693.856 8605.699 1725.250 7528.426 6037.837 3014.824 4203.940 5361.651 0.000 3696.215 5071.186 3826.377 7002.882 6488.268 9137.569 1212.087 8930.007 3262.622 4242.535 4374.388 1517.022 2328.622 2155.527 3345.650 8571.133 4168.085 2221.910 4961.311 2982.926 4747.280 6868.260 5728.087 9362.091 3434.508 3263.345 2136.655 6388.168 2405.295 5531.541 1735.642 636.711 8703.674 8262.850 7510.583 2668.386 2127.560 4308.341 7128.564 8305.698 4129.624
1967.492 4647.861 5216.245 2690.586 4007.670 3945.446 1429.727 1877.474 2528.241 4330.753 0.000 2169.298 1940.722 5046.437 5491.925 6692.899 3030.258 5785.789 774.728 1149.389 7589.155 4801.372 5263.587 3074.492 5561.455 8164.384 2164.932 3932.675 1760.990 1341.630 3659.186 4309.324 3156.573 5972.637 3751.336 4272.772 6455.477 3387.680 5766.250 3913.088 4010.404 4169.324 8296.925 7266.506 9380.358 4954.378 2013.217 1981.879 6313.284 10175.473 560.411
3702.251 6382.621 3615.603 4392.725 2538.331 3009.741 3138.817 3542.441 1378.025 5329.932 2113.289 0.000 3675.481 6226.370 7156.891 7872.831 4246.334 6721.830 2476.868 2814.356 7994.015 5373.793 6871.216 4776.632 5698.291 9829.351 3829.899 3977.172 661.587 2558.048 3202.943 5489.256 4821.539 4371.995 3757.076 4278.512 7027.898 4522.595 6325.158 5578.055 4449.662 4741.745 9961.891 8931.472 11115.118 5236.942 3715.356 3646.846 7978.251 11910.233 1867.680
938.020 3955.747 6175.056 2612.839 4738.098 5068.218 1398.533 547.366 3661.501 4307.098 1574.311 3371.036 0.000 3895.334 4323.842 6062.400 3006.604 5190.409 1211.918 823.796 7680.666 4823.300 4997.645 2545.861 5671.908 6996.301 631.130 4043.128 3220.478 1930.449 4249.132 3269.250 1988.490 6931.448 4340.155 4861.591 6443.753 2731.594 5857.761 2745.006 4120.856 4191.252 7128.842 6098.423 8125.155 5064.831 2285.794 568.743 5145.201 8920.270 2133.683
5376.174 6052.887 8631.978 6021.647 7195.021 8399.966 5715.052 4503.132 6773.100 6536.659 4896.459 6268.410 4685.780 0.000 3161.162 3322.722 5996.334 3965.499 5334.740 4465.921 10172.073 7314.707 7094.785 4836.302 9122.094 6694.594 4364.633 7493.315 5860.102 6216.048 8533.603 1217.162 2826.282 9388.370 8513.351 8548.666 8673.315 4267.904 8349.167 3064.463 7533.327 6682.659 6710.288 4299.227 8577.455 8466.071 6414.376 4181.580 4941.669 8890.352 4951.203
5231.705 5960.661 10347.105 5929.420 8910.148 9240.268 5570.582 4719.416 7833.551 6444.433 5746.360 7543.085 4541.311 3330.377 0.000 5363.859 5904.108 6188.290 5383.968 4995.846 10079.846 7222.480 7002.559 4744.075 9029.868 3855.093 4096.295 7401.088 7392.528 6102.499 8421.182 3721.289 4499.440 11103.497 8301.150 8456.440 8581.088 6591.130 8256.941 2586.288 7441.101 6590.433 3987.634 2100.167 5737.955 8373.845 6192.534 4236.551 2102.168 6050.851 6305.733
6915.753 8247.098 9766.328 8215.857 8456.697 9939.545 7254.631 6042.711 8312.679 8730.870 6436.038 7807.989 6225.359 3382.245 5093.792 0.000 8190.545 4156.714 6874.319 6005.500 12366.283 9508.917 9288.996 7030.512 11316.305 8627.224 5904.212 9687.525 7399.681 7755.627 10073.182 3281.615 4963.965 10144.581 10165.333 10686.769 10867.525 5271.416 10543.378 5249.962 9727.538 8876.870 8389.970 5978.909 10345.057 10660.282 8112.807 5721.159 6874.299 10640.059 6490.782
2615.782 2839.225 7462.226 777.540 6384.954 5191.555 2067.114 3277.706 4258.862 1432.913 2748.505 3968.396 2900.142 6202.555 5687.941 8337.242 0.000 8090.551 2314.911 3294.825 4674.062 1816.696 2979.792 1355.200 3308.078 8322.109 3337.088 1679.298 3817.839 1770.840 3900.998 6067.933 4888.632 8218.618 2907.533 2734.650 3470.801 5461.934 2851.157 4731.214 1757.027 1184.649 8454.650 7462.523 8050.332 2701.001 1179.850 3468.886 6328.237 8845.446 3181.913
5482.905 8183.398 6361.996 7157.724 5268.457 8718.983 5821.783 4609.862 7092.117 8667.170 5215.476 6587.427 4792.511 3036.620 5493.867 3827.030 7551.489 0.000 5635.168 4784.938 12225.551 9368.185 9225.296 6966.812 10216.793 8603.737 4471.364 8588.013 6179.119 6353.699 8672.382 2299.506 3871.624 6588.694 8763.405 9284.841 10803.825 3152.476 10402.646 4157.621 8665.742 8736.138 8736.278 6592.878 10455.641 9609.716 6709.044 4288.311 6752.637 10799.495 5270.220
1277.149 3944.262 5727.278 1915.857 4518.703 4017.949 661.950 1533.750 2606.865 3610.117 638.036 2316.399 1487.486 5158.645 5587.153 7060.191 2309.622 6153.081 0.000 1456.210 6983.684 4126.318 4488.859 2299.764 4974.926 8259.612 1894.441 3346.146 2165.842 881.308 3198.863 4532.561 3251.801 6483.670 3291.014 3812.450 5746.772 3717.978 5160.779 4008.317 3423.875 3494.271 8392.153 7361.734 8690.016 4367.849 1238.488 1832.054 6408.512 9485.130 1071.444
1167.704 4298.287 5351.259 2842.523 3914.301 4786.246 1445.213 870.848 3369.041 4536.782 841.274 2964.329 1133.734 4006.916 4435.424 6167.260 3236.288 5260.150 1258.599 0.000 7910.350 5052.984 5251.111 2775.545 5901.592 7107.884 1108.432 4272.812 2556.021 1977.129 4295.813 3380.832 2100.072 6107.651 4386.835 4908.272 6673.437 2350.135 6087.445 2856.588 4350.540 4420.936 7240.424 6210.005 8580.571 5294.515 2332.475 925.379 5256.783 9303.641 1401.685
7180.545 6936.212 11163.198 5348.947 10085.925 6532.403 6626.553 7842.468 7624.914 4495.219 7302.962 7566.958 7464.905 10770.211 10255.598 12904.898 4571.407 12655.314 6869.369 7854.263 0.000 3488.844 5866.738 5922.856 2686.415 12464.934 7901.850 4164.254 7486.327 6192.119 5241.846 10635.589 9453.394 11919.590 4208.872 4037.709 3595.412 10026.696 2467.703 9298.870 3993.292 4395.297 12597.474 12030.179 11404.383 2991.293 5734.307 8033.648 10895.893 12199.498 7554.127
4708.896 4206.181 8809.467 2877.298 7732.194 5719.615 4154.904 5370.819 5565.419 1513.295 4831.313 5274.953 4993.256 8298.563 7783.949 10433.250 2099.758 10183.665 4397.720 5382.615 3295.256 0.000 3136.707 3451.207 2509.363 9734.903 5430.202 1956.460 5165.079 3720.470 4429.058 8163.940 6981.745 9565.859 2800.215 2629.052 1988.462 7555.047 1068.786 6827.222 1752.611 1503.730 9867.443 9558.530 8674.353 1969.527 3262.658 5561.999 8322.183 9469.467 5082.479
4418.281 1561.354 9848.688 3019.732 8620.926 7768.240 3973.237 5070.225 6647.766 2448.589 4763.301 6357.300 4692.662 7233.398 6718.784 9368.084 2912.615 9796.291 4391.496 5135.182 5911.352 2908.783 0.000 2786.006 5139.415 7090.076 5034.370 4409.595 6206.743 4147.367 6477.683 7098.775 6594.372 10605.080 5380.172 5209.009 3217.793 7254.453 3698.838 5762.057 4184.231 3016.792 7222.617 7970.142 6029.526 4549.484 3422.043 5174.626 5677.357 6824.641 5258.498
2283.756 1698.641 8055.989 1394.776 6716.008 6124.221 2127.424 2935.700 4855.067 1909.788 2970.603 4564.602 2558.137 5035.424 4520.810 7170.111 1369.463 7649.139 2598.798 3000.658 5545.201 2687.836 2475.565 0.000 4495.223 7154.978 2899.845 2866.443 4414.044 2354.669 4879.944 4900.802 4459.847 8812.381 3886.479 3921.795 4046.443 5119.928 3722.296 3564.083 2906.456 2055.788 7287.519 6295.392 6909.748 3839.200 1787.505 3040.101 5161.106 7704.863 3465.800
5145.256 6318.963 8977.909 4158.949 7900.636 4167.522 4591.264 5807.179 5418.667 3694.476 5267.674 5381.670 5429.616 9324.950 9129.089 11492.016 3483.489 10620.025 4834.080 5818.975 2577.914 2604.237 5283.931 4796.347 0.000 11763.256 5866.562 2067.522 5301.038 4156.830 2876.965 8698.866 7418.106 9734.301 2105.512 1940.977 3533.587 7991.407 1884.896 7862.949 2488.116 3307.379 11895.797 10903.670 10821.577 1227.845 3699.018 5998.359 9769.384 11616.691 5518.839
7816.413 6977.113 12931.814 8473.582 11494.856 11824.976 8155.291 7304.125 10418.260 8988.595 8331.069 10127.794 7126.019 6499.925 3492.513 8425.676 8448.270 9271.806 7968.677 7580.555 12586.938 9584.368 7204.023 7288.237 11574.030 0.000 6681.004 9945.250 9977.236 8687.207 11005.891 6571.442 7276.973 13688.206 10885.859 11000.602 9893.379 9175.838 10374.423 5363.821 9985.263 9134.595 763.238 2914.565 2209.014 10918.007 8777.242 6821.260 2410.732 2521.910 8890.442
1942.998 4449.238 6636.890 3426.959 5026.151 5951.561 2281.876 1069.956 4544.845 4933.010 2156.766 4249.961 1252.604 3590.705 3852.948 5757.771 3820.725 4885.781 2095.262 1346.386 8494.787 5637.421 5491.136 3232.652 6486.028 6525.408 0.000 4857.248 3841.652 2813.792 5132.476 2964.622 1683.861 7393.282 5223.498 5744.934 7069.665 2618.693 6671.881 2274.112 4934.977 5005.373 6657.948 5627.529 8009.087 5878.951 3169.138 209.286 4674.308 8721.165 2717.177
3353.070 4599.712 7411.559 2366.763 6334.286 4372.931 2799.079 4014.994 4105.785 2191.037 3475.488 3815.319 3637.431 7532.764 7336.903 9699.830 1960.700 8827.840 3041.895 4026.789 4257.090 1562.213 4243.380 3004.161 2109.740 9971.071 4074.376 0.000 3734.688 2364.645 3082.374 6906.681 5625.920 8167.951 1772.160 1600.997 3315.466 6199.222 2434.185 6070.764 558.689 1784.590 10103.611 9111.484 9701.620 1502.663 1906.833 4206.174 7977.199 10496.735 3726.653
3275.332 5955.701 4019.121 3965.805 2941.849 2676.696 2711.898 3077.895 1049.830 4911.750 1686.370 561.011 3248.562 5761.824 6692.345 7408.285 3819.415 6501.175 2049.948 2349.810 7575.833 4955.611 6444.297 4349.712 5280.109 9364.805 3365.353 3558.990 0.000 2131.129 2869.897 5024.710 4356.993 4775.513 3338.894 3860.330 6609.716 4058.049 5906.976 5113.509 4031.480 4323.563 9497.345 8466.926 10688.198 4818.760 3288.437 3182.300 7513.705 11483.313 1403.133
1472.876 3918.417 5729.072 1835.869 4651.800 3861.391 790.131 2193.585 2525.708 2989.123 1354.450 2235.242 1866.278 5761.611 6031.100 7892.926 1688.628 6985.816 920.856 2130.381 6247.525 3459.742 4313.510 2219.776 4219.825 8703.560 2497.407 2591.045 2084.685 0.000 3042.305 5135.528 3854.767 6485.465 2411.976 2933.412 5113.846 4377.813 4424.620 4611.283 2668.773 2827.694 8836.101 7805.682 8869.222 3612.748 1158.500 2435.021 6839.570 9664.336 1479.955
4344.047 6095.281 6727.138 3948.996 5649.866 1362.559 3661.302 4641.012 2695.522 4640.855 3652.806 3218.461 4594.748 8265.907 8694.415 10057.621 3781.667 9150.511 3219.213 4563.472 5258.973 3875.245 6406.548 4499.731 3146.919 11366.875 5001.703 2536.017 3137.829 3066.451 0.000 7639.823 6359.063 7483.530 2013.474 2534.910 5637.078 6707.385 4129.382 7115.579 3008.507 4234.408 11499.415 10468.996 11306.388 2859.572 3402.402 4939.317 9472.768 12101.503 3761.125
5586.881 6409.483 8842.685 6378.243 7405.727 8610.673 5925.758 4713.838 6983.806 6893.255 5107.166 6479.116 4896.487 938.814 3517.758 3679.318 6352.930 4176.205 5545.446 4676.627 10528.668 7671.303 7451.381 5192.897 9478.690 7051.190 4575.339 7849.910 6070.808 6426.754 8744.310 0.000 3036.988 9599.077 8836.460 8905.262 9029.910 4478.611 8705.763 3275.170 7889.923 7039.255 7066.884 4655.823 8905.343 8822.667 6770.972 4392.286 5202.339 9246.948 5161.910
3276.558 6280.994 7562.907 4951.377 6039.271 7285.121 3615.436 2403.516 5704.028 6645.637 3490.326 5199.338 2586.164 1906.844 4364.091 4073.910 5345.142 3201.919 3428.822 2679.946 10019.204 7161.839 7322.892 4884.400 8010.446 7473.961 2265.017 6381.666 4791.030 4147.352 6466.036 1280.761 0.000 8319.299 6557.058 7078.494 8782.292 2745.174 8196.299 2967.405 6459.395 6529.791 7606.502 5583.534 9325.865 7403.369 4502.698 2081.964 5622.861 9669.719 3882.132
7101.510 10102.503 777.110 8364.735 3303.218 6351.021 7103.876 6804.654 5045.689 9448.685 6010.597 4470.549 7074.740 9253.670 10419.105 10105.103 8284.934 6642.367 6448.878 6076.569 12112.768 9492.546 10909.815 8579.761 9817.044 13091.564 7092.112 8095.925 4804.996 6596.647 7539.839 8516.556 8083.753 0.000 7875.829 8397.265 11146.651 6428.278 10443.911 8840.268 8568.415 8860.499 13224.105 12193.686 14514.377 9355.695 7687.366 6909.059 11240.464 15287.322 5868.652
3779.936 5026.577 7506.934 2793.629 6429.662 3472.009 3225.944 4441.860 3968.650 2899.132 3902.354 3910.695 4064.296 7959.630 7763.769 10126.696 2514.292 9254.705 3468.760 4453.655 4342.383 1861.771 4576.288 3431.027 2086.943 10397.936 4501.242 838.263 3830.063 2791.511 2181.452 7333.546 6052.786 8263.326 0.000 521.436 3648.373 6626.088 2624.607 6497.629 1296.260 2492.684 10530.477 9538.350 10113.933 1479.866 2333.699 4633.040 8404.064 10909.048 4153.519
4189.367 5436.009 7623.426 3203.060 6546.154 3588.501 3631.420 4851.291 4085.142 3135.099 4207.603 4027.187 4473.727 8369.061 8173.200 10536.127 2904.762 9664.136 3774.009 4863.086 4318.884 2097.739 4812.255 3840.458 2063.444 10807.368 4910.673 1111.633 3946.555 2971.100 2297.944 7742.978 6462.217 8379.818 669.100 0.000 3884.341 7035.519 2726.177 6907.060 1532.227 2728.652 10939.908 9947.781 10349.901 1456.367 2743.130 5042.471 8813.496 11145.016 4333.108
5586.627 4300.132 10405.306 3759.881 9328.033 7130.342 5049.455 6238.571 7161.258 2034.631 5730.846 6870.792 5861.007 9037.513 8522.899 11172.200 3246.717 10964.637 5297.253 6277.166 3555.398 1924.665 3230.658 4190.157 3314.336 9828.854 6202.716 3552.299 6760.918 5017.557 5839.785 8902.891 7762.718 11161.698 4210.942 4039.779 0.000 8422.799 1873.759 7566.172 3348.450 2389.910 9961.395 10297.480 8768.304 3174.454 4162.191 6342.972 8416.134 9563.418 6164.254
3986.518 7117.102 5888.649 5661.337 3517.024 6589.088 4264.027 3276.997 4962.222 7355.597 3337.041 4457.532 3459.646 4215.923 6465.491 5412.334 6055.102 4029.373 3775.322 2961.578 10701.590 7871.798 8069.925 5594.360 8673.890 9137.950 3138.498 7045.110 4049.224 4454.065 6771.621 3478.809 4130.139 6297.744 6863.771 7385.208 9492.252 0.000 8878.685 4886.654 7122.839 7239.751 9270.491 7772.182 10621.629 8066.813 5013.810 2955.445 7286.850 11333.708 3274.131
5310.548 4468.509 9411.119 3478.950 8333.846 5715.406 4756.556 5972.471 6167.071 2030.218 5432.966 5876.605 5594.908 8831.203 8316.589 10965.889 2701.410 10758.327 4999.372 5984.267 2757.613 1023.843 3399.035 3983.847 1971.720 9997.231 5996.405 2461.034 5766.731 4322.122 4424.849 8696.580 7556.408 10167.511 2796.005 2624.842 1648.691 8156.699 0.000 7359.862 2257.184 2020.652 10129.772 10091.170 8936.681 1831.837 3864.310 6136.661 8584.511 9731.795 5684.131
4228.804 5249.994 9344.205 5218.753 7907.247 8237.367 4567.682 3716.516 6830.650 5733.766 4743.460 6540.185 3538.410 3038.323 2499.744 5528.369 5193.441 5219.988 4381.068 3992.946 9369.179 6511.813 6291.892 4033.408 8319.201 5521.934 3093.395 6690.421 6389.627 5099.598 7418.281 2690.257 2442.386 10100.597 7298.250 7745.773 7870.421 5187.560 7546.274 0.000 6730.434 5879.766 5654.475 4274.326 7251.286 7663.178 5189.633 3233.651 3670.834 7717.692 5302.833
3389.207 4635.848 7447.695 2402.900 6370.423 4420.147 2835.215 4051.130 4141.921 2314.297 3511.625 3851.456 3673.567 7568.901 7373.039 9735.967 1913.701 8863.976 3078.031 4062.926 4380.349 1685.472 4366.639 3040.298 2232.999 10007.207 4110.513 604.219 3770.824 2400.781 3129.590 6942.817 5662.056 8204.087 1895.419 1659.571 3438.725 6235.358 2557.444 6106.900 0.000 1737.591 10139.748 9147.621 9720.880 1625.922 1942.969 4242.310 8013.335 10515.994 3762.790
3896.591 3321.390 8123.815 2069.845 7046.543 5555.954 3359.419 4548.535 4879.768 669.343 4040.810 4589.302 4170.972 7347.477 6832.863 9482.164 1556.681 9274.602 3607.217 4587.130 3892.504 1035.138 2956.156 2500.121 2863.767 9198.667 4512.680 1740.026 4479.428 3034.819 4265.397 7212.855 6072.682 8880.207 2952.624 2781.461 2367.309 6732.763 2069.599 5876.136 1253.759 0.000 9331.207 8607.445 8138.117 2186.503 2472.155 4652.936 7473.159 8933.231 4396.827
8299.171 6790.036 13414.571 8956.340 11977.613 12307.734 8638.048 7786.882 10901.017 8825.075 8813.826 10610.551 7608.777 6960.220 3975.271 8603.130 8931.027 9449.261 8451.434 8063.312 12399.861 9397.291 7016.946 7770.994 11627.923 1113.455 7163.761 10428.007 10459.994 9169.964 11488.648 7054.200 7759.730 14170.963 11368.616 11483.359 9706.302 9658.595 10187.346 5846.579 10468.020 9461.786 0.000 2885.700 1955.087 11037.992 9260.000 7304.017 2893.490 2250.089 9373.199
7049.534 7728.978 12051.583 7747.250 10614.625 11058.097 7388.411 6537.245 9651.380 8262.262 7564.189 9360.914 6359.140 4245.854 2164.743 5888.765 7721.937 6734.895 7201.797 6813.675 11897.675 9040.310 7955.887 6561.904 10847.697 3718.456 5914.124 9218.917 9210.357 7920.328 10239.011 4636.766 6245.886 12646.209 10118.980 10274.269 10398.917 7441.332 10074.770 4416.858 9258.930 8408.262 3325.810 0.000 5280.898 10191.674 8010.363 6054.380 2720.451 5575.899 8123.562
7991.004 5765.392 13860.214 8197.578 12423.257 12695.420 8570.908 8642.948 11288.703 7800.431 9201.512 10998.237 8265.385 8380.520 5373.109 10181.986 8172.266 11028.116 8839.120 8707.906 11375.217 8372.647 5992.302 7012.233 10603.279 2206.748 8107.434 9669.246 10847.680 9117.201 11682.747 8360.565 9066.095 14616.606 10689.282 10672.873 8681.658 10602.268 9162.702 7152.944 9536.073 8437.142 1973.955 4464.555 0.000 10013.348 8590.307 8247.690 4232.498 1034.915 9760.885
4622.928 5515.263 8544.138 3457.329 7466.865 4509.212 4068.936 5284.851 5005.854 2910.127 4745.345 4947.898 4907.288 8802.621 8363.980 10969.688 2679.789 10097.697 4311.752 5296.647 3077.473 1849.007 4563.523 4031.238 996.068 10998.147 5344.234 1545.194 4867.267 3634.502 3218.655 8176.538 6895.777 9300.530 1589.812 1418.649 3326.912 7469.079 1678.221 7340.621 1707.897 2503.679 11130.688 10138.561 10101.169 0.000 3176.690 5476.031 9004.275 10896.284 4996.510
1913.681 2875.207 7240.464 728.922 6012.702 5131.599 1365.013 2575.605 4039.542 2423.182 2155.077 3749.076 2198.041 6093.375 5612.398 8260.441 1122.687 7388.450 1783.272 2592.723 5796.749 2939.383 3301.924 1279.656 3787.991 8246.566 2634.987 2159.211 3598.519 1539.143 3841.042 5467.291 4186.531 7996.856 2847.577 3214.563 4559.837 4759.833 3973.844 4631.374 2236.940 2307.336 8379.106 7386.979 8086.313 3180.914 0.000 2766.784 6252.694 8881.428 2650.274
1767.836 4650.348 6461.728 3442.654 4850.988 5776.399 2106.713 894.793 4369.682 5134.120 1981.603 4074.798 1077.442 3415.543 3844.050 5582.609 3836.420 4710.618 1920.099 1171.223 8510.482 5653.116 5692.246 3375.677 6501.723 6516.510 209.286 4872.943 3666.490 2638.629 4957.313 2789.459 1508.698 7218.120 5048.335 5569.772 7270.775 2443.531 6687.577 2265.214 4950.672 5021.068 6649.051 5618.632 8000.189 5894.646 2993.975 0.000 4665.410 8712.268 2542.014
5989.218 5126.819 11104.618 6290.181 9667.660 9997.781 6328.095 5476.929 8591.064 6805.194 6503.873 8300.598 5298.824 4922.747 1915.335 6956.229 6264.869 7492.584 6141.481 5753.359 10440.607 7583.241 5353.728 5104.836 9390.629 2226.850 4853.808 7761.849 8150.041 6860.012 9178.695 4744.247 5449.777 11861.010 8781.885 8817.200 8043.084 7348.643 8524.129 3536.626 7801.861 6951.193 2359.390 2720.451 4109.711 8734.605 6682.910 4994.064 0.000 4422.608 7063.246
8729.311 6503.699 14598.521 8935.885 13161.563 13433.727 9309.215 9346.930 12027.010 8538.738 9939.819 11736.544 9003.692 8701.784 5694.373 10503.250 8910.572 11349.380 9577.427 9446.213 12113.523 9110.954 6730.609 7750.540 11341.586 2528.012 8723.810 10407.553 11585.987 9855.507 12421.054 8773.302 9478.832 15354.913 11427.589 11411.180 9419.964 11218.644 9901.009 7565.681 10274.380 9175.449 2295.218 4785.819 1031.347 10751.655 9328.614 8864.065 4612.592 0.000 10499.192
1924.265 4604.635 5005.688 2655.568 3797.112 4090.297 1394.710 1674.761 2463.431 4349.828 301.431 1958.741 1897.495 4836.037 5289.212 6482.498 3049.334 5575.389 739.711 946.676 7723.396 4866.030 5228.570 3039.475 5714.637 7961.671 1962.219 4085.857 1550.433 1621.019 3938.575 4098.923 2953.860 5762.080 4030.725 4552.162 6486.483 3184.967 5900.490 3710.375 4163.586 4233.982 8094.212 7063.793 9337.132 5107.560 1978.199 1779.166 6110.571 10132.247 0.000
NODE_COORD_SECTION
1 135.757630 21.597263
2 -755.754223 -2463.491125
3 3276.397157 4720.664675
4 985.864756 -756.807480
5 1371.337106 3399.534070
6 4512.098991 1024.107858
7 643.684398 249.690807
8 -130.845128 918.428515
9 2772.614995 2039.471941
10 1376.807321 -2347.559329
11 798.122945 1137.104024
12 2077.216665 2050.415573
13 -187.400817 559.770624
14 -2893.304253 1475.578635
15 -3144.372984 -301.535310
16 -3041.401088 3050.346493
17 1201.653814 -1313.312949
18 -1623.612128 3471.340320
19 841.044327 685.153662
20 152.256207 1092.273653
21 4632.325339 -4002.819792
22 2236.202893 -2644.336879
23 -258.290116 -3282.755985
24 147.915374 -1185.142064
25 3944.309875 -2179.253571
26 -4272.740303 -2696.644529
27 -538.667943 672.171543
28 2511.649363 -1277.166361
29 2016.721349 1696.759519
30 1329.106779 233.138589
31 3934.897402 324.180741
32 -2465.602007 1597.544815
33 -1724.606868 1158.609826
34 3806.106391 5238.079878
35 2960.398834 -976.418102
36 3064.855028 -1324.733685
37 1960.503572 -4038.722904
38 -975.065138 2416.763453
39 2726.565002 -3058.849683
40 -1692.584209 322.588747
41 2157.342430 -1410.619315
42 1778.594120 -2148.539158
43 -4607.342946 -2739.775090
44 -4592.395172 -930.913626
45 -4072.664272 -4180.344192
46 3266.777500 -2071.145091
47 1014.850089 -524.951274
48 -542.231764 839.881138
49 -2939.514477 -1950.003241
50 -4261.034459 -4666.180949
51 866.541342 1322.372667
DEMAND_SECTION
1 0
2 5
3 4
4 6
5 2
6 1
7 74
8 57
9 1
10 7
11 9
12 6
13 7
14 2
15 4
16 88
17 9
18 2
19 2
20 8
21 2
22 8
23 3
24 8
25 10
26 10
27 9
28 9
29 10
30 9
31 4
32 10
33 5
34 5
35 4
36 2
37 6
38 1
39 1
40 8
41 51
42 2
43 7
44 4
45 5
46 9
47 6
48 10
49 8
50 70
51 9
DEPOT_SECTION
1
-1
EOF
