NAME : mamut-san_francisco-n50-hyb
COMMENT : Mamut2026 euclidean metric; city san_francisco; 3-decimal seconds/meters; ENU ref in mamut-san_francisco-n50-hyb.vrp.json
TYPE : CVRP
DIMENSION : 51
EDGE_WEIGHT_TYPE : EXPLICIT
EDGE_WEIGHT_FORMAT : FULL_MATRIX
CAPACITY : 217
EDGE_WEIGHT_SECTION
0.000 525.265 1872.664 3037.228 8621.351 14105.881 1575.912 2061.833 14428.751 2326.261 3745.648 224.181 18006.347 5846.206 4100.905 885.214 7070.236 1575.753 5635.914 2860.077 2045.487 8566.889 1561.248 2073.319 13961.323 11686.031 1514.546 11327.553 13181.314 2835.894 13536.061 1011.608 2822.569 610.697 6635.656 2008.135 10458.169 13719.925 1951.911 4635.638 13919.363 11873.573 2282.152 11168.251 15574.638 4207.017 12981.718 13379.183 2487.180 14670.872 2686.970
525.265 0.000 1800.239 3523.152 8789.370 13807.677 1437.487 1645.267 14190.892 1811.232 4165.942 515.381 17537.623 5760.440 3992.124 752.986 7300.412 1566.005 5551.727 3344.047 1596.185 8899.155 1315.317 2233.912 14402.332 11652.631 1660.369 11342.469 13652.677 3282.900 13930.128 1536.085 2756.337 527.102 6506.578 1995.627 10371.477 14160.720 1497.025 5109.850 13655.011 12291.224 2307.797 11549.794 16093.641 4730.339 13425.093 13815.413 2831.513 14433.121 3135.314
1872.664 1800.239 0.000 4479.003 10493.771 12356.262 396.074 1395.111 12602.019 2829.509 5390.281 2068.258 18438.519 7551.778 5780.314 1050.399 8928.110 336.992 7343.865 4323.194 1566.099 10328.034 692.688 941.449 15432.794 9854.681 754.482 9544.525 14516.075 2863.748 15158.384 2411.912 4556.177 2304.181 8277.495 3789.808 8594.416 15193.186 1561.020 4661.527 12121.823 13435.197 600.758 12828.843 16453.640 5187.343 14447.957 14871.235 2006.341 12843.810 2753.323
3037.228 3523.152 4479.003 0.000 7007.136 16796.051 4349.625 5084.917 16925.381 5131.895 1133.447 3009.410 20072.679 5992.474 4725.951 3804.196 5214.082 4143.719 5806.824 180.861 5081.017 6054.739 4467.005 4047.556 10975.610 13426.378 3777.048 12858.337 10148.010 2874.744 10688.605 2117.370 3709.022 3212.240 6918.154 3170.349 12453.170 10735.053 4988.579 3602.483 16506.783 8956.195 4574.083 8383.848 12667.424 1657.141 9992.252 10405.618 3487.770 17165.243 2806.426
8621.351 8789.370 10493.771 7007.136 0.000 22450.063 10185.124 10283.339 22953.421 9200.450 5889.109 8431.872 18644.903 4505.904 5617.840 9479.278 1826.494 10188.957 4582.294 7043.287 10152.912 3115.481 10103.928 10496.999 9138.393 20197.266 10026.099 19725.963 9543.088 9846.604 7564.417 8314.713 6322.137 8262.397 4784.137 6871.107 19052.854 8938.614 10052.204 10462.024 22378.690 6883.933 10855.533 5483.972 14110.907 8035.756 8441.261 8534.326 10295.434 23195.453 9759.351
14105.881 13807.677 12356.262 16796.051 22450.063 0.000 12560.933 12213.978 1921.959 13271.742 17745.985 14249.913 21059.922 18567.367 16986.297 13222.423 21083.277 12692.710 18397.757 16650.870 12325.448 22668.024 12545.129 12767.005 27595.362 7183.217 13024.203 8246.966 26486.645 14441.902 27480.183 14767.952 16130.032 14318.278 18933.968 15604.832 6323.203 27360.472 12428.018 15495.642 1072.322 25714.834 12222.950 25175.598 27375.102 17148.626 26613.722 27065.556 13545.872 1999.130 14417.837
1575.912 1437.487 396.074 4349.625 10185.124 12560.933 0.000 1117.768 12855.448 2454.806 5207.644 1754.378 18121.757 7171.920 5399.663 706.587 8646.064 386.166 6964.538 4186.495 1262.729 10107.864 330.703 1216.104 15323.609 10217.404 840.933 9922.291 14446.896 3005.427 14998.048 2243.644 4186.330 1953.601 7890.250 3433.029 8935.849 15083.275 1239.829 4841.581 12354.549 13295.219 987.369 12652.812 16502.291 5177.599 14339.697 14755.154 2214.264 13097.517 2882.983
2061.833 1645.267 1395.111 5084.917 10283.339 12213.978 1117.768 0.000 12671.224 1620.115 5799.251 2141.494 17045.330 6857.192 5107.380 1315.937 8869.505 1503.849 6657.848 4910.268 204.087 10535.086 807.400 2317.743 16023.037 10550.220 1949.347 10365.752 15232.908 4102.085 15574.387 2987.400 4030.808 2124.616 7483.624 3412.261 9154.423 15781.619 266.508 5949.512 12100.346 13927.980 1961.426 13195.044 17480.659 6109.395 15043.538 15440.279 3331.796 12913.162 3974.259
14428.751 14190.892 12602.019 16925.381 22953.421 1921.959 12855.448 12671.224 0.000 13892.072 17937.699 14594.150 22795.422 19286.506 17633.787 13545.975 21488.727 12931.762 19105.869 16793.442 12806.870 22913.297 12888.934 12880.286 27507.209 5845.070 13210.290 6950.363 26301.610 14386.130 27539.533 14985.484 16678.011 14714.282 19730.190 16082.746 5371.831 27276.893 12906.420 15234.015 961.184 25730.895 12380.194 25293.640 26839.967 17092.861 26533.906 27002.432 13540.945 242.230 14381.863
2326.261 1811.232 2829.509 5131.895 9200.450 13271.742 2454.806 1620.115 13892.072 0.000 5552.725 2241.206 15789.318 5425.203 3741.724 2156.909 7963.669 2793.920 5236.091 4951.373 1417.002 9872.258 2137.140 3628.314 15731.356 12114.392 3119.926 11963.661 15111.328 5046.868 15077.224 3317.310 2888.278 1940.224 5975.736 2534.288 10676.346 15489.903 1364.603 6895.050 13257.700 13538.979 3430.116 12666.971 17790.484 6480.606 14768.002 15127.747 4471.404 14132.297 4902.197
3745.648 4165.942 5390.281 1133.447 5889.109 17745.985 5207.644 5799.251 17937.699 5552.725 0.000 3659.086 19846.239 5305.861 4304.888 4592.428 4086.983 5053.582 5138.871 1205.859 5761.893 4986.554 5274.244 5066.272 10241.109 14544.834 4734.069 13986.891 9559.244 4007.697 9797.128 2978.381 3538.252 3754.209 6231.005 3235.712 13547.230 9999.398 5662.966 4627.441 17492.408 8128.945 5558.274 7445.171 12480.314 2364.853 9266.421 9651.231 4591.566 18178.440 3937.190
224.181 515.381 2068.258 3009.410 8431.872 14249.913 1754.378 2141.494 14594.150 2241.206 3659.086 0.000 17859.045 5622.334 3876.741 1051.270 6897.427 1780.611 5412.059 2830.008 2104.492 8433.204 1709.174 2297.033 13891.491 11897.163 1736.756 11544.636 13137.353 3009.311 13434.986 1077.200 2598.589 408.199 6411.559 1785.340 10660.418 13649.921 2006.756 4787.779 14075.871 11787.065 2495.556 11059.794 15599.248 4250.414 12913.662 13305.749 2696.829 14836.333 2860.191
18006.347 17537.623 18438.519 20072.679 18644.903 21059.922 18121.757 17045.330 22795.422 15789.318 19846.239 17859.045 0.000 15087.793 15562.480 17942.682 19071.992 18497.083 15170.594 19920.529 16872.952 21420.219 17791.235 19337.384 27767.697 24802.294 18878.279 25221.973 27978.085 20818.891 26183.229 18886.498 16376.718 17470.619 14340.058 16924.289 23117.640 27560.975 16884.551 22641.902 21836.945 25475.396 19002.848 24110.864 31995.128 21699.327 27020.315 27155.106 20253.683 22950.503 20671.916
5846.206 5760.440 7551.778 5992.474 4505.904 18567.367 7171.920 6857.192 19286.506 5425.203 5305.861 5622.334 15087.793 0.000 1772.522 6512.777 4161.632 7325.874 210.437 5907.485 6680.804 6555.011 6974.493 7919.318 13006.564 17363.557 7355.810 17094.173 12989.263 8136.171 11741.174 6071.527 3023.961 5291.227 927.970 3842.424 16006.898 12782.219 6594.418 9466.542 18621.400 10676.060 8066.650 9431.954 16914.437 7591.564 12168.606 12379.536 8173.628 19525.482 8003.476
4100.905 3992.124 5780.314 4725.951 5617.840 16986.297 5399.663 5107.380 17633.787 3741.724 4304.888 3876.741 15562.480 1772.522 0.000 4743.576 4707.804 5558.115 1566.070 4606.469 4936.485 6955.270 5202.575 6169.857 13285.786 15593.503 5602.367 15321.805 13027.793 6531.454 12264.438 4418.500 1290.661 3532.220 2535.978 2119.311 14246.430 13051.391 4847.169 7996.539 16994.908 10976.798 6299.672 9872.513 16552.678 6380.415 12384.433 12659.758 6484.762 17873.989 6392.448
885.214 752.986 1050.399 3804.196 9479.278 13222.423 706.587 1315.937 13545.975 2156.909 4592.428 1051.270 17942.682 6512.777 4743.576 0.000 7948.002 817.046 6304.199 3633.380 1363.575 9447.834 683.337 1548.247 14771.177 10905.069 992.850 10589.705 13945.000 2935.481 14389.451 1689.929 3508.785 1254.428 7253.483 2739.474 9637.322 14530.178 1291.197 4796.773 13034.247 12709.379 1559.135 12030.156 16169.015 4794.442 13789.198 14195.087 2314.508 13788.127 2796.187
7070.236 7300.412 8928.110 5214.082 1826.494 21083.277 8646.064 8869.505 21488.727 7963.669 4086.983 6897.427 19071.992 4161.632 4707.804 7948.002 0.000 8610.730 4152.765 5261.083 8759.359 2395.222 8599.913 8847.260 8846.761 18510.647 8406.518 18005.067 8907.573 8073.516 7620.280 6656.164 5093.031 6779.997 4764.295 5495.521 17417.109 8623.634 8656.515 8637.842 20953.979 6516.820 9244.522 5278.003 13126.436 6209.345 8020.574 8220.231 8568.823 21730.948 7992.516
1575.753 1566.005 336.992 4143.719 10188.957 12692.710 386.166 1503.849 12931.762 2793.920 5053.582 1780.611 18497.083 7325.874 5558.115 817.046 8610.730 0.000 7116.975 3987.257 1647.516 9994.150 710.248 842.403 15101.373 10119.404 471.955 9785.194 14192.775 2633.244 14821.710 2075.278 4315.472 2047.639 8070.335 3532.566 8882.434 14861.639 1621.378 4461.578 12455.461 13099.820 742.230 12491.852 16173.370 4879.980 14116.643 14538.732 1828.673 13173.470 2514.263
5635.914 5551.727 7343.865 5806.824 4582.294 18397.757 6964.538 6657.848 19105.869 5236.091 5138.871 5412.059 15170.594 210.437 1566.070 6304.199 4152.765 7116.975 0.000 5719.214 6482.531 6540.419 6768.625 7709.061 12988.949 17158.880 7145.701 16886.829 12943.002 7930.333 11752.564 5862.910 2813.770 5081.530 1112.136 3631.995 15805.554 12763.168 6395.545 9269.536 18444.869 10658.385 7857.596 9429.674 16825.841 7412.572 12142.482 12361.419 7964.076 19345.062 7797.274
2860.077 3344.047 4323.194 180.861 7043.287 16650.870 4186.495 4910.268 16793.442 4951.373 1205.859 2830.008 19920.529 5907.485 4606.469 3633.380 5261.083 3987.257 5719.214 0.000 4904.594 6165.599 4298.697 3913.292 11142.059 13339.114 3628.110 12782.868 10323.134 2813.579 10838.485 1949.354 3566.105 3031.387 6831.257 3009.415 12349.567 10901.352 4811.793 3636.431 16368.605 9113.368 4431.841 8525.802 12846.787 1791.573 10159.115 10570.298 3388.397 17033.544 2737.422
2045.487 1596.185 1566.099 5081.017 10152.912 12325.448 1262.729 204.087 12806.870 1417.002 5761.893 2104.492 16872.952 6680.804 4936.485 1363.575 8759.359 1647.516 6482.531 4904.594 0.000 10457.018 938.942 2474.775 15995.909 10740.441 2078.116 10562.609 15226.743 4214.263 15521.106 3001.491 3880.326 2049.713 7298.087 3284.892 9336.794 15754.350 103.383 6068.383 12226.308 13887.271 2143.208 13136.313 17529.993 6152.208 15017.863 15410.187 3468.402 13048.650 4083.332
8566.889 8899.155 10328.034 6054.739 3115.481 22668.024 10107.864 10535.086 22913.297 9872.258 4986.554 8433.204 21420.219 6555.011 6955.270 9447.834 2395.222 9994.150 6540.419 6165.599 10457.018 0.000 10127.913 10052.051 6451.829 19441.031 9703.007 18821.378 6570.042 8856.842 5311.081 7929.107 7111.495 8410.971 7149.985 7339.131 18505.806 6228.424 10353.930 8924.386 22449.608 4121.663 10534.474 2919.836 11005.834 6466.809 5629.686 5825.122 9540.314 23154.437 8811.994
1561.248 1315.317 692.688 4467.005 10103.928 12545.129 330.703 807.400 12888.934 2137.140 5274.244 1709.174 17791.235 6974.493 5202.575 683.337 8599.913 710.248 6768.625 4298.697 938.942 10127.913 0.000 1546.311 15440.342 10393.464 1142.815 10126.896 14595.393 3295.748 15071.370 2349.672 4017.326 1842.377 7672.033 3293.533 9079.595 15199.529 911.185 5142.112 12366.752 13387.300 1293.446 12713.262 16730.087 5379.378 14457.655 14866.516 2530.092 13131.148 3168.999
2073.319 2233.912 941.449 4047.556 10496.999 12767.005 1216.104 2317.743 12880.286 3628.314 5066.272 2297.033 19337.384 7919.318 6169.857 1548.247 8847.260 842.403 7709.061 3913.292 2474.775 10052.051 1546.311 0.000 14877.886 9709.110 574.042 9298.304 13885.815 1993.068 14714.898 2191.099 4895.441 2641.800 8701.884 4080.758 8569.888 14640.208 2455.580 3741.141 12460.449 12949.954 597.582 12428.743 15640.077 4499.078 13893.155 14331.550 1085.496 13120.467 1900.253
13961.323 14402.332 15432.794 10975.610 9138.393 27595.362 15323.609 16023.037 27507.209 15731.356 10241.109 13891.491 27767.697 13006.564 13285.786 14771.177 8846.761 15101.373 12988.949 11142.059 15995.909 6451.829 15440.342 14877.886 0.000 23113.532 14704.935 22278.938 1788.258 13156.843 2113.327 13091.407 13219.450 13994.333 13587.757 13251.941 22552.804 241.745 15898.198 12341.337 27200.677 2330.629 15450.361 3657.411 6457.316 10447.176 985.118 628.034 14050.167 27740.346 13177.865
11686.031 11652.631 9854.681 13426.378 20197.266 7183.217 10217.404 10550.220 5845.070 12114.392 14544.834 11897.163 24802.294 17363.557 15593.503 10905.069 18510.647 10119.404 17158.880 13339.114 10740.441 19441.031 10393.464 9709.110 23113.532 0.000 10207.475 1109.632 21721.110 10584.693 23481.016 11882.944 14402.952 12158.449 18028.436 13644.460 1685.917 22897.211 10816.681 10846.176 6202.541 21607.902 9404.448 21426.269 21605.491 13099.908 22175.937 22672.911 9959.435 5994.342 10633.666
1514.546 1660.369 754.482 3777.048 10026.099 13024.203 840.933 1949.347 13210.290 3119.926 4734.069 1736.756 18878.279 7355.810 5602.367 992.850 8406.518 471.955 7145.701 3628.110 2078.116 9703.007 1142.815 574.042 14704.935 10207.475 0.000 9824.076 13771.415 2165.030 14465.535 1778.514 4332.032 2071.535 8132.616 3522.081 9026.830 14465.776 2040.998 4001.933 12758.360 12727.283 840.093 12151.397 15707.217 4433.287 13719.869 14147.343 1393.265 13451.439 2044.130
11327.553 11342.469 9544.525 12858.337 19725.963 8246.966 9922.291 10365.752 6950.363 11963.661 13986.891 11544.636 25221.973 17094.173 15321.805 10589.705 18005.067 9785.194 16886.829 12782.868 10562.609 18821.378 10126.896 9298.304 22278.938 1109.632 9824.076 0.000 20850.989 9990.725 22716.052 11435.205 14098.396 11832.804 17797.612 13316.542 2299.031 22066.236 10631.307 10094.952 7284.056 20836.233 9052.652 20710.267 20598.046 12417.798 21351.887 21853.283 9436.656 7102.042 10052.337
13181.314 13652.677 14516.075 10148.010 9543.088 26486.645 14446.896 15232.908 26301.610 15111.328 9559.244 13137.353 27978.085 12989.263 13027.793 13945.000 8907.573 14192.775 12943.002 10323.134 15226.743 6570.042 14595.393 13885.815 1788.258 21721.110 13771.415 20850.989 0.000 12066.411 3605.376 12255.123 12789.511 13286.869 13662.189 12712.248 21245.261 1695.580 15133.061 11071.229 26041.117 2810.385 14472.751 4232.459 5012.032 9392.721 1464.411 1814.620 12988.984 26531.259 12103.933
2835.894 3282.900 2863.748 2874.744 9846.604 14441.902 3005.427 4102.085 14386.130 5046.868 4007.697 3009.311 20818.891 8136.171 6531.454 2935.481 8073.516 2633.244 7930.333 2813.579 4214.263 8856.842 3295.748 1993.068 13156.843 10584.693 2165.030 9990.725 12066.411 0.000 13165.251 2135.130 5263.569 3415.225 9013.302 4458.631 9685.986 12923.002 4164.797 1861.689 14048.925 11345.804 2581.728 10970.801 13652.644 2711.802 12176.932 12635.174 947.743 14622.230 149.119
13536.061 13930.128 15158.384 10688.605 7564.417 27480.183 14998.048 15574.387 27539.533 15077.224 9797.128 13434.986 26183.229 11741.174 12264.438 14389.451 7620.280 14821.710 11752.564 10838.485 15521.106 5311.081 15071.370 14714.898 2113.327 23481.016 14465.535 22716.052 3605.376 13165.251 0.000 12757.014 12389.844 13477.527 12222.778 12548.510 22777.985 2047.686 15419.817 12635.011 27163.582 1885.908 15257.898 2415.023 8523.208 10480.228 2170.306 1801.855 13998.683 27777.011 13162.381
1011.608 1536.085 2411.912 2117.370 8314.713 14767.952 2243.644 2987.400 14985.484 3317.310 2978.381 1077.200 18886.498 6071.527 4418.500 1689.929 6656.164 2075.278 5862.910 1949.354 3001.491 7929.107 2349.672 2191.099 13091.407 11882.944 1778.514 11435.205 12255.123 2135.130 12757.014 0.000 3139.145 1428.701 6926.470 2326.249 10760.981 12850.687 2914.519 3801.083 14523.606 11051.800 2616.577 10419.319 14567.370 3195.784 12108.459 12519.066 2119.760 15226.799 1990.901
2822.569 2756.337 4556.177 3709.022 6322.137 16130.032 4186.330 4030.808 16678.011 2888.278 3538.252 2598.589 16376.718 3023.961 1290.661 3508.785 5093.031 4315.472 2813.770 3566.105 3880.326 7111.495 4017.326 4895.441 13219.450 14402.952 4332.032 14098.396 12789.511 5263.569 12389.844 3139.145 0.000 2271.745 3824.233 828.679 13095.190 12980.385 3783.478 6787.321 16077.882 10957.535 5053.402 9975.411 16000.240 5357.353 12282.675 12601.521 5194.530 16919.481 5122.481
610.697 527.102 2304.181 3212.240 8262.397 14318.278 1953.601 2124.616 14714.282 1940.224 3754.209 408.199 17470.619 5291.227 3532.220 1254.428 6779.997 2047.639 5081.530 3031.387 2049.713 8410.971 1842.377 2641.800 13994.333 12158.449 2071.535 11832.804 13286.869 3415.225 13477.527 1428.701 2271.745 0.000 6061.101 1486.417 10889.385 13752.599 1947.232 5183.521 14174.069 11859.828 2782.779 11089.105 15854.939 4544.134 13020.434 13402.266 3097.769 14956.506 3266.117
6635.656 6506.578 8277.495 6918.154 4784.137 18933.968 7890.250 7483.624 19730.190 5975.736 6231.005 6411.559 14340.058 927.970 2535.978 7253.483 4764.295 8070.335 1112.136 6831.257 7298.087 7149.985 7672.033 8701.884 13587.757 18028.436 8132.616 17797.612 13662.189 9013.302 12222.778 6926.470 3824.233 6061.101 0.000 4652.391 16633.587 13368.673 7217.768 10377.287 19035.913 11262.848 8812.552 9970.334 17701.261 8519.483 12779.669 12963.676 9011.970 19967.316 8878.241
2008.135 1995.627 3789.808 3170.349 6871.107 15604.832 3433.029 3412.261 16082.746 2534.288 3235.712 1785.340 16924.289 3842.424 2119.311 2739.474 5495.521 3532.566 3631.995 3009.415 3284.892 7339.131 3293.533 4080.758 13251.941 13644.460 3522.081 13316.542 12712.248 4458.631 12548.510 2326.249 828.679 1486.417 4652.391 0.000 12366.195 13011.087 3183.453 6032.568 15510.583 11033.822 4264.186 10136.568 15699.582 4776.017 12297.356 12642.463 4366.619 16324.739 4315.705
10458.169 10371.477 8594.416 12453.170 19052.854 6323.203 8935.849 9154.423 5371.831 10676.346 13547.230 10660.418 23117.640 16006.898 14246.430 9637.322 17417.109 8882.434 15805.554 12349.567 9336.794 18505.806 9079.595 8569.888 22552.804 1685.917 9026.830 2299.031 21245.261 9685.986 22777.985 10760.981 13095.190 10889.385 16633.587 12366.195 0.000 22329.471 9419.212 10211.842 5472.277 20924.557 8198.614 20641.080 21516.595 12310.543 21596.130 22081.912 8965.773 5568.938 9714.813
13719.925 14160.720 15193.186 10735.053 8938.614 27360.472 15083.275 15781.619 27276.893 15489.903 9999.398 13649.921 27560.975 12782.219 13051.391 14530.178 8623.634 14861.639 12763.168 10901.352 15754.350 6228.424 15199.529 14640.208 241.745 22897.211 14465.776 22066.236 1695.580 12923.002 2047.686 12850.687 12980.385 13752.599 13368.673 13011.087 22329.471 0.000 15656.620 12117.676 26968.034 2106.949 15212.194 3454.883 6482.587 10212.812 747.210 406.109 13814.943 27510.205 12943.345
1951.911 1497.025 1561.020 4988.579 10052.204 12428.018 1239.829 266.508 12906.420 1364.603 5662.966 2006.756 16884.551 6594.418 4847.169 1291.197 8656.515 1621.378 6395.545 4811.793 103.383 10353.930 911.185 2455.580 15898.198 10816.681 2040.998 10631.307 15133.061 4164.797 15419.817 2914.519 3783.478 1947.232 7217.768 3183.453 9419.212 15656.620 0.000 6021.660 12327.374 13787.527 2146.627 13034.509 17451.623 6072.588 14920.415 15311.999 3433.676 13148.231 4032.333
4635.638 5109.850 4661.527 3602.483 10462.024 15495.642 4841.581 5949.512 15234.015 6895.050 4627.441 4787.779 22641.902 9466.542 7996.539 4796.773 8637.842 4461.578 9269.536 3636.431 6068.383 8924.386 5142.112 3741.141 12341.337 10846.176 4001.933 10094.952 11071.229 1861.689 12635.011 3801.083 6787.321 5183.521 10377.287 6032.568 10211.842 12117.676 6021.660 0.000 14998.825 10762.069 4291.072 10620.468 12124.245 2476.427 11384.468 11871.504 2657.495 15462.642 2000.819
13919.363 13655.011 12121.823 16506.783 22378.690 1072.322 12354.549 12100.346 961.184 13257.700 17492.408 14075.871 21836.945 18621.400 16994.908 13034.247 20953.979 12455.461 18444.869 16368.605 12226.308 22449.608 12366.752 12460.449 27200.677 6202.541 12758.360 7284.056 26041.117 14048.925 27163.582 14523.606 16077.882 14174.069 19035.913 15510.583 5472.277 26968.034 12327.374 14998.825 0.000 25373.922 11938.918 24889.185 26757.023 16760.714 26222.779 26683.652 13177.685 1118.958 14035.249
11873.573 12291.224 13435.197 8956.195 6883.933 25714.834 13295.219 13927.980 25730.895 13538.979 8128.945 11787.065 25475.396 10676.060 10976.798 12709.379 6516.820 13099.820 10658.385 9113.368 13887.271 4121.663 13387.300 12949.954 2330.629 21607.902 12727.283 20836.233 2810.385 11345.804 1885.908 11051.800 10957.535 11859.828 11262.848 11033.822 20924.557 2106.949 13787.527 10762.069 25373.922 0.000 13504.359 1438.227 7768.945 8646.793 1557.747 1703.498 12197.338 25967.374 11349.124
2282.152 2307.797 600.758 4574.083 10855.533 12222.950 987.369 1961.426 12380.194 3430.116 5558.274 2495.556 19002.848 8066.650 6299.672 1559.135 9244.522 742.230 7857.596 4431.841 2143.208 10534.474 1293.446 597.582 15450.361 9404.448 840.093 9052.652 14472.751 2581.728 15257.898 2616.577 5053.402 2782.779 8812.552 4264.186 8198.614 15212.194 2146.627 4291.072 11938.918 13504.359 0.000 12957.245 16233.030 5090.684 14465.374 14900.375 1654.913 12621.103 2493.560
11168.251 11549.794 12828.843 8383.848 5483.972 25175.598 12652.812 13195.044 25293.640 12666.971 7445.171 11059.794 24110.864 9431.954 9872.513 12030.156 5278.003 12491.852 9429.674 8525.802 13136.313 2919.836 12713.262 12428.743 3657.411 21426.269 12151.397 20710.267 4232.459 10970.801 2415.023 10419.319 9975.411 11089.105 9970.334 10136.568 20641.080 3454.883 13034.509 10620.468 24889.185 1438.227 12957.245 0.000 9137.117 8337.252 2983.843 3050.370 11766.664 25532.587 10955.606
15574.638 16093.641 16453.640 12667.424 14110.907 27375.102 16502.291 17480.659 26839.967 17790.484 12480.314 15599.248 31995.128 16914.437 16552.678 16169.015 13126.436 16173.370 16825.841 12846.787 17529.993 11005.834 16730.087 15640.077 6457.316 21605.491 15707.217 20598.046 5012.032 13652.644 8523.208 14567.370 16000.240 15854.939 17701.261 15699.582 21516.595 6482.587 17451.623 12124.245 26757.023 7768.945 16233.030 9137.117 0.000 11380.121 6464.522 6731.876 14592.586 27051.278 13739.939
4207.017 4730.339 5187.343 1657.141 8035.756 17148.626 5177.599 6109.395 17092.861 6480.606 2364.853 4250.414 21699.327 7591.564 6380.415 4794.442 6209.345 4879.980 7412.572 1791.573 6152.208 6466.809 5379.378 4499.078 10447.176 13099.908 4433.287 12417.798 9392.721 2711.802 10480.228 3195.784 5357.353 4544.134 8519.483 4776.017 12310.543 10212.812 6072.588 2476.427 16760.714 8646.793 5090.684 8337.252 11380.121 0.000 9466.436 9923.489 3607.042 17328.363 2730.794
12981.718 13425.093 14447.957 9992.252 8441.261 26613.722 14339.697 15043.538 26533.906 14768.002 9266.421 12913.662 27020.315 12168.606 12384.433 13789.198 8020.574 14116.643 12142.482 10159.115 15017.863 5629.686 14457.655 13893.155 985.118 22175.937 13719.869 21351.887 1464.411 12176.932 2170.306 12108.459 12282.675 13020.434 12779.669 12297.356 21596.130 747.210 14920.415 11384.468 26222.779 1557.747 14465.374 2983.843 6464.522 9466.436 0.000 516.040 13068.080 26767.410 12196.841
13379.183 13815.413 14871.235 10405.618 8534.326 27065.556 14755.154 15440.279 27002.432 15127.747 9651.231 13305.749 27155.106 12379.536 12659.758 14195.087 8220.231 14538.732 12361.419 10570.298 15410.187 5825.122 14866.516 14331.550 628.034 22672.911 14147.343 21853.283 1814.620 12635.174 1801.855 12519.066 12601.521 13402.266 12963.676 12642.463 22081.912 406.109 15311.999 11871.504 26683.652 1703.498 14900.375 3050.370 6731.876 9923.489 516.040 0.000 13520.052 27236.446 12652.221
2487.180 2831.513 2006.341 3487.770 10295.434 13545.872 2214.264 3331.796 13540.945 4471.404 4591.566 2696.829 20253.683 8173.628 6484.762 2314.508 8568.823 1828.673 7964.076 3388.397 3468.402 9540.314 2530.092 1085.496 14050.167 9959.435 1393.265 9436.656 12988.984 947.743 13998.683 2119.760 5194.530 3097.769 9011.970 4366.619 8965.773 13814.943 3433.676 2657.495 13177.685 12197.338 1654.913 11766.664 14592.586 3607.042 13068.080 13520.052 0.000 13778.590 887.627
14670.872 14433.121 12843.810 17165.243 23195.453 1999.130 13097.517 12913.162 242.230 14132.297 18178.440 14836.333 22950.503 19525.482 17873.989 13788.127 21730.948 13173.470 19345.062 17033.544 13048.650 23154.437 13131.148 13120.467 27740.346 5994.342 13451.439 7102.042 26531.259 14622.230 27777.011 15226.799 16919.481 14956.506 19967.316 16324.739 5568.938 27510.205 13148.231 15462.642 1118.958 25967.374 12621.103 25532.587 27051.278 17328.363 26767.410 27236.446 13778.590 0.000 14618.507
2686.970 3135.314 2753.323 2806.426 9759.351 14417.837 2882.983 3974.259 14381.863 4902.197 3937.190 2860.191 20671.916 8003.476 6392.448 2796.187 7992.516 2514.263 7797.274 2737.422 4083.332 8811.994 3168.999 1900.253 13177.865 10633.666 2044.130 10052.337 12103.933 149.119 13162.381 1990.901 5122.481 3266.117 8878.241 4315.705 9714.813 12943.345 4032.333 2000.819 14035.249 11349.124 2493.560 10955.606 13739.939 2730.794 12196.841 12652.221 887.627 14618.507 0.000
NODE_COORD_SECTION
1 27567.380647 -311.862562
2 27443.153503 198.501384
3 29194.524315 615.108414
4 27016.614788 -3298.735731
5 20153.498359 -4712.093979
6 36792.916186 10358.908771
7 28801.944746 667.602397
8 28243.596457 1635.927498
9 38367.228602 9256.426147
10 26633.842747 1818.864431
11 25953.591451 -3692.035034
12 27343.250560 -307.104312
13 15961.901141 13455.540048
14 21723.849186 -488.686418
15 23468.702881 -176.727762
16 28186.067540 321.248818
17 21978.666303 -4642.509811
18 29002.944747 337.869916
19 21934.281840 -489.982384
20 27013.995501 -3117.893236
21 28043.763183 1677.377682
22 22242.849753 -7023.118427
23 28560.084004 893.141950
24 29638.440600 -215.111101
25 22837.315674 -13447.502388
26 38642.248746 3417.829940
27 29070.868021 -129.171645
28 38587.437261 2309.552161
29 24601.518827 -13155.176432
30 29676.324229 -2207.819183
31 21121.054520 -12214.376386
32 27739.749211 -1308.677174
33 24745.340040 -366.474471
34 26999.771572 -86.539905
35 20939.392912 7.051344
36 25566.262359 -479.588873
37 37076.151115 4042.052529
38 22907.030945 -13216.027499
39 27980.109649 1595.914068
40 30578.788136 -3836.144458
41 37438.038037 9502.350802
42 22659.557167 -11123.662188
43 29744.342570 373.012583
44 21873.178522 -9919.458678
45 28837.186312 -15834.650504
46 28185.702723 -4473.192705
47 23263.749201 -12559.464442
48 22818.167135 -12819.760602
49 29859.285812 -1277.904008
50 38553.302338 9411.512487
51 29560.604201 -2113.769234
DEMAND_SECTION
1 0
2 1
3 2
4 6
5 5
6 10
7 3
8 10
9 79
10 9
11 3
12 8
13 10
14 10
15 91
16 5
17 9
18 8
19 9
20 9
21 10
22 3
23 9
24 6
25 10
26 10
27 1
28 4
29 5
30 99
31 8
32 10
33 6
34 3
35 5
36 5
37 3
38 8
39 9
40 8
41 10
42 7
43 7
44 10
45 2
46 9
47 10
48 8
49 99
50 9
51 2
DEPOT_SECTION
1
-1
EOF
