NAME : mamut-paris-n100-poi
COMMENT : Mamut2026 fastest metric; city paris; 3-decimal seconds/meters; ENU ref in mamut-paris-n100-poi.vrp.json
TYPE : CVRP
DIMENSION : 101
EDGE_WEIGHT_TYPE : EXPLICIT
EDGE_WEIGHT_FORMAT : FULL_MATRIX
CAPACITY : 163
EDGE_WEIGHT_SECTION
0.000 188.780 69.478 72.429 341.916 139.244 102.699 134.057 227.850 296.003 252.070 389.257 121.478 260.442 127.294 352.644 366.857 418.262 175.432 421.293 39.598 228.585 214.002 194.777 454.584 413.111 289.066 114.002 69.971 138.361 220.769 164.535 127.556 188.573 279.943 188.704 149.444 219.597 242.559 102.741 261.374 170.043 202.459 215.478 217.495 186.967 279.933 295.853 190.791 151.356 247.539 198.230 34.218 93.918 84.451 240.506 233.390 203.974 503.587 60.984 232.226 122.912 318.664 197.382 126.427 210.673 189.442 122.810 102.510 328.693 117.809 142.175 185.929 346.770 254.940 248.580 107.327 142.465 211.046 169.689 198.940 294.236 384.504 334.928 205.177 241.679 330.110 377.119 430.342 242.128 216.208 391.202 132.208 238.254 273.630 329.158 100.879 414.049 159.525 527.188 238.900
245.418 0.000 293.708 179.168 210.454 123.617 251.117 274.708 379.344 421.529 218.864 540.751 270.079 408.168 109.821 464.765 478.074 569.755 120.464 572.787 233.019 377.004 284.228 221.523 606.077 564.604 262.973 262.421 176.710 273.410 407.258 116.087 201.363 336.992 246.737 258.930 234.344 371.091 394.053 277.828 331.601 394.273 275.224 366.971 287.722 195.975 392.640 355.560 342.284 284.818 399.033 268.456 263.617 134.302 183.580 300.561 348.731 161.310 377.511 212.478 137.871 245.128 431.370 345.800 274.845 326.014 340.935 296.972 282.314 388.400 129.810 85.125 337.422 316.309 221.734 400.074 244.477 248.165 271.100 250.381 207.949 354.291 253.042 486.421 275.403 390.098 198.648 326.186 581.835 390.546 367.702 497.201 269.100 308.480 339.387 396.793 249.480 319.620 49.801 658.632 298.955
140.134 233.288 0.000 154.973 370.903 166.225 102.725 140.933 277.299 296.029 321.447 455.289 211.309 260.468 163.607 442.668 447.225 442.969 167.173 446.000 179.731 228.611 160.923 154.578 520.615 437.818 370.610 114.028 152.515 249.215 250.654 163.677 74.477 188.599 349.320 135.625 96.364 225.425 318.575 129.435 208.295 199.928 285.003 276.739 164.416 133.888 399.873 242.773 271.159 262.211 323.555 145.150 152.272 164.661 166.995 323.050 225.425 150.895 450.508 188.283 180.524 111.353 438.603 197.408 126.453 202.708 269.809 161.691 56.654 275.613 178.690 217.627 266.297 428.314 324.317 283.524 96.085 102.266 293.590 127.076 145.861 376.780 405.751 400.959 152.097 241.705 351.357 324.040 455.049 242.154 265.658 471.569 92.009 185.174 361.876 419.283 190.711 360.970 195.838 607.556 321.444
123.331 190.688 176.790 0.000 343.825 141.153 181.882 160.571 245.870 351.440 215.758 407.277 147.992 315.878 129.203 322.576 381.708 436.281 177.341 439.313 99.545 294.104 240.516 221.291 472.603 431.130 270.885 183.731 33.660 94.242 293.116 166.443 154.070 250.435 243.632 215.218 175.958 237.617 260.579 148.748 287.888 277.354 161.456 233.497 244.009 213.481 249.866 322.367 208.810 107.238 265.559 224.744 141.530 114.773 48.139 204.195 302.742 213.178 510.882 79.004 234.134 149.426 288.596 252.818 195.778 280.025 204.017 163.498 171.936 355.207 134.138 144.083 200.504 328.589 218.628 266.600 186.091 168.979 174.734 206.669 225.454 257.925 386.413 352.947 231.690 297.116 332.018 403.633 448.361 310.044 234.228 400.835 158.722 264.768 229.512 287.611 127.393 440.563 161.434 545.207 202.589
401.897 182.125 401.448 337.337 0.000 281.786 358.857 382.448 533.432 529.269 309.655 661.883 428.249 515.908 267.990 578.350 591.660 699.101 201.178 702.132 391.188 484.744 391.968 346.004 727.209 693.950 271.044 370.160 334.879 431.579 514.997 208.546 309.102 444.731 287.542 366.670 342.083 481.557 552.222 385.567 389.352 502.012 432.237 525.141 395.461 237.500 550.809 397.085 500.454 442.988 557.202 355.341 417.010 292.472 341.749 436.378 456.470 242.023 324.262 370.647 179.396 352.868 546.135 453.540 382.585 433.753 499.105 417.824 390.053 415.665 287.979 243.295 495.592 321.654 314.990 539.657 352.217 355.905 406.917 358.121 249.474 467.876 157.628 619.457 383.142 497.837 145.632 294.872 711.181 498.286 521.790 610.787 376.840 366.231 475.204 532.610 407.650 266.370 162.378 772.217 434.772
249.017 152.136 254.730 200.598 297.076 0.000 212.139 235.730 386.714 382.551 240.294 562.182 273.677 369.190 20.349 486.196 499.505 552.383 87.398 555.414 247.585 338.026 245.250 182.545 627.508 547.232 289.457 223.442 198.141 294.841 368.279 77.299 162.385 298.013 268.168 219.952 195.366 334.839 415.484 238.849 292.622 355.295 296.655 386.154 248.743 158.017 414.070 319.081 363.715 306.249 420.464 229.478 267.215 102.030 205.011 321.991 309.752 119.929 442.725 233.909 144.191 206.150 452.801 306.822 235.867 287.036 362.366 271.106 243.336 351.921 97.537 136.475 358.853 347.162 243.165 392.939 205.499 209.187 292.531 211.403 169.990 375.721 339.665 507.852 236.425 351.120 285.270 350.425 564.463 351.568 375.072 518.632 230.122 269.502 360.818 418.224 253.079 353.187 114.686 680.062 320.386
140.670 284.125 106.390 211.837 421.740 217.062 0.000 215.632 193.579 211.452 372.284 371.568 262.148 175.891 214.445 358.947 363.504 358.392 218.011 361.423 180.268 144.034 164.175 207.604 436.894 353.241 421.447 77.089 199.803 191.140 305.547 214.514 118.787 104.022 400.158 138.878 147.202 140.848 234.854 66.757 211.548 254.821 250.291 192.162 157.529 184.725 316.152 256.355 187.438 196.073 239.154 148.403 124.145 224.262 214.282 313.332 148.839 201.732 480.749 201.654 231.361 186.052 354.883 112.831 41.876 126.122 186.089 90.424 139.422 289.195 229.527 268.465 182.576 479.151 375.155 198.947 99.902 176.965 305.272 109.070 196.698 364.741 456.589 317.238 155.350 157.128 402.194 337.621 370.472 157.577 181.937 387.849 174.778 188.427 318.348 365.377 241.549 391.211 246.676 523.835 329.527
127.003 221.224 175.021 104.873 374.360 171.688 188.185 0.000 305.049 373.271 284.514 466.456 143.446 345.928 159.738 425.029 444.056 495.461 207.876 498.492 135.765 314.072 235.970 216.745 531.783 490.310 321.510 199.488 102.415 199.115 288.570 196.979 149.524 274.059 312.387 210.672 171.412 296.796 319.758 207.928 283.342 275.585 234.903 292.677 239.463 208.935 352.318 317.821 267.990 212.111 324.738 220.198 145.202 126.362 116.895 272.950 300.472 225.942 525.555 138.183 255.571 144.880 391.049 282.868 211.913 277.755 266.640 222.678 167.390 350.660 150.253 174.619 263.128 379.214 287.384 325.779 181.545 164.433 243.490 202.123 220.908 326.680 416.948 412.127 227.144 327.166 362.554 399.087 507.541 327.614 293.407 468.401 154.176 260.221 311.776 369.182 131.065 436.017 191.969 604.387 271.344
159.053 341.632 197.619 215.102 494.769 292.097 159.263 286.910 0.000 241.115 385.167 329.286 274.331 205.553 280.147 311.962 316.519 294.644 319.853 297.675 192.451 183.778 299.730 309.445 394.612 289.493 440.293 168.397 203.068 194.406 379.822 316.356 227.156 162.157 413.040 274.432 249.044 95.979 171.210 156.774 347.102 329.096 253.557 127.952 245.280 286.567 292.897 393.210 140.453 199.339 175.407 285.259 193.271 246.770 217.548 293.293 226.077 303.574 603.187 213.837 333.203 275.765 316.209 164.540 156.486 203.360 157.497 140.570 230.651 426.050 270.661 295.027 153.985 497.998 388.037 135.200 201.744 276.263 308.537 245.925 298.540 344.703 537.357 274.956 282.522 186.790 482.962 474.477 306.724 220.953 37.616 340.863 266.007 323.982 298.309 342.122 253.732 513.649 312.378 476.850 309.488
281.226 420.203 278.245 335.188 557.818 353.140 239.890 371.698 279.930 0.000 505.253 402.743 396.504 44.769 350.522 432.766 437.323 305.753 354.088 302.389 314.624 111.547 177.327 343.681 468.069 314.689 557.525 249.023 323.154 314.492 477.402 350.592 226.870 134.389 533.126 161.670 309.953 151.077 266.478 237.400 168.368 426.676 373.643 214.306 214.415 320.803 434.804 299.110 279.184 319.425 261.298 234.814 294.789 360.340 337.634 436.683 167.837 337.810 527.382 336.010 367.439 342.118 437.013 136.363 211.589 172.494 296.228 229.793 311.277 308.180 365.605 404.542 292.715 615.229 508.123 221.091 282.370 333.031 428.624 217.936 332.776 488.093 560.503 371.688 179.029 91.312 530.321 407.679 331.920 125.090 268.289 461.667 346.633 192.672 441.700 475.774 375.905 437.844 382.753 584.646 452.878
313.758 239.976 367.217 236.120 315.678 259.890 372.309 350.998 423.807 541.867 0.000 405.169 338.419 506.305 247.941 321.637 334.946 626.708 292.442 629.739 289.971 484.531 417.442 354.737 470.495 621.557 63.107 374.158 233.662 247.186 483.543 281.544 334.576 440.862 62.163 392.144 366.385 428.044 429.590 339.175 464.814 467.781 229.562 402.509 420.935 337.010 338.080 491.273 353.680 249.336 434.570 401.670 331.957 233.510 204.711 226.188 481.944 328.279 482.735 269.431 314.969 339.853 289.421 443.245 386.205 459.227 311.308 353.925 362.363 524.113 252.875 204.764 307.796 144.237 58.276 435.611 376.518 359.406 193.935 383.595 348.983 211.163 358.266 362.743 408.616 487.543 303.871 431.410 638.788 500.471 412.165 354.073 349.149 441.694 270.560 291.021 317.820 424.843 265.822 515.504 193.128
361.880 544.459 411.177 417.103 689.240 494.924 372.821 489.737 323.059 400.911 421.613 0.000 477.158 372.947 482.974 152.950 101.908 416.236 531.112 419.267 395.278 375.751 491.703 523.003 99.183 411.085 427.659 381.955 405.069 343.443 582.649 520.214 440.714 354.130 435.725 466.405 462.601 287.952 216.033 370.331 523.774 531.923 363.153 256.224 437.253 500.124 249.537 602.525 273.750 333.968 273.937 498.816 396.098 449.598 419.549 355.122 418.050 517.131 816.745 416.664 546.761 478.592 178.408 356.513 370.043 395.333 290.795 354.128 444.209 635.365 473.488 497.854 287.282 517.799 401.114 289.154 415.302 489.821 322.869 459.483 512.098 220.929 731.828 125.358 474.495 354.184 677.433 688.034 428.316 412.926 311.418 129.462 479.564 515.955 391.035 254.517 456.559 727.207 515.205 240.998 318.304
140.973 270.354 140.524 154.003 411.453 206.491 153.688 139.963 328.263 338.774 333.644 506.252 0.000 311.431 203.873 474.159 493.186 493.932 207.723 496.963 180.571 279.574 201.472 182.248 571.578 488.781 370.640 164.991 151.545 248.245 254.073 204.227 115.027 239.562 361.517 176.175 136.914 276.388 368.888 180.398 248.845 241.088 284.033 327.702 204.966 174.438 401.448 283.323 317.120 261.241 373.868 185.700 156.086 165.130 166.025 322.080 265.975 191.445 491.058 187.313 221.074 110.383 440.179 248.371 177.416 243.258 315.770 212.654 132.893 316.163 189.020 223.748 312.258 428.344 336.514 334.487 147.048 129.936 292.620 167.626 186.411 375.810 446.301 451.922 192.647 292.668 391.907 364.590 506.012 293.117 316.621 517.530 119.679 225.724 360.906 418.312 189.740 401.520 236.104 653.517 320.474
270.958 402.662 267.977 324.920 540.277 335.599 229.621 354.158 269.662 70.789 490.821 401.078 386.235 0.000 332.982 422.498 427.054 308.521 336.548 305.157 304.355 83.116 159.787 326.141 466.404 317.713 539.984 238.755 312.886 304.224 467.134 333.051 209.329 124.120 518.695 144.129 292.413 140.808 256.210 227.131 150.827 416.407 363.375 204.038 185.983 303.262 424.536 281.569 268.915 309.157 251.030 217.273 284.520 342.799 327.366 426.415 139.405 320.269 509.841 325.741 349.898 324.577 426.744 126.094 184.750 144.063 285.959 219.525 301.009 290.639 348.064 387.002 282.447 597.688 493.692 210.823 272.102 315.490 418.355 200.395 315.235 477.824 542.962 366.080 161.488 81.044 512.780 390.138 334.944 96.658 258.020 451.399 331.541 175.131 431.431 465.506 365.636 420.303 365.213 580.617 442.610
252.590 133.223 258.304 204.172 278.164 68.825 215.713 239.304 390.287 386.125 243.868 565.756 277.251 372.764 0.000 489.769 503.079 555.957 67.048 558.988 251.159 341.599 248.824 186.118 631.082 550.806 293.031 227.016 201.714 298.414 371.853 56.950 165.958 301.587 271.741 223.526 198.939 338.413 419.057 242.423 296.196 358.868 300.229 389.727 252.317 150.568 417.644 322.655 367.289 309.823 424.038 233.052 270.789 105.604 208.584 325.565 313.326 102.885 422.376 237.482 123.842 209.723 456.375 310.396 239.441 290.609 365.940 274.679 246.909 355.495 101.111 117.562 362.427 350.735 246.738 396.512 209.073 212.761 296.105 214.977 162.541 379.295 320.752 511.426 239.998 354.693 266.357 330.076 568.037 355.142 378.646 522.206 233.696 273.075 364.391 421.797 256.652 332.838 95.773 683.636 323.959
332.155 465.326 382.549 324.318 610.576 419.777 344.193 439.196 292.217 419.595 342.949 152.471 426.617 384.033 407.828 0.000 125.767 437.400 455.966 440.431 365.553 362.259 478.210 494.375 217.797 432.249 358.005 353.327 312.284 242.078 552.924 445.068 412.085 340.638 357.061 452.912 433.973 274.460 237.198 341.703 525.583 502.198 261.788 242.731 423.760 471.496 139.003 578.140 225.909 232.602 260.445 470.188 366.373 393.397 326.764 276.458 404.557 488.503 777.633 347.071 512.759 428.051 93.899 343.021 341.415 381.840 223.310 325.500 415.581 610.980 412.762 422.708 219.798 439.135 322.450 275.661 386.673 447.604 244.205 430.855 483.470 136.420 653.164 106.981 461.003 365.271 598.769 659.406 449.480 399.433 280.575 150.112 437.347 502.462 289.670 153.152 406.018 698.578 440.059 286.098 239.640
335.602 492.781 385.996 362.607 632.008 458.066 347.640 463.459 295.664 421.655 364.382 112.704 450.880 386.093 446.117 118.172 0.000 440.847 494.255 443.878 369.000 364.319 480.270 497.822 143.905 435.696 379.438 356.774 350.573 280.367 556.371 483.357 415.532 342.698 378.494 454.972 437.420 276.520 240.645 345.150 527.643 505.645 300.077 244.791 425.820 474.943 186.461 581.587 229.356 270.891 262.505 473.635 369.820 423.320 365.053 297.891 406.617 491.950 791.564 385.360 521.580 452.314 115.332 345.081 344.862 383.900 246.401 328.947 419.028 614.427 447.210 457.569 242.888 460.568 343.882 277.721 390.120 464.640 265.638 434.302 486.917 157.852 674.597 110.428 463.063 367.331 620.202 662.853 452.927 401.493 284.022 27.554 454.383 504.522 327.959 191.441 430.281 702.025 478.348 199.505 261.073
408.182 590.762 445.695 464.232 743.898 541.226 407.339 536.039 356.382 338.661 634.296 434.597 523.460 313.757 529.277 479.230 483.633 0.000 567.929 87.533 441.580 317.910 473.544 557.521 459.007 115.427 689.423 416.473 452.198 443.535 628.951 564.432 475.232 328.133 662.169 451.462 497.120 275.633 342.930 404.850 464.585 578.225 493.935 290.758 422.310 534.643 511.256 587.582 355.635 448.468 322.685 491.997 442.400 495.900 466.677 524.709 403.106 551.650 818.666 462.966 581.279 524.894 504.688 330.107 379.039 380.389 372.680 389.700 478.727 604.397 519.791 544.157 369.167 747.127 637.166 297.543 449.820 524.339 540.012 474.391 546.616 547.209 786.486 414.295 459.552 294.995 732.092 675.537 132.658 355.084 344.740 507.978 514.083 488.888 529.725 552.226 502.861 729.127 561.507 614.978 540.904
265.807 111.039 265.358 214.233 246.256 144.958 222.767 246.358 397.342 393.179 253.929 575.331 305.144 379.818 142.465 499.830 513.139 563.011 0.000 566.042 268.084 348.654 255.878 209.914 640.657 557.860 303.293 234.071 211.775 308.475 378.907 51.032 173.013 308.641 281.802 230.580 205.994 345.467 429.118 249.477 303.250 365.923 310.289 396.782 259.372 132.192 427.705 313.736 377.349 319.883 434.098 240.106 280.920 169.367 218.645 335.626 320.380 84.509 404.000 247.543 98.708 216.778 466.435 317.450 246.495 297.664 376.000 281.734 253.964 346.575 164.875 126.326 372.487 360.997 256.799 403.567 216.127 219.815 306.165 222.031 144.165 389.356 288.845 521.001 247.053 361.748 234.450 311.700 575.091 362.196 385.700 532.266 240.750 280.130 374.452 431.858 284.545 314.461 62.490 693.697 334.020
412.784 595.364 450.297 468.833 748.500 545.828 411.941 540.641 360.984 344.109 638.898 440.045 528.062 319.205 533.878 483.832 488.235 69.122 572.531 0.000 446.182 323.358 478.992 562.123 464.455 81.710 694.025 421.075 456.799 448.137 633.553 569.034 479.834 333.580 666.771 456.910 501.722 280.235 347.532 409.452 470.033 582.827 498.537 295.360 427.757 539.245 515.858 593.029 360.237 453.070 327.287 497.445 447.002 500.502 471.279 529.311 408.554 556.252 824.113 467.568 585.881 529.496 509.290 335.554 383.641 385.837 377.282 394.302 483.329 609.844 524.393 548.759 373.769 751.729 641.768 302.145 454.422 528.941 544.614 478.993 551.218 551.811 791.088 418.897 465.000 300.442 736.694 680.985 90.680 360.532 349.342 512.580 518.685 494.336 534.327 556.828 507.463 734.575 566.109 620.426 545.506
142.000 245.689 207.185 129.339 398.826 196.153 197.271 190.967 261.259 366.829 308.979 422.667 178.388 331.268 184.204 386.053 400.266 451.671 232.342 454.702 0.000 309.493 270.911 251.687 487.993 446.520 345.975 199.121 126.881 171.770 323.512 221.444 184.466 265.825 336.852 245.614 206.353 253.006 275.968 164.138 318.284 307.750 238.983 248.887 274.405 243.876 313.342 352.762 224.200 184.765 280.949 255.139 171.925 150.827 141.360 296.883 318.131 260.884 560.497 94.393 289.135 179.822 352.073 268.208 211.168 295.415 222.851 178.888 202.332 385.602 174.718 199.084 219.338 403.679 311.849 281.989 216.487 199.375 267.422 237.065 255.850 350.613 441.414 368.337 262.086 312.505 387.019 434.028 463.751 325.434 249.617 424.611 189.118 295.163 307.039 362.567 157.789 470.959 216.435 560.597 295.277
216.019 387.093 213.038 269.981 524.708 320.030 174.683 330.350 214.723 103.813 440.046 365.472 331.297 68.251 317.413 367.559 372.116 275.129 320.979 271.765 249.417 0.000 186.467 310.572 430.798 284.321 495.173 183.816 257.947 249.285 412.195 317.482 193.760 69.181 467.919 161.169 264.463 85.870 201.271 172.193 203.743 361.469 308.436 149.099 132.017 287.693 369.597 297.289 213.976 254.218 196.091 201.704 229.581 303.737 272.427 371.476 112.813 304.700 528.373 270.803 334.329 300.770 371.806 71.155 130.784 90.097 231.021 164.586 246.070 330.129 327.627 351.993 227.508 552.877 442.916 155.884 217.163 291.682 363.417 184.826 299.666 422.886 559.557 311.142 169.259 49.488 505.162 385.244 301.552 42.692 203.081 396.460 281.426 210.718 376.493 410.567 310.698 438.834 349.644 532.447 387.671
239.877 281.057 214.513 246.592 418.672 213.994 159.717 232.553 330.942 179.797 369.216 481.690 302.929 166.436 211.377 483.778 488.334 431.547 214.943 433.928 277.484 181.659 0.000 204.535 547.017 426.396 418.379 172.176 244.134 328.964 352.978 211.446 87.724 147.010 397.090 22.524 170.807 202.089 317.490 186.428 109.562 339.993 376.622 265.318 81.725 181.657 453.976 191.253 325.262 333.897 312.310 95.668 243.816 221.194 258.614 414.669 142.734 198.664 422.337 279.902 228.293 202.972 488.024 157.454 179.699 120.017 323.912 218.684 223.150 224.092 226.459 265.397 320.399 476.083 372.086 272.103 178.655 193.885 385.209 78.790 193.630 468.399 453.521 427.360 39.883 212.980 399.126 279.208 443.627 195.201 319.300 512.679 209.936 86.442 453.496 503.201 282.330 332.798 243.608 648.665 413.063
226.174 192.035 225.725 220.765 336.976 124.972 183.134 206.725 357.709 353.546 280.194 535.698 277.101 340.185 122.354 523.078 527.634 523.378 143.214 526.409 251.656 309.021 216.245 0.000 601.025 518.227 329.357 194.438 218.307 315.007 339.275 139.717 133.380 269.009 308.067 190.947 166.361 305.834 398.984 209.845 263.618 326.290 336.555 357.149 219.739 135.813 453.970 290.076 351.568 328.003 403.964 200.473 241.287 110.812 232.787 361.891 280.748 133.310 452.434 254.075 182.450 177.145 492.700 277.817 206.862 258.031 350.219 242.101 214.331 322.916 134.702 176.374 346.706 387.061 283.064 363.934 176.494 180.182 332.430 182.398 147.787 415.621 379.564 481.368 207.420 322.115 325.169 360.134 535.458 322.563 346.067 551.979 201.117 240.497 400.717 458.123 256.503 362.895 154.585 687.965 360.285
415.952 598.531 465.248 464.004 749.912 548.995 426.893 543.809 377.131 461.726 482.286 97.612 531.229 433.761 537.046 213.623 124.012 465.052 585.184 468.083 449.349 429.823 545.774 577.075 0.000 471.900 488.331 436.026 451.970 404.115 636.721 574.286 494.785 408.202 496.397 520.477 516.673 342.024 276.848 424.403 584.589 585.994 423.826 310.295 491.324 554.196 310.210 656.596 319.034 394.640 328.009 552.888 450.170 503.669 466.450 415.795 472.121 571.203 870.816 470.735 600.832 532.664 239.081 410.585 424.115 449.404 336.079 408.200 498.280 689.436 527.560 551.926 332.566 578.472 461.786 343.225 469.373 543.892 383.542 513.554 566.169 281.601 792.500 186.172 528.567 414.999 738.106 742.106 489.131 466.997 365.489 151.565 533.636 570.026 451.707 315.190 510.630 781.278 569.277 199.497 378.977
369.718 552.298 407.231 425.768 705.434 502.762 368.875 497.575 317.918 315.135 595.832 406.886 484.996 295.018 490.813 440.766 445.169 109.515 529.465 84.537 403.116 299.170 440.920 519.057 457.325 0.000 650.959 378.009 413.734 405.071 590.487 525.968 436.768 303.347 623.705 415.622 458.656 237.169 304.466 366.386 445.845 539.761 455.471 252.294 386.469 496.179 472.792 551.741 317.171 410.004 284.221 456.157 403.936 457.436 428.213 486.245 367.266 513.186 782.825 424.502 542.815 486.430 466.224 305.730 340.575 344.549 334.216 351.236 440.263 584.581 481.327 505.693 330.703 708.663 598.702 259.079 411.356 485.875 501.549 435.927 508.152 508.745 748.022 375.831 423.712 276.255 693.628 639.697 79.768 336.344 306.276 469.514 475.619 465.171 491.261 513.762 464.397 693.287 523.044 588.790 502.440
332.794 235.061 386.253 255.157 291.528 258.731 386.231 370.034 446.174 556.643 85.325 431.254 357.455 525.341 244.935 354.021 367.330 645.744 287.527 648.775 309.008 503.567 419.342 356.637 496.580 640.593 0.000 393.194 252.699 269.553 502.579 276.630 336.477 459.898 63.212 394.044 369.458 447.080 451.958 358.211 466.715 486.817 251.930 424.876 422.836 338.910 370.464 493.173 376.047 271.703 456.938 403.570 350.993 240.524 227.079 256.070 483.845 323.364 460.238 288.467 305.511 358.889 321.805 462.281 405.241 461.128 333.676 372.961 381.399 526.013 259.889 196.866 330.163 120.669 90.660 457.978 379.591 378.442 226.319 385.495 350.884 243.546 336.003 395.127 410.517 506.579 281.608 421.952 657.824 519.507 434.533 386.457 368.185 443.594 294.897 323.405 336.856 402.346 260.908 547.888 225.512
123.913 244.773 78.084 190.320 382.388 177.710 23.289 176.280 197.864 227.188 332.932 375.853 245.391 191.626 175.093 363.233 367.789 374.127 178.659 377.158 163.511 159.770 169.960 168.251 441.179 368.976 382.095 0.000 187.862 195.426 277.241 175.162 85.962 119.758 360.805 144.662 107.850 156.583 239.139 49.999 217.332 226.515 254.577 207.898 166.199 145.373 320.437 254.259 191.723 200.359 244.119 154.188 107.388 184.910 202.341 317.617 164.575 162.380 461.993 184.897 192.009 146.700 359.168 128.566 57.611 141.858 190.374 82.256 111.116 287.098 190.175 229.113 186.861 439.799 335.802 214.683 60.550 137.612 309.557 114.854 157.346 369.026 417.237 321.523 161.134 172.864 362.842 335.525 386.207 173.312 186.222 392.134 146.472 194.212 322.633 369.662 224.792 372.455 207.324 528.120 333.812
116.784 168.291 170.242 39.146 321.428 118.756 175.335 154.024 239.322 344.893 193.361 400.730 141.445 309.331 106.806 359.302 378.329 429.734 154.944 432.765 92.997 287.557 233.969 213.602 466.056 424.583 248.488 177.184 0.000 133.389 286.569 144.046 147.523 243.888 221.234 208.671 169.410 231.069 254.031 142.201 281.341 270.807 169.176 226.950 237.462 195.875 286.592 315.819 202.263 146.384 259.012 218.196 134.983 92.375 25.742 207.223 296.194 190.781 488.485 72.456 211.737 142.879 325.322 246.271 189.231 273.478 200.914 156.951 165.389 348.659 111.741 121.686 197.401 306.192 196.231 260.052 179.544 162.432 177.763 200.122 207.849 260.953 364.016 346.400 225.143 290.568 309.621 397.086 441.814 303.497 227.681 402.674 152.175 258.220 246.050 303.456 120.846 420.733 139.037 538.660 205.618
119.530 237.734 189.008 92.740 390.871 188.199 174.801 207.617 237.218 343.226 220.126 342.713 195.038 307.664 176.249 243.279 304.011 428.067 224.387 431.098 146.591 285.889 287.562 268.337 408.040 422.916 283.233 176.650 80.706 0.000 340.162 213.489 201.116 242.221 247.999 262.264 223.004 229.402 243.001 141.668 334.934 289.573 76.212 215.919 291.055 260.527 170.568 369.413 167.091 24.027 247.981 271.790 153.748 161.819 95.185 141.285 295.661 260.224 557.928 115.492 281.180 196.472 209.299 244.604 188.698 272.944 124.719 156.417 218.982 402.253 181.184 191.129 121.206 364.364 222.996 249.022 217.282 216.025 131.192 253.715 272.500 192.695 433.459 297.223 278.736 288.901 379.064 450.679 440.147 301.830 225.576 323.138 205.768 311.814 146.301 204.400 174.439 487.609 208.480 476.341 157.480
82.143 258.787 81.694 142.437 399.887 194.924 114.914 128.397 289.489 308.219 322.077 467.478 198.773 272.658 192.307 434.787 449.000 455.158 196.157 458.189 121.741 240.801 189.906 170.681 532.805 450.007 359.073 126.218 139.979 220.504 0.000 192.661 103.460 200.789 349.951 164.608 125.348 237.614 324.702 135.549 237.279 182.258 272.467 288.929 193.400 162.871 362.076 271.757 272.934 233.499 329.682 174.134 97.256 153.563 154.458 310.514 245.606 179.878 479.492 143.127 209.508 98.817 400.807 209.597 138.642 222.889 271.584 173.881 114.726 304.597 177.454 212.182 268.072 416.777 324.947 295.714 119.543 118.369 281.053 156.059 174.845 364.244 434.735 413.148 181.081 253.895 380.340 353.023 467.238 254.343 277.847 473.345 108.113 214.158 349.340 406.746 178.174 389.953 224.538 609.331 308.908
228.033 104.469 227.584 176.715 238.326 107.183 184.993 208.584 359.567 355.405 216.411 537.557 267.626 342.044 104.691 462.312 475.621 525.237 10.898 528.268 230.566 310.879 218.104 172.140 602.883 520.086 265.775 196.296 174.257 270.957 341.133 0.000 135.238 270.867 244.284 192.806 168.219 307.693 391.600 211.703 265.476 328.148 272.772 359.007 221.597 94.417 390.187 275.961 339.832 282.365 396.580 202.332 243.146 131.849 181.127 298.108 282.606 46.734 366.225 210.025 67.691 179.003 428.917 279.676 208.721 259.889 338.482 243.959 216.189 308.801 127.357 88.808 334.969 323.479 219.281 365.792 178.353 182.041 268.647 184.257 106.391 351.838 280.914 483.227 209.278 323.973 226.519 273.925 537.317 324.422 347.926 494.748 202.976 242.355 336.934 394.340 247.027 276.687 67.019 656.179 296.502
245.063 294.922 194.531 251.778 432.537 227.859 146.690 237.738 321.265 284.279 383.081 499.254 308.115 270.918 225.242 486.633 491.190 486.934 228.808 489.965 282.670 250.405 146.977 218.400 564.580 481.783 432.244 157.993 249.320 318.826 358.163 225.311 0.000 215.756 410.954 121.680 169.308 269.390 362.540 173.400 194.350 342.961 377.977 320.704 150.471 195.522 443.838 239.157 315.124 323.759 367.520 131.205 230.789 235.059 263.800 419.855 211.480 212.529 463.551 285.088 242.158 208.158 482.568 226.200 170.418 188.763 313.775 205.657 227.563 271.997 240.324 279.262 310.262 489.948 385.951 327.489 140.050 199.071 390.395 103.581 207.495 473.585 467.386 444.924 138.152 285.670 412.991 320.423 499.014 263.948 309.623 515.535 215.122 171.229 446.034 493.063 287.516 374.013 257.472 651.521 418.249
167.492 350.071 164.511 221.454 489.699 285.021 126.155 281.823 190.962 127.715 391.519 341.711 282.770 92.153 282.404 343.798 348.355 291.568 285.970 288.949 200.889 70.379 151.458 275.563 407.037 286.417 446.645 135.289 209.420 200.758 363.668 282.474 158.751 0.000 419.392 126.160 215.936 62.109 177.510 123.666 198.830 312.942 259.909 125.338 97.008 252.684 325.770 262.280 190.215 205.691 172.330 166.695 181.054 255.209 223.900 322.949 77.805 269.691 493.364 222.276 299.321 252.242 348.045 10.444 95.775 55.088 195.706 116.059 197.543 295.120 279.100 303.466 192.193 504.350 394.389 132.123 168.636 243.155 314.889 149.818 264.658 374.359 524.548 287.381 134.250 73.391 470.153 350.236 303.648 86.319 179.320 372.699 232.899 175.710 327.965 374.995 262.171 403.826 314.635 508.686 339.144
293.157 219.375 346.615 215.519 358.034 239.289 351.708 330.397 403.206 521.266 42.356 447.525 317.818 485.704 227.340 363.993 377.303 606.107 271.841 609.138 269.370 463.929 396.841 334.135 512.852 600.956 105.463 353.557 213.061 226.585 462.942 260.943 313.975 420.261 0.000 371.543 345.783 407.442 408.989 318.574 444.213 447.180 208.961 381.907 400.334 316.409 336.556 470.672 333.079 228.735 413.969 381.069 311.356 212.909 184.110 213.102 461.343 307.677 525.091 248.829 318.410 319.252 331.778 422.644 365.604 438.626 290.707 333.324 341.762 503.512 232.274 184.162 287.194 186.594 79.836 415.010 355.917 338.805 183.641 362.994 328.382 253.519 400.622 405.100 388.015 466.941 346.228 473.766 618.187 479.870 391.564 396.430 328.548 421.092 251.928 309.334 297.219 467.200 245.221 557.860 211.496
217.353 258.533 191.988 224.068 396.148 191.470 137.193 210.028 308.418 162.599 346.692 459.166 280.404 149.238 188.852 461.254 465.810 409.023 192.419 411.404 254.959 159.135 25.298 182.011 524.492 403.872 395.855 149.652 221.610 306.440 330.453 188.922 65.200 124.486 374.565 0.000 148.283 179.565 294.966 163.903 92.364 317.468 354.098 242.794 59.200 159.133 431.451 168.728 302.737 311.373 289.786 73.144 221.292 198.670 236.090 392.145 120.209 176.140 399.812 257.378 205.769 180.448 465.500 134.930 157.175 97.492 301.388 196.160 200.625 201.568 203.935 242.872 297.875 453.559 349.562 249.579 156.131 171.361 362.685 56.266 171.106 445.875 430.996 404.836 17.359 195.781 376.602 256.684 421.103 172.677 296.776 490.155 187.412 69.243 430.971 480.676 259.806 310.274 221.083 626.141 390.539
281.888 323.068 277.432 288.602 460.682 256.004 229.591 274.563 404.166 350.719 411.227 582.155 344.939 337.358 253.387 569.535 574.091 566.734 256.953 569.115 319.494 316.846 213.418 246.546 647.481 561.583 460.389 240.895 286.145 382.845 394.988 253.457 126.972 282.197 439.100 188.120 0.000 337.276 445.441 256.302 260.790 382.003 418.633 400.505 216.911 223.667 526.739 295.269 398.025 395.840 447.497 197.646 297.000 263.204 300.624 456.680 277.920 240.674 519.663 321.913 270.303 244.983 565.470 292.641 253.319 255.203 396.676 288.558 265.160 328.109 268.470 307.407 393.163 518.094 414.097 407.290 222.951 235.895 427.219 179.571 235.640 510.410 495.531 527.825 204.593 353.556 441.136 376.535 578.814 330.388 392.524 598.436 251.946 237.670 495.506 552.912 324.340 430.125 285.618 734.422 455.074
180.654 363.233 198.980 236.703 516.369 313.697 160.624 308.511 128.853 145.135 406.767 279.602 295.931 109.574 301.748 281.689 286.246 229.459 321.214 232.490 214.051 87.799 203.750 310.806 344.928 224.308 461.894 169.758 224.669 216.007 398.137 317.717 211.044 66.178 434.641 178.453 250.405 0.000 115.401 158.135 251.123 347.411 266.406 63.229 149.300 287.928 283.727 314.572 128.106 220.940 110.221 218.988 214.872 268.371 239.149 297.180 130.097 304.935 545.656 235.437 334.564 286.711 285.936 68.561 132.324 107.380 145.151 150.528 232.012 347.412 292.262 316.628 141.638 519.598 409.638 70.014 203.105 277.624 312.484 202.110 299.901 348.590 558.958 225.272 186.543 90.811 504.563 402.528 241.539 124.973 117.211 310.590 267.368 228.002 302.196 324.697 275.332 456.118 333.979 446.577 313.375
207.289 389.868 256.586 246.547 543.005 340.332 218.230 335.146 149.577 257.433 400.619 209.335 322.567 221.872 328.383 240.851 245.254 310.963 376.521 313.994 240.686 200.097 316.049 368.412 274.662 305.812 463.726 227.364 234.513 225.851 428.058 365.623 286.122 178.476 428.492 290.751 308.010 112.298 0.000 215.740 363.421 377.331 256.704 80.569 261.598 345.533 263.838 426.871 118.404 227.519 62.513 331.286 241.507 295.006 248.993 287.478 242.395 362.540 657.955 262.073 392.170 324.001 251.480 180.859 215.452 219.678 135.449 199.537 289.618 459.710 318.897 343.263 131.936 529.442 403.489 82.874 260.710 335.230 302.782 304.892 357.506 308.830 585.593 175.916 298.841 203.109 531.198 514.826 323.043 237.271 137.935 269.599 324.973 340.300 292.494 290.241 301.968 568.416 360.614 388.875 303.673
119.289 282.482 88.875 191.718 420.097 215.419 55.778 206.186 183.149 231.370 370.641 361.138 240.767 195.808 212.801 348.518 353.074 373.561 216.367 376.592 158.887 171.833 197.546 205.960 426.465 368.410 408.355 59.653 189.260 180.711 288.032 212.871 123.671 130.365 398.514 172.248 145.558 160.765 224.424 0.000 244.918 237.305 239.862 197.433 190.900 183.081 305.722 289.725 177.009 185.644 229.405 181.773 102.765 213.207 203.740 302.902 176.638 200.088 499.702 180.273 229.718 176.606 344.453 132.748 61.831 153.921 175.659 51.298 121.907 322.565 227.884 261.464 172.146 466.059 373.511 214.116 98.259 167.519 294.842 142.440 195.055 354.312 454.945 306.809 188.720 177.045 400.551 370.991 385.641 185.375 171.507 377.419 157.262 221.797 307.918 354.948 220.168 410.164 245.032 513.405 319.097
329.500 370.680 304.136 336.215 456.796 303.617 249.340 322.176 392.253 170.453 458.839 523.669 392.552 157.092 301.000 545.089 549.646 431.113 304.566 427.749 367.107 219.537 127.805 294.158 588.996 440.305 508.002 261.799 333.757 418.587 442.601 301.069 177.347 236.633 486.713 112.147 260.431 263.400 378.802 276.051 0.000 429.616 466.245 326.629 171.348 271.280 543.599 159.398 391.507 423.520 373.621 185.291 333.439 310.817 348.237 504.292 232.357 288.287 387.670 369.525 282.014 292.595 549.336 247.077 269.322 209.640 408.551 308.307 312.773 168.468 316.082 355.020 405.038 565.706 461.709 333.414 268.278 283.508 474.832 168.413 256.392 558.022 420.790 488.672 129.506 203.635 390.609 267.967 457.536 233.079 380.612 573.991 299.559 143.149 543.119 588.097 371.953 298.132 333.231 703.208 502.687
138.502 264.786 121.369 173.875 402.685 197.723 144.920 159.835 319.494 330.005 352.945 497.484 230.211 302.663 195.105 484.863 489.420 485.164 198.955 488.195 178.100 270.806 192.704 173.480 562.810 480.013 390.511 156.223 171.417 268.117 237.910 195.459 106.259 230.794 380.818 167.407 128.146 267.620 360.770 171.630 240.077 0.000 303.905 318.934 196.198 165.669 418.436 274.555 313.354 281.112 365.750 176.932 153.615 183.562 185.896 341.952 257.207 182.676 482.290 199.487 212.306 130.255 457.166 239.603 168.648 234.490 312.004 203.886 38.255 307.395 207.453 243.620 308.492 448.215 355.815 325.719 138.280 121.167 312.491 158.858 177.643 395.682 437.533 443.154 183.879 283.900 383.139 355.821 497.244 284.349 307.853 513.765 110.911 216.956 380.778 438.184 209.612 392.752 227.336 649.751 340.346
219.886 332.567 289.364 197.005 495.137 292.464 275.157 311.883 281.383 436.948 272.944 386.878 299.304 401.387 280.515 287.443 348.176 490.478 328.653 493.509 250.856 379.612 391.828 372.603 452.204 485.327 336.051 277.006 184.971 118.045 440.655 317.755 305.382 342.577 300.817 366.530 327.270 291.813 287.166 242.023 439.200 389.929 0.000 260.084 395.321 364.793 214.733 473.679 211.255 108.570 292.146 376.056 254.104 266.084 199.451 185.450 396.017 364.490 662.194 223.039 385.446 300.738 253.463 344.959 289.053 373.300 168.884 256.773 322.396 506.518 285.450 295.395 165.371 417.182 275.814 293.187 317.637 320.291 184.010 357.981 376.766 236.860 537.725 341.388 383.002 382.624 483.330 554.945 502.558 402.185 269.741 367.303 310.034 416.080 190.466 248.565 278.705 591.875 312.746 520.506 201.645
182.688 365.268 231.985 221.947 518.404 315.732 193.629 310.545 124.976 232.833 376.018 237.828 297.966 197.271 303.783 239.916 244.472 286.362 351.920 289.393 216.086 175.497 291.448 343.811 303.155 281.211 439.125 202.763 209.913 201.250 403.457 341.023 261.522 153.876 403.892 266.150 283.410 87.698 77.885 191.140 338.820 352.731 232.104 0.000 236.998 320.933 249.425 402.270 93.804 202.918 79.723 306.685 216.906 270.406 224.392 262.878 217.795 337.940 633.354 237.472 367.569 299.400 244.162 156.259 190.852 195.078 110.849 174.936 265.017 435.110 294.297 318.663 107.336 504.842 378.889 67.241 236.110 310.629 278.181 280.291 332.906 308.113 560.992 183.498 274.240 178.508 506.598 490.226 298.442 212.671 113.334 268.817 300.373 315.700 267.894 282.924 277.367 543.816 336.013 404.803 279.073
276.045 337.199 241.765 302.734 474.814 270.136 192.796 288.695 309.919 216.559 425.358 460.667 359.071 203.198 267.519 462.754 467.311 410.524 271.085 412.904 311.759 160.636 136.573 260.677 525.993 405.373 474.521 212.463 300.276 311.628 409.120 267.588 143.866 125.987 453.232 111.275 226.950 181.065 296.467 202.131 183.945 390.195 370.779 244.294 0.000 237.799 436.639 247.395 307.925 316.561 291.286 151.810 259.520 277.336 314.756 433.819 121.710 254.806 478.479 333.145 284.435 259.114 467.001 136.430 177.250 98.993 306.576 225.799 274.797 280.234 282.601 321.539 303.063 532.225 428.228 251.080 234.797 250.027 425.759 134.932 249.772 485.229 509.663 406.337 119.365 197.346 455.268 335.350 422.604 174.178 298.277 491.656 266.078 160.824 438.835 485.864 338.472 388.940 299.750 627.642 450.014
247.068 186.129 246.618 241.658 267.510 189.044 204.028 227.619 378.602 352.332 332.180 556.592 297.995 338.971 186.426 543.971 548.528 544.272 119.266 547.303 272.550 318.459 215.031 191.175 621.918 539.121 357.071 215.331 239.200 335.901 360.168 115.769 154.273 283.810 360.053 189.733 187.254 326.728 419.877 230.738 204.080 347.183 371.688 378.042 218.525 0.000 489.104 211.813 372.462 348.896 424.858 170.069 262.180 196.244 253.680 409.735 279.534 113.362 347.116 274.968 77.132 198.038 527.834 294.254 227.756 256.817 371.112 262.994 235.224 244.653 201.509 204.578 367.599 406.120 335.050 384.827 197.387 201.076 380.275 203.292 52.424 463.465 302.359 502.262 206.206 343.008 247.964 249.251 556.352 332.002 366.960 572.872 222.011 180.959 448.562 505.968 277.396 257.577 163.550 708.859 408.129
245.152 366.560 314.630 225.552 523.683 321.011 300.423 340.430 273.969 426.476 303.261 239.868 327.851 390.914 309.062 140.434 200.411 480.005 357.200 483.036 278.550 369.139 420.375 401.150 305.195 474.854 358.603 302.273 213.518 143.312 465.921 346.302 333.929 347.518 331.134 395.077 355.816 281.340 262.345 267.290 467.747 415.195 163.022 249.612 423.868 393.340 0.000 502.225 203.841 133.836 267.325 404.602 279.370 294.631 227.998 184.659 411.438 393.036 690.741 248.305 413.993 329.285 106.454 349.901 303.426 388.721 161.470 282.040 347.662 535.065 313.997 323.942 157.957 439.733 306.131 282.542 342.904 348.838 199.962 386.528 405.313 137.017 566.272 194.378 411.549 372.151 511.877 583.492 492.085 406.314 262.327 219.538 338.581 444.626 190.904 78.287 307.252 620.422 341.293 373.496 200.854
270.655 300.751 266.200 277.370 382.133 244.772 218.359 263.331 392.934 276.019 399.994 547.908 333.707 262.658 242.155 549.996 554.552 497.766 233.888 500.146 308.262 247.877 144.449 235.314 613.235 492.615 449.157 229.662 274.912 371.613 383.756 230.392 130.235 213.228 427.868 119.151 201.586 268.307 383.708 245.069 133.498 370.771 407.401 331.536 147.943 205.115 515.507 0.000 386.793 384.608 378.528 99.487 285.768 251.972 289.392 445.447 208.952 226.341 338.593 310.680 191.754 233.750 554.238 223.672 242.087 186.235 385.444 277.326 253.928 92.159 257.237 296.175 381.931 506.861 402.865 338.321 211.719 224.663 415.987 145.008 166.132 499.177 371.713 493.579 135.624 284.587 341.531 196.925 509.846 261.420 381.292 578.897 240.714 110.377 484.274 541.680 313.108 249.054 274.386 714.884 443.842
152.711 335.291 203.105 191.435 488.427 285.755 164.749 280.568 112.774 268.339 322.731 265.255 267.989 232.777 273.806 238.298 242.854 321.868 321.943 324.900 186.109 211.003 306.517 314.931 330.581 316.717 385.837 173.883 179.401 159.106 373.480 311.046 232.642 189.382 350.604 281.219 254.529 123.204 118.557 162.259 353.889 322.754 178.816 91.475 272.504 292.053 196.137 398.696 0.000 149.630 123.537 290.745 186.929 240.429 193.881 209.590 253.301 309.060 608.673 207.495 338.689 269.423 234.868 191.765 161.971 230.584 57.561 146.056 236.137 431.536 264.320 288.686 54.048 466.968 325.601 124.578 207.230 281.749 224.893 251.411 304.026 260.999 531.015 210.925 297.691 214.015 476.621 479.962 333.948 248.177 101.132 267.199 271.492 330.769 214.606 255.888 247.390 519.135 306.036 403.185 225.785
124.674 250.069 194.152 105.074 403.205 200.533 179.945 219.951 236.346 348.369 209.338 341.841 207.372 312.808 188.583 242.406 303.139 433.211 236.721 436.242 158.071 291.033 299.896 280.671 407.167 428.060 272.445 181.794 93.040 21.005 345.443 225.823 213.450 247.364 237.212 274.598 235.338 234.546 242.129 146.811 347.268 294.716 65.424 215.047 303.390 272.861 169.696 381.747 166.218 0.000 247.109 284.124 158.892 174.153 107.520 140.413 300.805 272.558 570.262 127.826 293.515 208.807 208.426 249.747 193.841 278.088 123.847 161.561 227.184 414.587 193.518 203.463 120.334 353.576 212.209 248.149 222.425 228.359 120.404 266.049 284.834 191.822 445.793 296.351 291.071 294.045 391.398 463.013 445.291 306.973 224.704 322.266 218.103 324.148 145.429 203.527 186.773 499.943 220.814 475.468 148.259
225.833 408.412 275.130 265.091 561.549 358.876 236.774 353.690 168.121 254.315 419.163 268.154 341.111 218.754 346.927 270.593 275.150 287.150 395.065 290.181 259.230 196.979 312.931 386.956 333.480 281.999 482.270 245.908 253.057 244.395 446.602 384.167 304.666 175.358 447.036 287.633 326.554 109.180 58.818 234.284 360.303 395.875 275.248 95.797 258.481 364.077 287.198 423.753 136.949 246.063 0.000 328.168 260.051 313.550 267.537 306.022 239.277 381.084 654.837 280.617 410.714 342.545 274.840 177.741 212.586 216.560 153.993 218.081 308.162 456.592 337.441 361.807 150.480 547.986 422.033 77.373 279.254 353.774 321.326 307.938 376.051 338.790 604.137 214.176 295.723 199.991 549.742 511.708 299.230 234.153 156.479 299.494 343.517 337.182 311.038 313.601 320.512 565.298 379.158 435.481 322.217
272.491 313.671 247.126 279.206 400.082 246.608 192.331 265.167 363.556 248.146 401.830 514.304 335.543 234.785 243.991 516.392 520.948 464.161 247.557 466.542 310.098 214.273 110.845 237.149 579.631 459.010 450.993 204.790 276.748 361.578 385.591 244.060 120.338 179.624 429.703 85.547 203.421 234.703 350.104 219.042 99.894 372.607 409.236 297.932 114.339 214.271 486.590 163.343 357.876 366.511 344.924 0.000 276.430 253.808 291.228 447.283 175.347 231.278 394.427 312.516 209.703 235.586 520.638 190.068 212.313 152.631 356.526 251.298 255.764 196.183 259.073 298.011 353.013 508.697 404.700 304.717 211.269 226.499 417.823 111.404 184.081 501.013 427.548 459.974 102.020 250.983 380.536 251.299 476.241 227.815 351.914 545.293 242.550 76.773 486.110 535.815 314.944 304.889 276.222 681.279 445.677
34.540 223.319 61.231 106.969 376.456 173.784 94.451 158.750 262.390 287.756 286.609 423.797 156.018 252.194 161.834 387.183 401.396 434.695 209.972 437.726 74.138 220.338 210.937 192.187 489.123 429.544 323.605 105.755 104.511 172.900 212.522 199.074 124.492 180.326 314.483 185.640 146.379 217.151 277.099 115.085 258.310 161.795 236.999 250.017 213.247 183.902 314.473 292.788 225.331 185.896 282.079 195.165 0.000 128.457 118.991 275.046 225.143 200.909 500.523 95.524 230.539 129.170 353.203 189.134 118.179 202.426 223.981 139.774 94.263 325.628 152.348 176.714 220.468 381.310 289.480 275.251 99.080 139.874 245.585 161.441 195.876 328.776 419.044 369.467 202.112 233.432 364.649 374.054 446.775 233.880 250.748 425.741 129.618 235.189 308.170 363.698 135.419 410.985 194.065 561.728 273.440
165.148 140.511 218.607 126.119 285.452 82.780 207.221 202.388 326.295 377.632 220.768 487.702 189.809 364.272 70.830 446.275 465.302 516.707 118.968 519.738 163.717 333.107 240.331 154.373 553.029 511.556 269.931 218.524 123.661 220.361 334.933 108.070 157.466 293.095 248.641 215.034 190.447 318.042 341.004 229.174 287.704 319.171 256.149 313.922 243.825 159.900 373.564 314.163 289.236 233.357 345.984 224.559 183.347 0.000 132.148 294.196 304.834 154.805 452.509 159.429 175.762 191.243 412.295 301.903 230.949 282.117 287.886 243.923 213.753 347.002 23.891 123.039 284.374 327.635 223.638 347.025 200.580 204.268 264.736 206.485 171.873 347.926 328.040 433.372 231.506 346.201 273.645 381.996 528.787 346.649 314.653 489.646 200.539 264.583 333.022 390.428 169.210 384.757 103.061 625.633 292.590
134.908 142.549 188.366 57.270 295.685 93.013 193.458 172.148 257.446 363.016 173.381 418.853 159.568 327.455 81.064 377.426 396.453 447.858 129.202 450.889 111.121 305.680 250.565 187.860 484.180 442.707 222.745 195.307 54.812 151.512 304.693 118.304 165.646 262.012 201.255 225.267 187.534 249.193 272.155 160.325 297.937 288.931 187.300 245.073 254.058 170.133 304.715 324.396 220.387 164.508 277.135 234.793 153.106 66.633 0.000 225.347 314.318 165.038 462.743 90.580 185.995 161.003 343.446 264.394 207.355 291.601 219.037 175.075 183.512 357.236 85.998 95.944 215.525 280.450 176.252 278.176 197.667 180.555 195.887 216.718 182.106 279.077 338.274 364.523 241.739 308.692 283.879 392.229 459.938 321.620 245.804 420.798 170.299 274.817 264.173 321.579 138.969 394.991 113.295 556.784 223.741
209.383 256.329 262.841 131.745 418.878 227.204 267.933 246.623 291.687 437.491 156.215 312.372 234.043 401.930 215.254 228.840 242.149 500.782 263.392 503.813 185.596 380.155 326.567 307.342 377.698 495.631 219.322 269.782 119.711 115.066 379.168 252.495 240.121 336.487 184.089 301.269 262.009 302.117 297.470 234.800 373.940 363.406 92.663 270.388 330.061 299.532 207.981 408.418 221.559 117.215 302.450 310.795 227.581 200.824 134.191 0.000 388.793 299.229 585.935 165.055 320.186 235.478 196.624 338.869 281.830 366.076 179.188 249.550 257.987 441.258 220.189 221.117 175.675 300.453 159.086 303.491 272.142 255.030 35.175 292.720 311.506 118.365 461.466 269.946 317.742 383.167 407.072 489.684 512.862 396.095 280.045 261.276 244.774 350.819 135.630 160.922 213.444 526.614 247.485 422.706 63.029
193.193 318.417 179.265 247.155 456.032 251.354 140.909 269.913 224.750 138.987 406.576 375.498 308.471 125.626 248.737 377.586 382.142 325.355 252.303 327.736 226.590 75.467 117.791 241.896 440.825 320.204 455.739 150.043 235.121 226.459 378.421 248.806 125.084 40.818 434.450 92.493 208.168 95.897 211.298 138.419 165.163 327.695 285.610 159.126 63.341 219.017 351.471 228.613 222.757 231.392 206.118 133.028 195.808 258.554 249.601 348.650 0.000 236.024 459.697 247.977 265.653 240.333 381.832 51.262 92.181 21.421 221.407 141.760 212.297 261.453 263.819 302.757 217.895 513.444 409.447 165.911 183.389 231.245 340.590 116.151 230.990 400.060 490.881 321.168 100.583 112.177 436.486 316.568 337.435 89.009 213.108 406.487 247.296 142.043 353.666 400.696 287.872 370.159 280.968 542.473 364.845
217.910 182.873 217.461 212.500 282.199 159.886 174.870 198.461 349.445 345.282 294.814 527.434 268.837 331.921 157.269 514.813 519.370 515.114 81.900 518.145 243.392 300.757 207.981 162.017 592.760 509.963 344.178 186.173 210.043 306.743 331.010 78.404 125.115 260.744 322.688 182.683 158.096 297.570 390.720 201.580 255.353 318.025 342.531 348.884 211.474 53.513 459.946 263.765 343.304 319.738 395.700 192.209 233.023 167.086 224.522 376.511 272.483 0.000 361.805 245.811 91.821 168.881 498.676 269.553 198.598 249.766 341.955 233.837 206.066 296.605 172.351 167.212 338.442 401.883 297.685 355.669 168.230 171.918 347.051 174.134 65.487 430.241 317.048 473.104 199.155 313.850 262.653 269.505 527.194 314.299 337.803 543.715 192.853 232.233 415.338 472.744 248.238 272.266 144.390 679.701 374.905
467.341 373.924 466.892 461.931 360.396 409.317 424.301 447.892 598.876 485.847 501.455 776.865 518.268 472.486 406.700 764.244 768.801 739.757 327.399 742.137 492.823 489.869 386.441 411.448 842.191 734.606 464.405 435.604 459.474 556.174 580.441 323.902 372.226 455.219 479.342 361.143 407.527 510.298 625.700 451.011 347.544 567.456 591.962 573.527 389.934 302.944 709.377 354.139 592.735 569.169 620.519 341.478 482.454 416.517 473.953 622.010 450.943 333.635 0.000 495.242 285.264 418.312 737.935 465.663 448.029 428.226 591.386 483.268 455.497 339.663 421.782 412.711 587.873 513.454 506.789 580.312 417.661 421.349 592.550 387.000 314.918 659.676 197.968 722.535 377.615 519.029 283.577 221.155 751.837 503.411 587.234 793.146 442.284 352.368 660.836 718.242 497.669 136.642 354.178 929.132 620.404
110.940 202.887 180.418 57.892 356.023 153.351 166.211 172.770 230.199 335.769 227.957 391.606 160.191 300.208 141.402 322.395 369.206 420.611 189.540 423.642 111.743 278.433 252.714 233.490 456.933 415.460 283.084 168.060 45.858 94.061 305.315 178.642 166.269 234.764 255.830 227.417 188.156 221.946 244.908 133.078 300.087 280.983 161.275 217.826 256.208 225.680 249.685 334.565 193.140 107.057 249.888 236.942 145.158 126.971 60.338 206.256 287.071 225.376 523.081 0.000 246.333 161.625 288.415 237.147 180.108 264.354 191.790 147.827 184.135 367.405 146.336 156.282 188.277 340.788 230.827 250.929 198.290 181.178 176.795 218.868 237.653 259.986 398.612 337.276 243.889 281.445 344.217 415.832 432.691 294.373 218.557 393.550 170.921 276.966 229.331 287.430 139.592 452.762 173.633 529.537 204.650
257.122 153.037 256.673 237.766 234.419 154.977 214.082 237.673 388.657 384.494 277.463 566.646 308.049 371.133 152.485 523.364 536.673 554.326 64.548 557.357 282.604 339.969 247.193 201.229 631.972 549.175 323.980 225.386 235.309 332.009 370.222 61.052 164.328 299.956 305.336 221.895 197.309 336.782 429.932 240.792 244.577 357.238 333.823 388.097 250.687 92.726 451.239 252.310 382.516 343.417 434.912 210.566 272.235 189.425 242.179 359.159 311.695 94.529 342.574 271.077 0.000 208.093 489.969 308.765 237.810 288.979 381.167 273.049 245.279 285.150 184.932 149.860 377.654 373.029 280.333 394.882 207.442 211.130 329.699 213.346 104.699 412.889 277.007 512.316 238.368 353.063 222.612 250.274 566.406 353.511 377.015 555.800 232.065 221.456 397.986 455.392 287.450 253.036 127.038 717.231 357.554
219.895 163.585 252.391 180.866 308.526 96.522 209.800 233.391 381.042 380.212 251.744 542.449 244.556 366.851 93.905 497.645 510.955 550.044 142.043 553.075 218.464 335.686 242.911 155.004 607.775 544.893 300.907 221.103 178.408 275.108 365.940 131.145 160.045 295.674 279.618 217.613 193.026 332.500 395.751 236.510 290.283 352.955 308.105 368.669 246.404 162.479 425.520 316.742 343.982 288.103 400.731 227.139 238.094 54.747 186.895 333.441 307.413 159.976 475.584 214.176 198.836 0.000 464.251 304.483 233.528 284.696 342.633 268.766 240.996 349.582 78.637 147.925 339.120 358.611 254.614 390.599 203.160 206.848 303.981 209.064 174.452 387.171 351.115 488.119 234.085 348.780 296.720 386.799 562.124 349.229 369.400 530.082 227.783 267.163 372.267 429.674 223.957 389.561 126.136 680.379 331.835
288.722 410.129 358.199 269.121 567.253 364.580 343.993 383.999 302.432 429.809 323.889 187.455 371.420 394.248 352.631 100.859 120.670 472.385 400.769 475.416 322.119 372.473 463.944 444.719 252.781 467.234 338.944 345.842 257.087 186.881 509.490 389.871 377.498 350.852 338.000 438.646 399.386 284.674 265.679 310.859 511.316 458.764 206.591 252.945 433.975 436.909 92.975 545.795 236.124 177.406 270.659 448.172 322.940 338.200 271.567 228.228 414.771 436.606 734.310 291.874 457.562 372.854 0.000 353.235 346.995 392.055 205.039 325.609 391.231 578.634 357.566 367.511 201.526 420.075 303.389 285.875 386.473 392.407 225.144 430.097 448.882 117.359 609.841 141.965 455.118 375.485 555.446 627.061 484.465 409.647 290.790 139.797 382.150 488.195 234.473 97.955 350.821 663.991 384.862 301.228 220.580
178.112 360.691 175.131 232.074 500.319 295.641 136.775 292.442 201.582 134.839 402.139 352.330 293.389 99.278 293.024 354.418 358.974 299.438 296.590 296.074 211.509 77.503 162.078 286.183 417.657 297.036 457.265 145.909 220.040 211.378 374.288 293.094 169.371 10.620 430.012 136.780 226.555 72.729 188.130 134.285 209.450 323.562 270.529 135.958 107.628 263.304 336.389 272.900 200.835 216.311 182.950 177.315 191.674 265.829 234.520 333.569 88.425 280.311 503.984 232.896 309.940 262.862 358.664 0.000 106.395 65.708 206.326 126.679 208.163 305.740 289.720 314.086 202.813 514.969 405.009 142.743 179.256 253.775 325.509 160.438 275.277 384.979 535.168 298.001 144.870 80.515 480.773 360.855 314.267 81.823 189.940 383.319 243.519 186.330 338.585 385.614 272.791 414.446 325.255 519.305 349.764
129.290 284.571 96.223 201.719 422.185 217.507 57.867 213.534 190.926 208.800 372.730 368.915 250.768 173.238 214.890 356.295 360.851 355.739 218.456 358.770 168.888 141.382 194.660 208.049 434.242 350.588 418.356 67.001 197.150 188.488 295.379 214.960 125.759 101.369 400.603 169.362 147.647 138.195 232.201 55.377 242.032 244.653 247.639 189.510 165.390 185.170 313.499 286.839 184.785 193.421 236.502 178.888 112.766 223.208 211.630 310.679 146.187 202.177 501.790 190.274 231.806 183.954 352.230 110.178 0.000 123.470 183.436 79.044 129.255 319.679 229.972 268.910 179.923 476.060 375.600 196.295 100.347 174.867 302.619 139.554 197.143 362.089 457.034 314.585 185.834 154.476 402.639 368.105 367.819 154.924 179.284 385.196 164.610 218.912 315.695 362.724 230.169 412.252 247.121 521.182 326.874
224.253 331.187 206.601 278.215 468.801 264.123 157.632 282.682 255.810 155.104 419.346 406.558 339.530 141.743 261.506 408.646 413.202 356.415 265.072 358.795 257.650 106.527 130.560 254.665 471.884 351.264 468.509 177.299 266.181 257.519 403.107 261.576 137.853 71.878 447.219 105.262 220.937 126.956 242.358 166.967 177.932 355.031 316.670 190.186 76.110 231.786 382.530 241.382 253.816 262.452 237.178 145.797 224.356 271.323 280.661 379.710 60.255 248.793 472.466 279.036 278.422 253.102 412.892 82.321 123.241 0.000 252.467 172.820 239.633 274.222 276.589 315.526 248.954 526.213 422.216 196.971 200.113 244.014 371.650 128.920 243.759 431.120 503.650 352.228 113.352 143.237 449.255 329.338 368.495 120.069 244.168 437.547 260.065 154.812 384.726 431.755 318.932 382.928 293.737 573.533 395.905
187.826 370.405 238.220 226.550 523.542 320.870 199.864 315.683 167.521 323.087 323.753 317.986 303.104 287.525 308.920 260.208 295.586 376.616 357.058 379.647 221.224 265.750 341.631 350.046 383.313 371.465 386.859 208.998 214.516 160.128 408.595 346.160 267.756 244.129 351.626 316.334 289.644 177.951 173.304 197.374 389.004 357.869 179.838 146.223 326.488 327.167 197.159 433.811 97.394 150.652 178.284 325.859 222.044 275.544 228.996 210.612 307.285 344.174 643.788 242.610 373.804 304.538 235.890 246.512 197.086 284.568 0.000 181.171 271.252 466.651 299.434 323.800 51.510 467.990 326.623 179.325 242.344 316.864 225.915 286.526 339.141 262.022 566.130 263.656 332.806 268.762 511.735 515.077 388.696 302.925 155.879 319.930 306.607 365.883 215.628 256.910 282.505 554.249 341.151 455.917 226.807
126.343 307.630 114.023 180.305 445.245 240.567 80.926 231.334 162.047 256.421 350.369 340.036 241.620 220.860 237.950 327.416 331.972 352.459 241.516 355.490 159.740 196.982 222.694 231.108 405.362 347.308 405.496 84.801 168.271 159.609 313.180 238.019 148.819 155.416 378.243 197.396 170.707 153.794 203.322 67.749 270.066 262.454 218.760 176.331 216.048 208.230 284.620 314.873 155.906 164.542 208.302 206.922 127.913 214.060 182.751 281.800 201.786 225.237 524.850 181.126 254.866 201.754 323.351 157.799 86.980 179.070 154.557 0.000 147.055 347.713 237.951 262.317 151.044 463.200 353.240 193.014 123.407 192.667 273.740 167.588 220.203 333.209 480.094 285.706 213.869 202.097 425.699 396.140 364.539 210.524 150.405 356.317 182.411 246.946 286.816 333.845 221.021 435.312 270.181 492.303 297.995
120.780 226.530 116.171 135.619 364.429 159.467 106.664 121.579 281.239 291.750 314.689 459.228 191.956 264.408 156.850 446.608 451.164 446.908 160.700 449.939 160.377 232.551 154.449 135.224 524.555 441.757 352.256 117.968 133.161 229.861 233.880 157.203 68.003 192.539 342.563 129.151 89.891 229.364 322.514 133.375 201.821 220.895 265.649 280.679 157.942 127.414 383.064 236.300 275.098 242.857 327.494 138.677 135.892 145.307 147.641 303.696 218.951 144.421 444.034 168.929 174.050 91.999 421.795 201.347 130.392 196.234 273.749 165.631 0.000 269.140 169.198 205.365 270.236 409.960 317.559 287.464 100.024 82.912 274.236 120.602 139.387 357.426 399.278 404.898 145.624 245.645 344.883 317.566 458.988 246.093 269.597 475.509 72.655 178.701 342.522 399.929 171.357 354.496 189.081 611.495 302.090
403.167 433.263 398.712 409.882 494.495 377.284 350.871 395.842 525.446 355.234 532.506 680.420 466.219 341.873 374.667 682.508 687.064 615.894 366.400 612.530 440.774 380.389 276.961 367.825 745.747 625.086 581.669 362.174 407.424 504.124 516.267 362.904 262.747 345.740 560.379 251.663 334.097 400.819 516.220 377.581 216.932 503.283 539.912 464.048 280.455 337.627 648.019 201.649 519.305 517.120 511.040 231.999 418.280 384.484 421.904 577.959 341.463 358.853 425.369 443.192 324.266 366.262 686.750 356.184 374.599 318.747 517.956 409.838 386.440 0.000 389.749 428.687 514.443 639.373 535.376 470.833 344.231 357.175 548.499 277.520 298.644 631.689 458.489 626.090 268.136 388.416 428.307 305.665 642.317 393.931 513.804 711.409 373.226 242.889 616.786 674.192 445.620 335.830 406.898 847.395 576.353
229.482 140.227 229.033 188.690 285.168 73.164 186.442 210.033 361.017 356.854 228.386 539.006 261.769 343.493 70.547 474.287 487.597 526.686 118.685 529.717 235.677 312.329 219.553 156.848 604.332 521.535 277.549 197.745 186.232 282.933 342.582 107.787 136.687 272.316 256.260 194.255 169.668 309.142 402.292 213.152 266.925 329.597 284.747 360.456 223.046 139.121 402.162 293.384 351.807 294.341 407.272 203.781 244.595 90.122 193.103 310.083 284.055 136.618 452.226 222.000 175.478 180.453 440.893 281.125 210.170 261.338 350.458 245.409 217.638 326.224 0.000 124.567 346.945 335.253 231.257 367.242 179.802 183.490 280.623 185.706 151.094 363.813 327.757 484.676 210.727 325.422 273.362 363.441 538.766 325.871 349.375 506.724 204.425 243.805 348.909 406.316 241.170 366.203 102.778 668.154 308.477
214.678 87.359 262.968 148.427 262.728 92.876 220.377 243.968 348.603 390.789 188.123 510.010 239.339 377.428 79.080 434.024 447.334 539.015 96.244 542.046 202.278 346.264 253.488 190.783 575.337 533.864 237.487 231.680 145.969 242.669 376.517 85.347 170.622 306.251 215.996 228.190 203.603 340.350 363.312 247.087 300.860 363.532 244.484 336.231 256.981 173.056 361.899 327.319 311.544 254.078 368.292 237.716 232.876 103.562 152.839 269.820 317.990 132.081 429.785 181.737 153.038 214.388 400.630 315.060 244.105 295.273 310.195 266.232 251.573 360.159 99.069 0.000 306.682 295.191 190.993 369.333 213.737 217.425 240.360 219.641 185.029 323.550 305.316 455.681 244.662 359.357 250.922 359.272 551.095 359.806 336.961 466.461 238.360 277.740 308.646 366.052 218.740 362.034 80.337 627.891 268.214
159.957 342.536 210.350 198.680 495.672 293.000 171.994 287.813 120.019 275.584 315.088 272.500 275.234 240.023 281.051 245.543 250.099 329.114 329.189 332.145 193.354 218.248 313.762 322.176 337.826 323.963 378.195 181.128 186.646 151.463 380.725 318.291 239.887 196.627 342.961 288.464 261.775 130.449 125.802 169.505 361.134 329.999 171.173 98.720 279.749 299.298 188.494 405.941 49.891 141.988 130.782 297.990 194.175 247.674 201.126 201.947 260.546 316.305 615.918 214.740 345.934 276.669 227.225 199.010 169.217 237.829 7.520 153.301 243.382 438.781 271.565 295.931 0.000 459.325 317.958 131.823 214.475 288.994 217.250 258.656 311.271 253.357 538.260 218.170 304.936 221.260 483.866 487.207 341.194 255.422 108.377 274.444 278.738 338.014 206.963 248.245 254.635 526.380 313.282 410.430 218.142
395.760 298.028 449.219 318.123 348.213 321.697 449.198 433.000 518.299 619.610 167.639 516.626 420.421 588.308 307.901 436.335 449.644 708.711 350.494 711.742 371.974 566.533 482.309 419.603 581.952 703.560 103.892 456.160 315.665 351.867 565.546 339.596 399.443 522.864 145.526 457.011 432.424 510.046 533.008 421.178 529.681 549.784 334.244 505.926 485.802 401.877 452.777 556.140 458.361 354.017 537.988 466.536 413.959 303.490 309.392 338.384 546.811 386.330 515.271 351.433 347.505 421.856 404.119 525.247 468.208 524.094 415.990 435.927 444.365 588.980 322.855 259.832 412.477 0.000 172.974 539.029 442.557 441.408 308.632 448.462 413.850 325.860 390.802 477.441 473.483 569.545 336.407 463.945 720.791 582.473 506.657 468.771 431.152 506.560 377.210 405.718 399.822 457.379 323.874 630.201 307.826
304.662 230.880 358.121 227.025 355.003 250.794 363.213 341.902 414.711 532.771 71.159 411.348 329.323 497.209 238.845 327.816 341.126 617.612 283.346 620.644 280.876 475.435 408.346 345.641 476.675 612.462 102.432 365.062 224.567 238.090 474.448 272.448 325.481 431.766 101.488 383.048 357.289 418.948 420.494 330.079 455.718 458.685 220.467 393.413 411.840 327.914 344.259 482.177 344.584 240.240 425.475 392.574 322.861 224.414 195.615 224.607 472.848 319.183 522.060 260.335 332.260 330.757 295.601 434.149 377.110 450.132 302.213 344.829 353.267 515.017 243.780 195.668 298.700 183.562 0.000 426.515 367.422 350.310 195.147 374.499 339.887 217.342 397.591 368.923 399.521 478.447 343.196 470.735 629.693 491.375 403.070 360.253 340.053 432.598 263.433 297.200 308.724 464.168 256.726 521.683 199.308
201.715 384.294 239.227 257.764 537.430 334.758 200.872 329.572 149.914 214.300 427.828 298.322 316.992 178.739 322.809 300.410 304.966 267.830 361.461 270.861 235.112 156.964 272.916 351.054 363.648 262.679 482.955 210.005 245.730 237.068 422.483 357.964 268.764 135.343 455.702 247.618 290.652 69.165 111.839 198.382 320.288 371.757 287.467 81.950 218.466 328.175 304.788 383.738 149.167 242.001 106.659 288.153 235.933 289.432 260.210 318.241 199.262 345.182 614.822 256.498 374.811 318.427 304.656 137.726 172.571 176.545 166.212 183.232 272.259 416.577 313.323 337.689 162.699 540.659 430.699 0.000 243.352 317.871 333.545 267.923 340.148 368.607 580.019 243.992 255.708 159.976 525.624 471.693 279.910 194.138 138.272 329.311 307.615 297.167 323.257 343.418 296.393 525.283 355.040 465.297 334.436
185.706 293.060 139.878 238.607 430.675 225.997 85.082 224.567 259.657 278.387 381.219 437.646 294.943 242.825 223.380 425.026 429.582 425.326 226.946 428.357 225.304 210.969 174.271 216.539 502.973 420.175 430.382 96.386 236.149 257.219 339.034 223.449 128.883 170.957 409.093 148.974 156.137 207.782 300.932 111.793 221.644 288.308 316.370 259.097 170.972 193.660 382.230 266.451 253.516 262.152 305.912 158.499 169.181 233.197 250.629 379.410 191.296 210.667 490.845 246.690 240.296 194.987 420.961 179.765 108.810 168.579 252.167 144.049 172.909 299.291 238.462 277.400 248.654 488.086 384.090 265.882 0.000 185.900 371.350 119.166 205.633 430.820 465.524 383.316 165.446 224.063 411.129 347.717 437.406 224.511 248.015 453.927 201.950 198.523 384.426 431.455 274.344 401.307 255.611 589.913 395.605
124.103 239.564 123.654 123.213 388.119 176.115 136.818 109.173 311.393 321.904 302.854 484.796 179.549 294.561 173.498 443.369 462.396 477.062 190.854 480.093 154.104 262.705 184.603 165.378 550.123 471.911 339.850 148.121 120.755 217.455 237.203 187.357 98.157 222.692 330.727 159.305 120.045 259.518 338.098 163.528 231.975 224.218 253.243 310.832 188.096 157.568 370.658 266.453 286.330 230.451 343.078 168.830 139.216 134.340 135.235 291.290 249.105 174.575 474.188 156.523 204.204 79.593 409.389 231.501 160.546 226.388 284.980 195.785 116.023 299.293 158.230 192.958 281.468 397.554 305.724 317.618 130.178 0.000 261.830 150.756 169.541 345.020 429.431 430.466 175.777 275.799 375.037 347.720 489.142 276.247 299.751 486.740 102.809 208.854 330.116 387.522 158.951 384.650 205.729 622.727 289.684
214.381 291.893 283.859 167.310 454.443 262.769 269.652 282.187 261.772 417.337 179.036 309.385 269.608 381.776 250.819 225.853 239.162 470.867 298.957 473.898 221.161 360.001 362.132 342.907 374.711 465.716 242.143 271.501 155.276 112.540 414.732 288.059 275.686 327.318 206.909 336.834 297.574 272.202 267.555 236.518 409.504 384.423 102.714 240.473 365.625 335.097 190.535 443.983 191.645 103.065 272.535 346.360 248.599 236.388 169.755 58.722 389.935 334.794 621.500 200.620 355.750 271.042 193.637 329.701 279.736 367.218 149.273 251.268 293.552 476.823 255.754 256.681 145.760 323.273 181.906 273.576 307.707 290.595 0.000 328.285 347.070 115.378 497.031 266.959 353.306 363.013 442.636 525.249 482.947 386.927 250.130 258.289 280.338 386.384 102.589 151.652 249.009 562.179 283.050 419.720 60.043
181.551 272.289 135.722 237.823 409.903 205.225 80.927 223.784 252.612 245.212 360.448 430.601 294.160 231.851 202.608 417.981 422.537 417.425 206.174 420.456 221.148 187.357 107.911 195.767 495.928 412.274 409.611 93.385 235.366 250.174 334.879 202.678 78.955 147.344 388.321 82.613 157.920 199.881 293.887 107.637 155.283 284.153 309.325 251.196 91.731 172.888 375.185 216.523 246.471 255.107 298.188 108.572 165.026 212.425 249.845 372.365 152.740 189.895 440.918 242.535 219.524 194.204 413.916 157.788 100.909 130.023 245.122 139.894 168.754 249.363 217.691 256.628 241.609 467.315 363.318 257.981 116.199 185.116 364.305 0.000 184.861 423.775 444.752 376.271 90.703 216.162 390.357 297.789 429.505 200.899 240.970 446.882 201.167 132.162 377.381 424.410 273.561 351.379 234.839 582.868 388.560
200.622 209.661 200.173 195.213 292.792 142.598 157.582 181.173 332.157 327.994 297.820 510.146 251.549 314.633 139.981 497.526 502.082 497.826 109.982 500.857 226.104 283.469 190.693 144.729 575.472 492.675 346.983 168.885 192.755 289.455 313.722 106.486 107.827 243.456 325.694 165.395 140.809 280.282 373.432 184.292 224.194 300.738 325.243 331.597 194.186 55.777 442.658 231.927 326.016 302.450 378.412 174.921 215.735 149.798 207.235 363.290 255.195 72.784 372.397 228.523 102.413 151.593 481.389 252.265 181.310 232.478 324.667 216.549 188.779 264.767 155.063 194.001 321.154 404.688 300.691 338.382 150.942 154.630 333.829 156.846 0.000 417.020 327.640 455.816 181.868 296.563 273.246 269.366 509.906 297.011 320.515 526.427 175.565 201.074 402.116 459.522 230.950 282.859 172.212 662.413 361.684
289.479 372.277 358.956 247.694 511.505 343.153 344.749 362.571 336.870 492.435 243.878 230.432 349.992 456.873 331.203 143.835 157.145 515.361 379.341 518.392 301.545 435.099 442.516 423.291 295.758 510.210 258.934 346.599 235.660 187.638 495.116 368.443 356.070 402.416 257.990 417.218 377.958 347.300 315.159 311.616 489.888 459.521 177.812 315.571 446.009 415.481 168.614 524.367 266.742 178.163 338.406 426.744 323.697 316.772 250.139 164.895 465.033 415.178 678.562 281.004 436.134 351.426 111.620 404.799 354.834 442.316 224.371 326.366 373.936 557.207 336.138 337.065 220.858 340.064 223.379 348.674 387.230 370.979 145.134 408.669 427.454 0.000 554.093 184.942 433.690 438.111 499.698 605.633 527.441 462.025 325.228 176.272 360.722 466.768 177.687 122.485 329.393 620.670 363.434 337.702 140.569
452.137 259.977 451.687 415.189 175.841 359.639 409.097 432.688 583.671 562.022 387.507 739.735 503.064 548.661 345.842 656.203 669.512 749.341 279.030 752.372 469.040 534.983 442.208 396.244 805.061 744.190 348.557 420.400 412.731 509.432 565.237 286.398 359.342 494.971 365.394 416.910 392.323 531.797 624.947 435.807 423.719 552.252 510.089 583.111 445.701 287.740 628.661 430.314 577.531 520.840 629.927 405.581 467.249 370.324 419.602 514.230 506.710 318.431 210.747 448.499 244.494 403.107 623.987 503.780 432.825 483.993 576.181 468.063 440.293 415.838 365.832 321.147 572.669 399.506 392.842 589.896 402.457 406.145 484.770 408.361 299.713 545.729 0.000 697.309 433.382 548.077 100.945 302.971 761.421 548.526 572.030 688.639 427.080 416.471 553.056 610.462 482.465 205.049 240.230 850.070 512.624
277.121 459.700 326.418 326.819 612.836 410.164 288.062 404.978 238.300 348.328 363.556 77.132 392.398 312.767 398.215 89.047 93.450 376.373 446.353 379.404 310.518 290.992 406.944 438.244 142.459 371.222 378.611 297.196 314.785 279.062 497.890 435.455 355.954 269.371 377.667 381.646 377.842 203.193 176.170 285.572 454.316 447.163 298.772 171.464 352.493 415.365 185.634 517.766 181.849 269.586 189.178 414.057 311.339 364.838 329.265 297.064 333.290 432.372 731.986 331.905 462.001 393.833 114.505 271.754 285.284 310.573 198.894 269.369 359.450 550.605 388.729 413.095 195.381 459.742 343.056 204.394 330.542 405.062 264.811 374.724 427.338 157.026 655.425 0.000 389.736 294.004 601.030 603.275 388.453 328.166 226.658 117.795 394.805 431.195 326.654 190.614 371.800 642.447 430.446 253.781 260.246
249.717 290.897 224.352 256.432 428.512 223.834 169.557 242.392 340.782 189.637 379.056 491.530 312.768 176.276 221.216 493.618 498.174 441.387 224.783 443.768 287.324 191.499 29.817 214.375 556.856 436.236 428.219 182.016 253.974 338.804 362.817 221.286 97.564 156.850 406.929 32.364 180.647 211.929 327.330 196.267 119.402 349.832 386.462 275.158 91.564 191.497 463.815 201.092 335.101 343.737 322.150 105.508 253.656 231.034 268.454 424.509 152.573 208.504 432.176 289.742 238.133 212.812 497.864 167.294 189.539 129.856 333.752 228.524 232.989 233.932 236.299 275.236 330.239 485.923 381.926 281.943 188.495 203.725 395.049 88.630 203.470 478.239 463.360 437.200 0.000 222.819 408.966 289.048 453.467 205.041 329.140 522.519 219.776 96.281 463.335 513.040 292.170 342.638 253.447 658.505 422.903
224.949 407.528 221.968 278.911 547.931 343.253 183.612 339.279 210.115 92.271 448.976 324.938 340.226 56.710 340.635 356.453 360.857 232.381 344.201 229.017 258.346 60.862 216.496 333.794 390.264 241.573 504.102 192.746 266.877 258.215 421.125 340.705 234.031 78.111 476.849 200.839 273.392 89.777 196.663 181.122 207.537 370.399 317.366 144.491 172.288 310.916 364.989 337.560 209.368 263.148 191.483 241.975 238.511 312.666 281.357 378.442 153.085 327.923 566.551 279.732 357.552 309.699 367.197 80.085 155.311 130.368 226.412 173.516 255.000 347.349 336.557 360.923 222.900 561.806 451.846 151.276 226.093 300.612 372.346 225.098 322.889 424.432 582.779 291.519 209.530 0.000 528.385 425.516 258.804 98.036 198.473 385.201 290.355 231.840 383.458 405.959 319.628 477.013 372.866 504.477 394.637
436.156 243.996 435.707 399.209 181.448 343.658 393.116 416.707 567.691 558.686 371.526 723.754 487.083 545.325 329.862 640.222 653.531 733.360 263.049 736.391 453.060 519.003 426.227 380.263 789.080 728.209 332.577 404.419 396.751 493.451 549.256 270.418 343.361 478.990 349.413 400.929 376.342 515.816 608.966 419.826 420.384 536.271 494.109 567.130 429.720 271.759 612.681 426.978 561.550 504.859 613.946 389.600 451.269 354.343 403.621 498.249 490.729 302.450 316.166 432.519 228.513 387.127 608.007 487.799 416.844 468.012 560.201 452.083 424.313 412.503 349.851 305.166 556.688 383.526 376.861 573.916 386.476 390.164 468.789 392.380 283.733 529.748 147.379 681.328 417.402 532.097 0.000 299.315 745.440 532.545 556.049 672.658 411.099 400.490 537.076 594.482 466.484 263.207 224.249 834.089 496.643
384.637 334.173 384.187 379.227 344.931 326.613 341.597 365.187 516.171 412.151 471.542 694.160 435.564 398.790 323.995 681.540 686.096 656.273 267.310 658.653 410.119 406.385 302.957 328.744 759.487 651.122 434.492 352.900 376.769 473.469 497.737 263.814 281.826 371.736 449.429 277.659 324.823 426.814 542.216 368.307 273.849 484.752 509.257 490.043 306.450 238.537 626.673 280.443 510.031 486.465 537.035 257.994 399.749 333.813 391.249 547.304 367.459 259.763 281.222 412.537 225.176 335.607 665.403 382.179 365.325 344.742 508.681 400.563 372.793 265.968 339.078 352.622 505.168 483.541 476.877 496.828 334.956 338.644 517.844 303.516 199.554 601.034 312.154 639.831 294.131 443.095 273.906 0.000 668.353 419.927 504.529 710.441 359.579 268.884 586.130 643.537 414.965 191.684 311.594 846.428 545.698
412.271 594.850 449.784 468.320 747.987 545.314 411.428 540.128 360.470 357.687 638.385 449.438 527.549 337.570 533.365 483.318 487.722 182.062 572.017 161.538 445.668 341.723 483.472 561.610 499.877 128.839 693.511 420.562 456.286 447.624 633.040 568.521 479.320 345.899 666.258 458.174 501.208 279.721 347.019 408.938 488.397 582.313 498.024 294.846 429.022 538.731 515.345 594.294 359.724 452.557 326.773 498.709 446.489 499.988 470.766 528.797 409.819 555.738 825.378 467.055 585.367 528.983 508.777 348.282 383.127 387.102 376.768 393.788 482.816 627.134 523.879 548.245 373.255 751.215 641.255 301.631 453.908 528.428 544.101 478.480 550.704 551.297 790.575 418.384 466.264 318.807 736.180 682.249 0.000 378.897 348.829 512.066 518.171 507.724 533.814 556.314 506.950 735.840 565.596 631.342 544.992
232.192 401.919 229.211 286.154 539.534 334.856 190.855 346.522 237.380 126.470 456.218 388.129 347.469 90.908 332.238 390.216 394.773 297.786 335.804 294.422 265.589 22.657 201.292 325.397 453.455 306.978 511.345 199.989 274.120 265.458 428.368 332.308 208.585 85.354 484.092 175.994 280.635 108.527 223.929 188.365 218.568 377.641 324.609 171.756 146.842 302.518 390.469 312.114 236.634 270.391 218.748 216.529 245.754 319.909 288.600 387.649 127.639 319.525 543.198 286.975 349.155 316.942 394.463 85.445 145.609 104.922 253.678 180.759 262.243 344.954 343.800 368.166 250.165 569.049 459.089 178.541 233.336 307.855 379.589 199.652 314.492 439.058 574.382 333.799 184.084 72.146 519.987 400.070 324.209 0.000 225.739 419.117 297.598 225.544 392.665 433.224 326.870 453.660 364.469 555.104 403.844
121.437 304.017 160.004 177.486 457.153 254.481 121.648 249.294 85.781 203.499 347.551 291.670 236.715 167.937 242.531 274.346 278.903 257.028 282.237 260.059 154.835 146.163 262.114 271.830 356.996 251.877 402.678 130.782 165.452 156.790 342.206 278.740 189.540 124.542 375.424 236.816 211.428 58.364 133.595 119.158 309.486 291.480 215.941 90.336 207.664 248.951 255.281 355.595 102.837 161.723 137.791 247.643 155.655 209.155 179.932 255.677 188.461 265.958 565.571 176.221 295.587 238.149 278.593 126.925 118.870 165.744 119.882 102.955 193.036 388.434 233.045 257.411 116.369 460.382 350.421 97.584 164.128 238.648 270.922 208.309 260.924 307.087 499.741 237.340 244.906 149.175 445.346 436.861 269.108 183.337 0.000 303.248 228.391 286.366 260.693 304.506 216.116 476.033 274.762 439.234 271.872
358.970 478.079 409.363 347.905 617.306 443.364 371.008 462.782 319.032 446.410 349.680 141.667 450.203 410.848 431.414 109.948 28.964 464.215 479.552 467.246 392.367 389.074 505.025 521.190 172.868 459.064 364.735 380.141 335.871 265.664 579.739 468.654 438.900 367.452 363.791 479.727 460.788 301.275 264.012 368.518 552.397 529.012 285.374 269.546 450.575 498.311 171.758 604.954 252.724 256.189 287.259 497.003 393.188 416.983 350.350 283.189 431.372 515.318 784.363 370.657 536.345 451.637 100.629 369.835 368.230 408.655 269.768 352.315 442.395 637.794 436.349 442.866 266.256 445.866 329.180 302.476 413.488 471.190 250.935 457.669 510.284 143.150 659.894 133.795 487.817 392.085 605.499 686.221 476.295 426.248 307.390 0.000 460.933 529.277 313.256 176.738 429.604 725.393 463.645 228.469 246.371
174.227 235.396 90.499 180.942 373.011 168.333 104.833 166.903 279.407 298.137 323.555 457.397 237.279 262.576 165.715 444.776 449.333 445.077 169.281 448.108 211.834 230.719 163.030 158.874 522.723 439.926 372.718 116.136 178.484 275.185 287.328 165.785 76.585 190.707 351.428 137.733 98.472 227.533 320.682 131.543 210.403 238.930 310.972 278.847 166.524 135.996 401.981 244.881 273.267 281.902 325.663 147.258 188.932 175.533 192.964 349.019 227.533 153.003 452.616 214.252 182.632 137.322 440.711 199.516 128.561 204.816 271.917 163.799 123.531 277.721 180.798 219.735 268.404 430.422 326.425 285.632 98.192 128.235 319.559 129.184 147.969 402.749 407.859 403.067 154.205 243.813 353.465 326.148 457.157 244.262 267.765 473.677 0.000 187.282 387.846 445.252 216.680 363.078 197.946 609.664 347.414
350.414 391.594 325.049 357.129 477.710 324.530 270.254 343.089 413.167 191.366 479.753 544.583 413.465 178.005 321.913 566.003 570.559 452.026 325.479 448.662 388.020 240.450 148.718 315.072 609.909 461.218 528.916 282.712 354.671 439.500 463.514 321.983 198.260 257.547 507.626 133.061 281.344 284.314 399.715 296.964 31.917 450.529 487.159 347.543 192.261 292.193 564.512 180.311 412.420 444.433 394.535 206.204 354.353 331.730 369.150 525.206 253.270 309.200 408.583 390.439 302.928 313.509 570.249 267.990 290.236 230.553 429.464 329.220 333.686 189.381 336.996 375.933 425.952 586.620 482.623 354.328 289.191 304.422 495.745 189.327 277.306 578.936 441.704 509.585 150.419 224.549 411.522 288.880 478.449 253.993 401.525 594.904 320.472 0.000 564.032 609.011 392.866 319.045 354.144 724.122 523.600
237.761 332.755 307.239 197.193 495.324 292.652 293.032 312.071 299.258 454.824 251.536 404.753 299.492 419.262 280.703 305.319 346.953 508.353 328.841 511.384 251.044 397.487 392.015 372.791 470.080 503.202 314.643 294.882 185.159 135.921 444.616 317.943 305.570 360.452 279.410 366.718 327.457 309.688 305.041 259.899 439.388 407.804 75.684 277.960 395.509 364.980 232.608 473.866 229.131 126.445 310.021 376.243 271.979 266.272 199.639 174.265 413.892 364.677 662.382 230.503 385.634 300.926 271.339 362.835 306.929 391.175 186.759 274.649 323.436 506.706 285.637 295.583 183.247 395.774 254.407 311.062 335.513 320.478 153.882 358.169 376.954 227.157 537.913 359.263 383.190 400.499 483.518 555.132 520.433 420.061 287.616 366.080 310.222 416.267 0.000 239.399 278.893 592.063 312.934 527.511 181.737
299.579 420.987 369.057 279.979 571.463 375.438 354.850 394.857 328.396 461.281 303.836 253.126 382.278 425.720 363.489 153.691 183.263 514.811 411.627 517.842 332.977 403.945 474.802 455.577 318.452 509.660 318.892 356.700 267.945 197.739 520.348 400.729 388.356 382.324 317.948 449.504 410.244 316.146 297.151 321.717 522.174 469.622 217.449 284.418 465.447 447.767 106.686 556.652 258.268 188.264 302.131 459.029 333.797 349.058 282.425 233.132 446.244 447.464 738.520 302.732 468.420 383.712 119.711 384.707 357.853 423.527 215.897 336.467 402.089 589.492 368.424 378.369 212.384 400.022 283.337 317.347 397.331 403.265 205.092 440.955 459.740 97.307 614.051 207.636 465.976 406.957 559.656 637.919 526.891 441.119 316.754 202.390 393.008 499.053 239.377 0.000 361.679 674.849 395.720 363.821 200.527
27.306 216.086 70.426 99.735 369.222 166.550 103.646 161.363 255.156 296.951 279.375 416.563 148.784 261.389 154.600 379.949 394.163 443.890 202.738 446.921 66.904 229.533 220.132 201.382 481.889 438.739 316.372 114.950 97.277 165.666 221.717 191.840 133.687 189.521 307.249 194.835 155.574 226.346 269.865 112.472 267.505 170.990 229.765 242.783 222.442 193.097 307.239 301.983 218.097 178.662 274.845 204.360 43.948 121.224 111.757 267.812 234.338 210.104 509.718 88.290 239.734 138.365 345.970 198.329 127.374 211.621 216.747 132.540 103.458 334.823 145.114 169.480 213.234 374.076 282.246 275.886 108.275 149.069 238.351 170.636 205.071 321.542 411.810 362.233 211.307 242.627 357.415 383.249 455.970 243.075 243.514 418.507 138.813 244.384 300.936 356.464 0.000 420.180 186.831 554.494 266.206
399.158 307.171 398.709 393.748 299.603 341.134 356.118 379.709 530.692 413.085 434.701 708.682 450.085 399.724 338.517 696.061 700.618 666.995 259.216 669.375 424.640 417.107 313.679 343.265 774.008 661.844 397.652 367.421 391.290 487.991 512.258 255.719 299.465 382.458 412.588 288.381 339.344 437.536 552.938 382.828 274.782 499.273 523.779 500.765 317.172 234.761 641.194 281.377 524.552 500.986 547.757 268.716 414.271 348.334 405.770 553.827 378.181 265.452 184.489 427.058 217.081 350.128 671.182 392.901 379.846 355.464 523.202 415.084 387.314 266.901 353.599 344.527 519.690 446.701 440.036 507.550 349.478 353.166 524.366 314.238 246.734 592.923 221.156 654.352 304.853 446.267 233.415 148.393 679.075 430.649 519.051 724.963 374.101 279.606 592.653 650.059 429.486 0.000 287.424 860.949 552.221
270.013 48.550 292.357 203.762 192.956 148.211 249.767 273.358 403.938 420.179 243.458 565.345 294.674 406.818 134.415 489.359 502.668 590.011 70.663 593.042 257.613 375.653 282.878 236.914 630.672 584.860 282.517 261.070 201.304 298.004 405.907 70.470 200.012 335.641 271.331 257.580 232.993 372.467 418.647 276.477 315.283 392.922 299.819 391.566 286.371 159.191 417.234 323.016 366.879 309.413 423.627 267.105 288.211 158.897 208.174 325.155 347.380 111.508 360.013 237.072 105.327 243.777 455.965 344.450 273.495 324.663 365.529 308.733 280.963 355.856 154.404 109.720 362.017 331.565 246.328 424.668 243.127 246.815 295.694 249.031 171.164 378.885 235.544 511.016 274.052 388.747 181.149 308.688 602.091 389.196 392.296 521.795 267.750 292.163 363.981 421.387 274.075 302.121 0.000 683.226 323.549
488.842 671.421 539.235 527.565 813.473 621.885 500.879 616.698 448.904 564.933 545.847 241.993 604.119 530.717 609.936 277.184 187.573 580.257 658.074 583.288 522.239 508.942 624.894 651.061 218.925 575.106 551.892 510.013 515.531 467.677 709.610 647.176 568.772 487.321 559.958 599.596 590.660 421.143 380.055 498.390 672.266 658.884 487.387 389.414 570.444 628.183 373.771 734.826 382.595 458.201 407.128 626.875 523.060 576.559 530.011 479.356 551.240 645.190 944.803 543.625 674.819 605.554 302.642 489.704 498.102 528.524 399.640 482.186 572.267 767.666 600.450 624.816 396.127 642.033 525.347 422.344 543.360 617.879 447.103 587.541 640.156 345.163 856.062 263.667 607.686 511.954 801.667 816.092 592.337 546.116 437.262 215.127 607.623 649.145 515.269 378.751 583.520 855.265 642.167 0.000 442.538
259.031 305.977 312.489 181.393 445.204 276.852 317.581 296.271 314.642 470.207 177.578 249.342 283.692 434.646 264.903 165.810 179.119 523.737 313.041 526.768 235.244 412.871 376.215 356.991 314.668 518.586 192.633 319.431 169.359 164.714 428.816 302.143 289.770 380.188 191.689 350.918 311.657 325.072 320.425 284.448 423.588 413.054 142.312 293.343 379.709 349.180 190.589 458.066 244.515 155.935 325.405 360.443 277.229 250.472 183.839 111.087 438.441 348.877 612.262 214.703 369.834 285.126 133.595 382.571 331.478 415.725 202.143 299.198 307.635 490.906 269.837 270.765 198.630 273.764 157.078 326.446 321.791 304.678 78.834 342.369 361.154 55.336 487.793 206.916 367.390 415.883 433.398 539.332 535.817 439.797 303.000 198.246 294.422 400.467 155.459 152.243 263.093 554.370 297.134 359.677 0.000
NODE_COORD_SECTION
1 -500.874011 70.822412
2 2679.250487 -1428.048682
3 30.630105 973.245588
4 -304.078864 -657.808602
5 6436.170964 -1480.007442
6 1811.019305 -425.111841
7 -803.370270 1460.969193
8 261.964854 65.245738
9 -3069.327994 1092.258170
10 -2394.259280 4533.110130
11 1164.497986 -4043.880396
12 -7503.021586 -2757.753430
13 269.461759 264.295560
14 -2418.773251 3950.369970
15 1848.719393 -477.822690
16 -4882.431653 -2291.111341
17 -5874.760683 -3437.017741
18 -6956.774036 3752.218852
19 2487.578082 -201.670144
20 -7297.602374 4344.357504
21 -376.526573 -224.052693
22 -2667.841392 3259.772954
23 -50.468752 3338.181694
24 1161.992867 548.410623
25 -7644.430276 -3249.606272
26 -7777.559153 3664.080760
27 2045.732937 -4481.935492
28 -699.643625 1318.943576
29 -75.965872 -880.630446
30 -1291.059606 -1195.374940
31 61.623236 653.002633
32 2393.071382 -186.075752
33 733.273817 1753.957364
34 -2349.305921 2535.290767
35 1375.886198 -3839.479643
36 192.890405 3158.996067
37 503.249721 1391.807636
38 -3610.533168 2068.548384
39 -4736.420125 203.544217
40 -1116.204824 1011.000740
41 933.765621 4179.923507
42 15.546548 831.634329
43 -1625.930393 -1937.581281
44 -3881.318686 862.709417
45 -529.427936 2747.728011
46 2321.952358 780.227997
47 -3621.169506 -2219.731622
48 2291.326941 3552.237277
49 -3299.312234 -67.000357
50 -1430.165579 -1376.229993
51 -4366.187539 739.460855
52 909.471301 2665.127623
53 -486.610713 393.010196
54 1174.739835 -474.279749
55 288.444662 -1030.218947
56 -1359.125572 -3007.115015
57 -1488.884353 2770.721307
58 2284.264564 346.571443
59 6481.547706 2644.007477
60 -647.587587 -459.742069
61 3025.818775 -77.197281
62 832.209786 20.240540
63 -4228.912824 -2669.257527
64 -2402.560024 2607.342509
65 -1314.202832 1569.693358
66 -1412.694853 2923.178089
67 -3053.855529 -369.611890
68 -1499.253844 836.406267
69 45.897896 921.412032
70 2612.695226 4162.997575
71 1344.382233 -441.046210
72 1963.377538 -1443.870733
73 -3041.881161 -426.734316
74 2642.781209 -4474.289770
75 891.003100 -4093.450862
76 -4013.592280 1219.422245
77 -104.551945 1431.942864
78 427.893275 544.102452
79 -1492.057420 -3040.298459
80 -30.197856 2216.309408
81 2122.519408 944.757438
82 -2918.401098 -3369.073229
83 7009.095952 -85.449774
84 -6031.438153 -2001.073704
85 45.227540 3067.013167
86 -3429.334208 3296.709602
87 5696.050376 -545.572684
88 3561.337810 2227.454379
89 -8470.991686 4190.291598
90 -2572.243698 3175.021263
91 -2999.535751 1230.795543
92 -5432.394426 -3470.460399
93 362.282035 1038.546994
94 925.431718 3631.912991
95 -1696.009639 -2084.809165
96 -3274.272592 -2816.880418
97 -319.681287 361.204040
98 5190.086720 2105.202301
99 2743.563069 -909.326649
100 -8914.508379 -4503.767209
101 -2000.793665 -3796.398506
DEMAND_SECTION
1 0
2 2
3 10
4 2
5 7
6 7
7 1
8 2
9 7
10 1
11 1
12 5
13 1
14 4
15 10
16 2
17 3
18 1
19 1
20 2
21 4
22 7
23 8
24 2
25 9
26 1
27 10
28 64
29 4
30 2
31 8
32 4
33 9
34 2
35 9
36 1
37 7
38 10
39 6
40 5
41 2
42 4
43 1
44 4
45 8
46 2
47 7
48 2
49 93
50 3
51 2
52 8
53 10
54 6
55 58
56 7
57 7
58 85
59 6
60 69
61 74
62 3
63 8
64 10
65 9
66 7
67 63
68 4
69 6
70 9
71 7
72 1
73 6
74 6
75 8
76 8
77 7
78 4
79 3
80 4
81 52
82 9
83 1
84 3
85 1
86 5
87 55
88 2
89 7
90 10
91 5
92 10
93 3
94 9
95 2
96 55
97 9
98 68
99 4
100 4
101 8
DEPOT_SECTION
1
-1
EOF
