NAME : mamut-paris-n10-poi
COMMENT : Mamut2026 shortest metric; city paris; 3-decimal seconds/meters; ENU ref in mamut-paris-n10-poi.vrp.json
TYPE : CVRP
DIMENSION : 11
EDGE_WEIGHT_TYPE : EXPLICIT
EDGE_WEIGHT_FORMAT : FULL_MATRIX
CAPACITY : 117
EDGE_WEIGHT_SECTION
0.000 8245.898 3888.353 5110.173 2327.597 1335.715 719.970 5909.036 5289.350 3171.643 1182.944
8076.840 0.000 4872.627 6905.586 9388.234 7250.000 8270.229 12058.876 7922.159 7751.624 8067.378
3456.554 5284.354 0.000 5489.008 5345.314 2468.742 4024.572 7354.858 4161.877 2970.366 3286.120
5309.340 7149.990 5353.124 0.000 4947.087 5102.874 4527.613 10868.950 9023.772 7165.411 6168.012
2370.297 9466.062 5541.693 4890.960 0.000 3120.108 1609.675 7107.313 7398.592 5102.308 3363.149
1199.484 7782.816 3032.663 5614.285 3374.946 0.000 1824.248 6333.652 4559.144 2441.437 1339.451
1548.180 8835.176 4910.807 5000.393 1920.825 2489.222 0.000 6642.122 6739.040 4442.755 2674.121
5877.312 11760.990 7338.893 10987.485 6613.176 6516.291 6597.282 0.000 5435.779 5029.780 5330.592
4815.238 7397.504 3984.566 8684.933 6719.110 3900.716 5535.208 5639.508 0.000 2060.003 4143.316
3950.201 7554.777 3520.040 7922.438 5854.073 3138.221 4670.171 4976.873 2336.526 0.000 3278.278
1562.605 7957.936 3160.843 6672.778 3607.585 1560.999 2282.575 5176.156 4418.293 2122.009 0.000
NODE_COORD_SECTION
1 -500.874011 70.822412
2 6467.771607 -63.205621
3 2343.367099 521.424603
4 1784.925457 -3600.025640
5 -1537.540196 -1013.967562
6 345.005668 310.016937
7 -607.864337 -389.597205
8 -2479.027745 4473.094962
9 1621.133720 3580.582641
10 827.041372 2512.805079
11 -222.563016 1122.734638
DEMAND_SECTION
1 0
2 4
3 10
4 2
5 59
6 5
7 9
8 2
9 8
10 80
11 82
DEPOT_SECTION
1
-1
EOF
