NAME : mamut-hong_kong-n50-poi
COMMENT : Mamut2026 fastest metric; city hong_kong; 3-decimal seconds/meters; ENU ref in mamut-hong_kong-n50-poi.vrp.json
TYPE : CVRP
DIMENSION : 51
EDGE_WEIGHT_TYPE : EXPLICIT
EDGE_WEIGHT_FORMAT : FULL_MATRIX
CAPACITY : 169
EDGE_WEIGHT_SECTION
0.000 427.504 175.884 200.353 376.944 490.729 174.196 446.436 289.858 370.053 291.260 243.423 586.948 543.541 190.654 438.617 238.647 387.979 280.422 405.147 471.086 234.449 436.876 512.663 211.333 397.836 429.516 200.414 607.505 279.885 322.706 205.993 212.046 305.669 359.342 649.491 288.775 395.768 417.688 282.016 658.482 307.296 312.890 585.392 365.090 439.904 208.897 585.893 249.017 451.597 426.916
423.828 0.000 307.073 407.115 409.871 144.867 376.158 109.680 485.092 139.630 287.136 364.178 896.302 313.118 333.722 686.905 265.906 48.237 289.354 191.851 134.842 355.204 206.453 174.947 379.854 500.605 653.225 282.064 899.524 281.018 331.637 280.294 323.684 306.417 128.919 357.996 309.929 155.850 80.932 283.149 676.110 320.467 386.835 877.411 447.087 688.192 305.445 355.470 286.807 173.457 31.652
170.882 321.843 0.000 120.429 226.604 340.922 89.472 318.401 198.406 264.392 167.757 82.247 643.356 437.880 43.865 418.656 89.175 282.318 173.402 253.276 319.216 73.272 331.215 360.793 134.677 318.237 378.807 50.941 663.285 137.972 215.685 56.521 42.985 190.465 253.681 543.830 138.436 290.107 312.027 171.272 599.288 201.635 233.291 641.172 305.896 419.943 50.004 480.232 99.544 345.936 321.254
180.446 385.749 78.754 0.000 279.453 384.296 47.048 361.775 131.436 328.298 222.475 90.578 655.524 501.786 97.770 342.312 148.376 346.224 232.603 296.649 362.589 87.334 395.121 404.166 179.156 365.659 311.565 110.143 687.804 197.174 274.886 115.722 95.106 249.666 317.587 607.736 191.285 354.013 375.933 230.474 643.767 263.716 280.713 665.691 350.375 343.599 118.840 544.138 156.508 409.842 385.160
313.943 319.860 174.328 247.978 0.000 362.773 227.675 338.792 314.806 262.409 57.746 190.643 786.416 435.897 193.344 493.466 104.529 280.335 134.026 275.127 341.066 181.668 329.232 382.643 277.128 397.880 459.786 136.198 796.799 72.385 176.309 131.283 150.149 197.994 251.698 541.847 39.750 288.124 310.044 109.868 659.554 165.139 284.110 774.686 366.162 494.753 159.580 478.249 97.623 343.953 319.272
501.633 160.621 377.679 434.176 436.745 0.000 431.964 82.641 498.573 217.435 364.941 363.947 974.106 380.688 396.696 659.616 320.706 158.769 367.159 147.190 66.555 385.957 274.023 104.702 457.658 578.410 625.936 338.679 977.329 358.823 409.442 333.764 354.437 384.222 206.724 464.285 348.577 243.150 101.533 360.954 743.680 398.272 464.640 955.216 514.657 660.903 362.061 423.040 313.800 283.989 160.032
164.904 353.098 46.102 104.851 253.155 367.473 0.000 344.952 187.068 295.647 194.308 98.000 637.377 469.135 65.119 405.233 115.725 313.573 199.952 279.826 345.766 89.025 362.470 387.343 146.588 333.091 367.469 77.491 657.935 164.523 242.235 83.071 69.535 217.015 284.936 575.084 164.986 321.361 343.282 197.823 611.198 231.065 248.145 635.822 317.807 406.520 86.188 511.486 126.095 377.191 352.509
419.415 100.482 302.660 402.702 405.458 100.674 371.745 0.000 480.679 135.217 282.723 347.935 891.888 307.311 329.309 643.604 261.493 98.630 284.941 135.134 90.718 350.790 200.646 131.617 375.440 496.192 609.924 277.650 895.111 276.605 327.224 275.881 319.271 302.004 124.506 404.147 305.516 160.932 24.215 278.736 670.303 316.054 382.422 872.998 441.279 644.891 301.032 349.662 282.394 206.323 99.894
281.100 504.699 197.703 128.065 382.055 489.384 175.113 466.863 0.000 447.248 325.077 197.980 630.447 620.736 216.720 287.483 266.016 465.174 351.553 401.737 467.677 194.736 514.071 509.254 306.876 493.379 253.157 229.093 663.156 315.325 393.836 228.182 198.011 368.616 436.537 726.686 293.886 472.963 491.078 348.626 771.486 382.666 408.433 641.043 478.095 288.770 237.790 663.088 259.110 528.792 504.110
433.275 172.253 316.519 416.561 419.317 240.384 385.605 196.091 494.538 0.000 296.583 373.624 905.748 201.158 343.169 696.351 275.352 137.634 298.800 269.442 221.253 364.650 76.343 271.327 389.300 510.052 662.671 291.510 908.970 290.464 341.084 289.741 333.130 315.863 67.735 394.071 319.376 32.598 167.343 292.595 564.150 329.913 396.282 886.858 335.126 697.638 314.892 243.510 296.253 143.370 171.664
263.357 262.114 146.602 245.586 202.036 325.339 214.629 281.046 323.563 204.663 0.000 203.707 735.831 378.151 173.251 517.756 96.757 222.589 76.280 300.283 306.208 194.732 271.486 356.282 219.382 340.134 484.076 120.534 739.053 69.263 118.563 118.765 163.213 140.249 193.952 484.101 77.886 230.378 252.299 57.821 601.808 107.393 226.364 716.940 308.416 519.043 143.916 420.503 121.913 286.207 261.526
246.589 378.938 88.414 133.495 253.662 338.896 113.192 316.375 201.097 321.487 196.684 0.000 721.668 494.974 107.431 421.347 137.623 339.413 225.792 251.250 317.190 40.078 388.310 358.767 223.091 406.652 381.498 105.896 745.852 186.933 268.075 100.981 44.302 242.855 310.776 600.924 165.494 347.201 340.591 220.233 671.018 256.905 299.991 723.739 377.626 422.634 128.500 537.326 130.717 403.031 378.349
580.547 890.382 638.762 667.630 839.821 953.607 641.800 909.314 691.288 832.931 754.138 670.978 0.000 864.400 653.532 659.864 701.525 850.857 719.065 868.024 933.964 697.327 884.712 975.541 561.737 766.534 724.962 663.291 311.573 742.763 761.349 668.871 674.924 736.128 822.220 1112.369 751.653 858.646 880.566 744.894 920.056 750.179 581.561 289.461 626.664 658.286 671.774 906.752 711.895 914.475 889.794
635.414 374.392 518.658 618.701 621.456 438.505 587.744 394.213 696.677 250.296 498.722 575.763 945.131 0.000 545.308 898.491 477.492 339.774 500.939 463.181 419.375 566.789 220.515 469.449 510.544 604.539 864.811 493.649 942.253 492.603 543.223 491.880 535.270 518.002 269.874 596.210 521.515 277.369 369.483 494.734 558.950 532.053 451.457 920.141 329.927 899.778 517.031 146.363 498.392 380.352 373.803
184.371 346.470 39.393 100.182 246.526 360.845 69.226 338.324 182.398 289.019 187.679 93.330 656.845 462.506 0.000 400.564 109.097 306.945 193.324 273.198 339.138 84.356 355.842 380.715 166.055 352.558 362.800 70.863 677.402 157.894 235.607 76.443 62.907 210.387 278.308 568.456 158.358 314.733 336.654 191.195 630.666 224.437 267.612 655.289 337.274 401.851 79.560 504.858 119.467 370.563 345.881
451.591 686.224 401.479 333.366 542.787 626.814 380.414 604.293 267.310 628.773 485.809 354.235 649.743 802.261 420.496 0.000 426.748 646.699 533.078 539.168 605.107 392.627 695.596 646.684 510.652 697.155 178.966 416.630 706.571 476.058 575.362 411.715 388.163 550.141 618.062 908.211 454.619 654.488 628.508 509.358 960.768 564.192 589.741 684.458 667.376 38.315 440.012 844.613 419.842 710.317 685.636
225.013 285.171 86.269 172.320 181.785 328.490 141.363 304.103 250.297 227.720 121.617 134.138 697.486 401.207 105.285 458.316 0.000 245.646 132.025 240.844 306.783 125.163 294.543 348.360 195.132 343.276 424.636 47.268 718.043 91.832 174.308 45.499 94.631 149.088 217.009 507.157 93.616 253.434 275.355 125.132 604.949 163.138 229.506 695.931 311.558 459.603 70.650 443.559 37.322 309.264 284.582
423.877 83.145 307.122 407.164 409.920 149.949 376.207 105.657 485.141 137.460 287.185 364.227 896.350 310.948 333.771 686.954 265.955 0.000 289.403 187.828 130.819 355.252 204.283 180.893 379.902 500.654 653.274 282.113 899.573 281.067 331.686 280.343 323.733 306.466 126.749 389.328 309.978 147.318 76.909 283.198 673.940 320.516 386.884 877.460 444.916 688.241 305.494 353.300 286.856 164.924 82.557
289.356 289.606 183.455 278.750 264.568 352.830 247.793 308.538 356.727 232.155 117.626 235.812 725.618 405.643 210.104 558.540 137.541 250.081 0.000 341.067 333.700 226.838 298.978 383.774 203.069 312.601 524.860 153.698 722.740 152.653 64.562 151.929 195.319 111.410 221.444 511.593 140.419 257.870 279.790 142.089 624.684 77.149 227.655 700.627 331.292 559.827 177.080 447.995 158.442 313.699 289.017
403.626 222.195 264.882 321.379 323.948 135.709 319.166 121.713 385.776 256.930 266.970 251.149 875.049 403.324 283.898 546.818 207.909 220.343 314.239 0.000 122.527 273.159 296.659 141.791 373.745 525.491 513.138 225.882 896.657 257.219 356.523 220.967 241.640 331.302 246.219 525.860 235.779 282.645 145.928 290.519 766.316 345.352 410.893 874.544 488.529 548.105 249.263 445.676 201.003 328.036 221.607
471.916 190.886 333.172 389.668 392.238 60.557 387.456 90.404 454.066 225.621 335.260 319.439 943.339 372.513 352.188 615.108 276.199 189.034 375.344 101.517 0.000 341.449 265.848 165.259 442.035 586.596 581.428 294.171 964.946 325.508 417.628 289.256 309.930 392.407 214.910 494.550 304.069 251.335 114.619 358.808 735.505 406.457 472.826 942.834 506.481 616.395 317.553 414.864 269.292 296.726 190.297
237.644 387.912 92.644 124.549 262.637 347.871 104.246 325.350 192.151 330.461 205.659 8.974 712.722 503.949 111.660 412.401 146.598 348.387 234.766 260.224 326.164 0.000 397.284 367.741 225.559 410.881 372.553 114.870 736.906 195.908 277.049 109.955 53.276 251.829 319.750 609.899 174.468 356.176 349.565 229.208 679.992 265.879 308.965 714.793 386.600 413.688 132.730 546.301 139.692 412.005 387.323
461.429 200.407 344.674 444.716 447.472 264.521 413.759 220.228 522.693 76.312 324.737 401.779 898.330 149.157 371.323 724.506 303.507 165.789 326.955 289.196 245.390 392.804 0.000 295.464 417.454 538.206 690.826 319.665 895.452 318.619 369.238 317.895 361.285 344.018 95.890 422.226 347.530 99.082 195.498 320.750 512.149 358.068 404.655 873.339 283.125 725.793 343.046 191.509 324.408 194.571 199.819
511.529 170.517 394.774 454.710 457.279 89.193 452.497 127.328 519.107 227.331 374.837 384.480 984.003 395.156 417.229 680.149 341.240 168.666 377.055 142.646 112.575 406.490 288.492 0.000 467.554 588.306 646.469 359.213 987.225 368.719 419.338 354.298 374.971 394.118 216.620 474.182 369.110 253.046 111.430 370.850 758.149 408.168 474.536 965.112 529.125 681.436 382.594 437.508 334.334 293.886 169.929
224.310 405.024 187.796 267.037 384.430 468.249 236.081 423.956 348.867 347.573 269.575 252.827 551.110 421.053 207.416 560.699 246.134 365.499 227.684 412.633 449.118 243.853 414.396 499.192 0.000 314.387 529.269 207.900 548.232 268.071 269.967 213.480 213.565 244.747 336.862 627.011 292.368 373.288 395.208 270.202 476.709 258.797 138.215 526.120 183.317 561.986 216.383 463.405 256.504 429.117 404.435
406.040 496.162 311.260 408.575 488.061 559.386 377.619 515.094 490.405 438.711 360.712 376.291 779.868 568.423 337.909 708.957 344.096 456.637 307.765 536.097 540.256 367.316 505.534 590.330 273.009 0.000 670.807 331.364 776.990 359.208 350.048 336.943 337.029 335.885 428.000 718.148 383.505 464.425 486.346 361.339 624.079 338.878 219.938 754.877 330.688 710.244 339.847 610.775 364.997 520.255 495.573
406.850 684.072 377.077 306.728 550.955 634.982 353.777 612.461 264.929 626.621 493.977 362.403 672.563 800.109 396.093 126.999 434.916 644.547 530.926 547.335 613.275 374.109 693.444 654.852 485.884 672.388 0.000 408.466 729.390 484.225 573.209 407.555 377.384 547.989 615.910 906.059 462.786 652.336 636.676 517.525 947.325 562.039 587.441 707.278 653.934 128.286 417.163 842.461 428.010 708.165 683.484
204.058 275.606 65.314 151.365 189.891 317.054 120.409 294.533 229.342 218.156 116.816 113.183 676.532 391.643 84.331 449.592 38.234 236.082 122.461 229.407 295.347 104.209 284.978 336.924 174.177 333.712 409.744 0.000 697.089 87.031 164.744 24.545 73.677 139.524 207.444 497.593 101.723 243.870 265.791 120.332 595.385 153.574 219.942 674.976 301.994 450.879 49.696 433.995 49.189 299.700 275.018
610.313 902.154 668.528 712.480 869.588 965.379 693.198 921.086 733.581 844.703 766.705 713.271 331.952 870.149 683.298 726.941 731.292 862.629 724.814 897.791 946.248 727.093 890.461 996.322 567.486 772.283 792.039 693.058 0.000 765.201 767.098 698.637 704.690 741.877 833.992 1124.141 781.419 870.418 892.338 767.332 925.805 755.928 587.310 98.629 632.413 725.363 701.541 912.501 741.661 926.247 901.566
277.818 295.488 139.218 225.269 187.534 358.553 194.313 314.420 303.246 238.037 70.704 185.556 750.292 411.525 158.235 488.379 67.380 255.964 146.984 270.907 336.846 176.582 304.860 378.423 244.455 365.207 454.699 100.218 764.126 0.000 189.267 98.449 145.063 170.225 227.326 517.475 68.233 263.752 285.673 66.156 626.881 178.097 251.437 742.013 333.489 489.666 123.599 453.877 92.536 319.582 294.900
298.963 323.895 182.208 282.398 251.992 387.120 251.441 342.827 360.375 266.444 105.050 239.461 771.225 439.932 208.857 562.188 141.189 284.370 61.134 344.715 367.989 230.486 333.267 418.063 248.676 358.651 528.508 157.346 768.347 140.955 0.000 155.577 198.967 128.074 255.733 545.882 127.843 292.159 314.079 129.512 632.197 47.426 256.753 746.234 338.805 563.475 180.728 482.284 162.090 347.988 323.306
210.797 308.659 72.053 158.104 194.081 309.931 127.147 287.410 231.599 251.208 137.103 107.047 683.270 424.696 91.069 450.142 65.227 269.134 155.513 222.284 288.224 98.073 318.031 329.801 180.916 364.476 412.000 33.053 703.828 120.084 197.796 0.000 66.553 172.576 240.497 530.646 105.913 276.923 298.843 153.384 628.438 186.626 252.995 681.715 335.046 451.429 56.434 467.048 66.155 332.752 308.070
248.655 353.541 78.415 152.065 229.822 315.867 131.762 293.346 189.111 296.090 172.844 74.978 721.128 469.577 97.431 411.623 113.783 314.016 200.395 228.220 294.160 66.004 362.913 335.737 213.092 396.652 369.513 77.997 741.685 163.092 242.678 73.082 0.000 217.458 285.379 575.527 141.653 321.804 317.561 196.392 647.988 231.508 276.961 719.573 354.596 412.910 101.379 511.929 106.877 377.634 352.952
296.603 265.260 168.353 254.404 257.160 328.485 223.447 284.192 332.381 207.809 129.811 211.467 728.850 381.297 187.369 534.194 113.195 225.735 70.946 316.721 309.354 202.492 274.632 359.428 206.302 319.127 500.514 129.353 725.972 128.307 113.229 127.583 170.973 0.000 197.098 487.247 152.604 233.524 255.444 130.438 600.555 102.059 225.112 703.860 307.163 535.481 152.734 423.649 134.096 289.353 264.672
393.981 132.959 277.226 377.268 380.024 201.091 346.311 156.798 455.245 95.329 257.289 334.331 866.455 278.757 303.875 657.058 236.059 98.341 259.507 238.969 181.960 325.357 171.672 232.034 350.006 470.758 623.378 252.217 869.677 251.171 301.790 250.447 293.837 276.570 0.000 354.778 280.082 94.882 128.050 253.302 641.749 290.620 356.988 847.564 412.725 658.345 275.598 321.109 256.960 138.920 132.371
554.424 259.513 437.669 537.711 540.467 357.052 506.754 324.561 615.688 269.041 417.732 494.773 1026.897 442.528 464.318 817.501 396.502 266.104 419.950 406.732 347.096 485.799 335.864 387.132 510.449 631.201 783.821 412.659 1030.120 411.614 462.233 410.890 454.280 437.013 258.329 0.000 440.525 293.890 295.813 413.745 805.520 451.063 517.431 1008.007 576.497 818.788 436.041 484.880 417.403 293.124 258.924
291.587 326.738 152.843 238.894 191.892 372.178 207.938 345.670 316.871 269.287 70.213 199.181 764.061 442.775 171.860 502.004 81.005 287.213 146.493 284.532 350.471 190.207 336.110 392.048 261.706 390.989 468.324 113.843 784.618 46.180 188.776 112.074 158.688 196.800 258.576 548.725 0.000 295.002 316.922 97.406 652.662 177.606 277.219 762.505 359.270 503.291 137.224 485.127 106.161 350.831 326.150
420.436 159.186 303.681 403.723 406.479 227.545 372.766 183.253 481.700 25.559 283.744 360.786 892.909 208.986 330.330 683.513 262.514 124.796 285.962 256.604 208.415 351.811 98.439 258.489 376.461 497.213 649.833 278.672 896.132 277.626 328.245 276.902 320.292 303.025 54.897 380.664 306.537 0.000 154.505 279.757 571.978 317.075 383.443 874.019 342.955 684.800 302.053 251.338 283.415 123.762 158.597
424.436 98.675 307.680 407.722 410.478 99.438 376.766 74.224 485.699 140.238 287.743 364.785 896.909 313.725 334.329 664.865 266.513 96.823 289.961 156.395 89.482 355.811 207.061 130.381 380.461 501.213 631.185 282.671 900.131 281.625 332.244 280.902 324.291 307.024 129.527 402.340 310.536 165.952 0.000 283.756 676.717 321.074 387.443 878.018 447.694 666.152 306.052 356.077 287.414 211.343 98.087
275.548 289.834 158.793 249.566 220.890 353.058 218.609 308.766 327.543 232.383 77.428 211.384 748.022 405.870 182.531 521.736 100.737 250.309 138.307 304.263 333.928 202.409 299.206 384.002 242.185 362.937 488.056 124.515 761.856 66.053 180.591 122.745 171.877 167.422 221.672 511.820 101.795 258.097 280.018 0.000 624.611 169.420 249.167 739.743 331.219 523.023 147.896 448.222 125.893 313.927 289.245
656.539 629.827 603.180 700.311 756.792 693.940 669.354 649.648 782.141 505.731 629.443 668.211 944.595 455.637 629.829 988.270 612.827 595.208 587.552 718.616 674.810 659.237 475.950 724.884 510.008 602.741 957.663 623.284 941.717 627.939 629.835 627.215 628.949 604.615 525.309 851.645 652.236 532.804 624.917 630.070 0.000 618.665 450.920 919.604 329.390 989.557 631.767 497.989 633.728 635.787 629.238
339.178 364.545 222.423 322.613 292.207 427.769 291.656 383.477 400.590 307.094 145.265 279.676 811.651 480.582 249.072 602.403 181.404 325.020 122.380 384.930 408.639 270.701 373.917 458.713 289.326 399.301 568.723 197.561 808.997 181.169 164.664 195.792 239.182 168.724 296.383 586.532 168.058 332.809 354.729 169.727 672.847 0.000 297.403 786.884 379.455 603.690 220.943 522.934 202.305 388.638 363.956
302.858 392.645 222.639 319.955 384.544 455.869 288.999 411.577 401.785 335.194 257.195 287.671 590.914 379.470 249.289 615.316 240.580 353.120 215.305 404.538 436.739 278.696 399.782 486.813 144.556 215.956 581.636 242.744 588.036 255.691 257.588 248.323 248.409 232.368 324.483 614.631 279.988 360.908 382.829 257.822 435.126 246.418 0.000 565.923 141.734 616.603 251.227 421.822 261.480 416.738 392.056
617.839 909.680 676.054 720.006 877.113 972.904 700.723 928.612 741.107 852.229 774.231 720.796 339.477 877.674 690.824 734.467 738.817 870.155 732.340 905.316 953.774 734.619 897.987 1003.848 575.011 779.808 799.565 700.583 53.899 772.727 774.623 706.163 712.216 749.403 841.518 1131.667 788.945 877.944 899.864 774.858 933.330 763.453 594.836 0.000 639.938 732.889 709.066 920.026 749.187 933.773 909.091
353.744 433.823 301.645 397.516 455.257 497.936 366.559 453.644 479.346 309.727 327.908 366.677 641.800 259.633 328.295 685.475 311.292 399.204 286.018 479.030 478.806 357.702 279.946 528.880 207.212 301.207 656.129 321.750 638.922 326.404 328.301 325.681 327.415 303.081 329.305 655.641 350.701 336.800 428.913 328.535 315.289 317.131 148.125 616.809 0.000 686.762 330.233 301.985 332.193 439.783 433.234
429.642 696.535 399.869 329.520 553.097 637.124 376.569 614.603 277.620 639.084 496.119 364.545 659.724 812.571 418.885 19.608 437.058 657.010 543.389 549.478 615.418 396.901 705.907 656.994 508.676 695.180 189.276 426.941 716.551 486.368 585.672 422.026 398.474 560.452 628.373 918.521 464.929 664.798 638.819 519.668 970.117 574.502 600.051 694.438 676.726 0.000 439.955 854.923 430.152 720.628 695.946
206.230 304.092 65.243 155.177 205.016 320.865 124.220 298.344 233.154 246.641 145.302 116.995 678.704 420.129 88.142 453.404 66.720 264.568 150.947 233.219 299.159 108.020 313.464 340.736 176.349 359.909 413.555 28.486 699.261 115.517 193.230 34.066 77.488 168.010 235.930 526.079 116.847 272.356 294.277 148.817 623.871 182.060 248.428 677.148 330.480 454.691 0.000 462.481 77.090 328.186 303.504
646.033 385.011 529.278 629.320 632.076 449.125 598.363 404.832 707.297 260.916 509.341 586.383 955.751 137.119 555.927 909.110 488.111 350.393 511.559 473.800 429.995 577.408 231.134 480.068 521.164 615.158 875.430 504.269 952.873 503.223 553.842 502.499 545.889 528.622 280.494 606.830 532.134 287.989 380.102 505.354 569.570 542.672 462.076 930.760 340.546 910.397 527.650 0.000 509.012 390.972 384.423
231.919 292.077 93.175 179.226 188.691 335.396 148.269 311.009 257.203 234.626 128.523 141.044 704.392 408.114 112.191 465.223 6.906 252.552 138.931 247.750 313.689 132.069 301.449 355.266 202.038 350.182 431.543 54.175 724.950 98.738 181.214 52.405 101.537 155.994 223.915 514.064 100.522 260.341 282.261 132.038 611.856 170.044 236.412 702.837 318.464 466.509 77.556 450.466 0.000 316.170 291.488
389.857 98.202 273.102 373.144 375.900 198.029 342.187 153.736 451.121 87.934 253.165 330.207 862.330 271.362 299.751 652.934 231.935 88.976 255.383 235.908 178.898 321.232 164.277 228.972 345.882 466.634 619.254 248.093 865.553 247.047 297.666 246.323 289.713 272.446 79.167 318.252 275.958 87.487 124.988 249.178 634.354 286.496 352.864 843.440 405.330 654.221 271.474 313.714 252.836 0.000 97.613
416.431 36.040 299.676 399.718 402.474 131.533 368.761 113.479 477.695 131.048 279.739 356.781 888.905 304.536 326.325 679.508 258.509 52.035 281.957 195.650 121.577 347.806 197.871 161.613 372.456 493.208 645.828 274.667 892.127 273.621 324.240 272.897 316.287 299.020 120.337 327.878 302.532 152.449 84.731 275.752 667.528 313.070 379.438 870.014 438.504 680.795 298.048 346.888 279.410 151.683 0.000
NODE_COORD_SECTION
1 1438.942575 -1211.855723
2 1200.579557 -8537.677696
3 1207.655493 -3568.455033
4 77.496783 -2260.990907
5 926.013700 -6292.474637
6 -617.892096 -7808.174335
7 768.002165 -2751.471642
8 111.141581 -7814.918860
9 -2194.809285 -1491.793630
10 3201.824121 -7411.949060
11 1865.117719 -6105.913752
12 51.941487 -3446.405944
13 5324.321127 8121.643152
14 6645.334990 -7411.277841
15 996.536834 -3205.758753
16 -4551.942348 2130.487420
17 1137.862378 -5096.585335
18 1413.584964 -8172.503541
19 3126.371279 -5274.317745
20 -2057.780175 -7340.663993
21 -571.787626 -7612.265458
22 151.651824 -3445.452972
23 4060.200084 -6650.307221
24 -886.602516 -7994.426978
25 3882.621223 -2010.067659
26 3729.564917 -2859.972289
27 -2741.432474 1799.528116
28 1162.484312 -4625.065240
29 7450.568068 7713.914141
30 1408.132114 -5882.666268
31 3113.725551 -5466.610504
32 1055.721368 -4511.592185
33 378.416176 -3872.043037
34 2437.499834 -4959.191446
35 2645.824067 -7760.788501
36 1779.237300 -11861.835569
37 1100.101169 -6152.041187
38 3340.165439 -7563.027616
39 411.341717 -8044.000301
40 1884.922970 -5764.949436
41 11638.006149 -5636.313667
42 3028.941565 -5669.736192
43 4845.744777 -2952.315672
44 7536.755976 7956.323570
45 6717.628332 -4143.765124
46 -4299.959863 2297.570526
47 1174.788000 -4095.875228
48 7299.246556 -7944.500814
49 1119.949307 -5171.199471
50 2450.635253 -8153.959434
51 1228.499843 -8549.213985
DEMAND_SECTION
1 0
2 10
3 4
4 1
5 1
6 2
7 7
8 94
9 5
10 83
11 9
12 4
13 6
14 2
15 5
16 3
17 6
18 5
19 7
20 7
21 2
22 8
23 7
24 9
25 98
26 10
27 3
28 1
29 4
30 10
31 2
32 4
33 5
34 8
35 1
36 1
37 3
38 4
39 8
40 73
41 8
42 5
43 97
44 4
45 10
46 6
47 1
48 3
49 3
50 6
51 1
DEPOT_SECTION
1
-1
EOF
