NAME : mamut-paris-n100-hyb
COMMENT : Mamut2026 shortest metric; city paris; 3-decimal seconds/meters; ENU ref in mamut-paris-n100-hyb.vrp.json
TYPE : CVRP
DIMENSION : 101
EDGE_WEIGHT_TYPE : EXPLICIT
EDGE_WEIGHT_FORMAT : FULL_MATRIX
CAPACITY : 184
EDGE_WEIGHT_SECTION
0.000 3170.112 6988.128 6979.109 4557.919 3150.095 1899.097 6734.656 3271.920 1475.669 9001.489 1194.113 2607.312 1655.332 4778.516 4347.238 1383.576 5708.250 1550.109 3722.834 5621.278 7971.174 5132.089 3978.911 2607.597 3996.066 3190.559 3287.248 7028.956 4096.905 4144.033 946.923 8125.861 4204.774 5249.516 3952.684 5926.044 8945.002 4476.421 5176.940 6865.956 2175.783 3366.705 4827.569 3983.380 1648.619 1335.715 6384.410 4874.093 9839.332 1578.984 6458.990 837.876 4765.066 9809.860 7888.216 6404.719 3960.885 3757.526 5781.737 4378.481 8015.871 5330.246 8396.251 1749.826 5108.993 6408.985 3999.263 4810.364 6536.703 538.157 9352.076 8263.837 6708.585 4620.163 4778.159 9974.795 4511.258 4702.342 4441.587 5554.391 6726.872 2266.665 9357.048 4121.048 8335.384 3935.472 5071.534 6208.594 6118.026 8192.236 3826.735 4418.110 5191.988 4037.218 7591.266 4831.524 4154.284 6288.405 5276.712 9035.805
3320.117 0.000 4268.714 4259.695 2309.980 1848.204 4851.671 4015.242 6296.445 3411.198 12026.014 4189.957 2021.737 4096.286 4885.361 2240.821 4408.101 7522.704 3946.333 5454.096 8306.485 9413.310 6444.780 5562.776 1341.695 4102.912 4624.046 5143.926 8338.859 1895.500 6334.816 3942.767 5406.446 7153.541 6524.372 5767.138 5755.023 10899.321 7500.946 4577.063 9151.684 3202.781 4800.192 3249.461 7007.906 3584.148 3112.865 9408.935 6688.546 11653.785 4603.509 8490.160 3251.279 6348.931 12834.385 4891.016 8261.398 2265.086 4946.523 2784.536 6235.160 7033.666 2592.250 6500.306 2363.259 8133.518 7912.574 4306.408 3114.566 8351.156 3534.001 12376.601 10078.291 3665.558 4035.695 1963.043 7255.380 1555.934 7553.454 6823.504 2834.976 4356.534 3956.964 12381.573 2542.940 10149.838 5245.375 2333.538 7366.494 7932.480 5468.245 6851.261 2143.150 6420.343 4330.144 10615.791 2093.528 6220.514 3291.204 3848.321 12060.330
7233.956 4431.926 0.000 182.780 4901.224 4772.566 7391.200 910.190 10124.507 6626.451 15623.435 7590.875 6289.561 6635.815 9071.383 3261.552 8080.764 11790.528 6731.174 9721.921 12559.642 13681.135 10712.604 7631.339 5609.519 8370.736 6819.628 9411.750 6911.890 3582.241 10602.640 7343.684 2024.411 11057.361 6814.664 10034.962 9651.339 15167.145 11136.827 4425.311 13419.508 5742.310 6807.333 6632.143 10246.626 6731.119 6660.742 12647.655 10956.370 15921.609 7597.934 12757.984 6924.802 8166.597 16511.705 3463.341 12529.222 3590.648 6392.056 3288.129 10502.984 4563.776 2050.261 3332.000 6631.084 11372.239 12180.398 8574.232 3483.499 12618.980 7354.762 15631.171 14346.115 3058.126 4339.052 3816.804 3689.102 3232.013 11640.706 9305.960 1610.467 4463.673 6496.493 16058.893 6669.736 14417.662 6690.908 2379.943 11634.319 12200.304 4254.763 10089.981 5457.806 6710.635 5388.665 14293.111 2745.570 8702.970 3117.177 2788.162 15657.751
7233.351 4431.321 9.019 0.000 4900.619 4771.961 7390.595 727.410 10123.901 6625.845 15622.830 7590.270 6288.956 6635.210 9070.778 3260.947 8080.159 11789.923 6730.569 9721.316 12559.037 13680.530 10711.999 7630.734 5608.914 8370.131 6819.023 9411.145 6911.284 3581.636 10602.035 7343.079 1841.631 11056.756 6814.059 10034.357 9650.734 15166.540 11136.222 4424.706 13418.903 5741.705 6806.728 6631.538 10246.021 6730.513 6660.137 12647.050 10955.765 15921.004 7597.329 12757.379 6924.197 8165.992 16511.100 3347.874 12528.617 3590.043 6391.451 3287.524 10502.379 4563.171 2049.656 3186.979 6630.479 11371.634 12179.793 8573.627 3482.894 12618.375 7354.157 15630.566 14345.510 3029.584 4338.447 3816.199 3506.322 3231.408 11640.101 9305.355 1609.862 4435.130 6495.888 16058.288 6669.131 14417.057 6690.303 2379.338 11633.714 12199.699 4139.296 10089.376 5457.201 6710.030 5388.059 14292.506 2744.965 8702.365 3116.572 2787.557 15657.146
4741.163 1931.257 5025.326 5016.307 0.000 3369.733 6315.988 4771.854 7408.106 4832.244 13188.811 5611.003 2976.683 5617.814 4960.811 3629.685 5828.927 8146.297 5367.379 6077.690 9052.847 9719.077 7068.373 7084.305 2352.882 4726.505 6145.574 5991.844 9875.003 3284.364 7346.003 5363.813 5987.160 8164.728 8060.516 6390.731 5540.767 11381.937 8663.743 6182.774 9849.797 4724.310 6321.720 2521.571 8428.952 5005.194 4534.697 10829.981 7312.140 11987.776 6024.555 9188.273 4672.325 7870.459 13997.182 4342.120 8959.512 3811.920 6482.667 2235.640 6933.273 8594.319 3126.522 7505.476 3374.447 9315.803 8251.912 4930.001 4846.815 8842.583 4955.047 13539.398 10412.282 3429.840 5625.996 1038.077 7921.363 2897.348 8564.641 8345.033 3647.330 2884.248 5478.492 13544.370 2564.944 10483.829 6781.519 3021.993 7705.833 8556.074 4147.465 8272.307 1353.015 7956.487 5920.445 11778.588 3269.278 7742.043 2742.308 5496.850 13223.127
2938.522 1819.471 4979.129 4970.110 3421.410 0.000 3722.840 4725.657 5914.850 2958.091 11644.419 3808.362 2883.516 2967.455 5996.956 1949.275 4026.507 7867.211 3062.815 5881.796 8264.208 10130.135 7291.050 4407.105 2453.290 5214.507 3367.589 5446.209 6991.232 1698.942 6602.813 3561.172 6116.861 6847.705 5176.745 6111.645 6866.618 11243.828 7119.351 3299.003 9453.966 2073.951 3543.736 4362.937 6578.266 3062.759 2693.652 8979.295 7033.054 11998.293 3929.574 8792.442 2869.684 5193.260 12452.790 6328.623 8563.681 1562.922 3598.896 4348.042 6537.442 6137.933 3321.246 6505.435 2766.224 7703.879 8567.946 5418.003 2412.401 8695.664 3152.406 11962.811 10422.799 5013.098 2742.225 3621.522 7622.098 2502.259 7345.272 5667.834 3545.391 5590.364 2828.133 11999.978 3656.417 10494.346 3897.748 3062.535 8367.555 8276.988 7031.751 6421.621 3287.546 5072.716 3036.674 10234.196 2822.525 5064.843 4854.710 3146.157 11678.735
1927.542 4542.137 7257.539 7248.521 6144.076 3496.726 0.000 7004.068 3867.755 1822.901 9160.161 1368.373 4534.854 500.559 6706.057 4114.349 2105.496 7263.725 963.779 5278.309 6611.755 9526.648 6687.564 2236.792 4400.324 5923.608 1612.522 4842.722 5465.414 3864.016 5204.485 1121.182 8395.272 4800.609 3685.974 5508.159 7853.585 9935.480 4880.075 4395.221 7856.434 1394.063 1719.776 6755.111 3889.475 1995.852 1857.193 6184.382 6415.768 10884.151 1341.182 7449.467 1807.417 3022.947 10078.041 8848.683 7498.436 3727.996 2193.984 6987.078 5933.956 7055.381 5616.873 7614.531 3677.368 5115.487 7964.459 5926.804 4447.986 8092.177 1554.905 9167.898 9642.481 7533.158 3838.443 6344.187 9716.080 5141.295 5573.543 3174.690 5823.802 8313.029 1484.945 9802.141 6048.590 9714.028 2327.520 5358.161 7764.068 7673.501 9640.105 3833.229 6010.211 3628.446 3178.060 8036.359 5127.250 2647.295 7493.746 4494.992 9194.477
7580.944 4778.914 920.853 911.834 5090.621 5178.171 7796.805 0.000 10530.112 7032.056 16029.041 7996.480 6636.549 7041.421 9260.780 3740.673 8486.369 12137.516 7136.780 10068.909 12906.630 14019.046 11059.592 8253.247 5956.507 8717.724 7411.322 9758.738 7508.999 3987.847 10949.628 7749.290 1511.759 11462.967 7411.773 10381.950 9840.736 15514.133 11542.433 5129.051 13766.496 6147.916 7429.241 6821.540 10652.232 7136.724 7066.348 13053.261 11303.358 16268.597 8003.540 13104.972 7330.408 8788.506 16917.311 3294.515 12876.210 3996.254 7013.964 3436.873 10849.972 5133.821 2261.650 3382.141 6978.071 11777.844 12527.386 8921.220 4187.239 12965.968 7760.367 16036.777 14693.103 3086.836 5042.792 4006.201 3445.962 3566.783 11987.694 9711.566 1957.455 4451.444 6902.098 16464.499 6859.133 14764.650 7312.816 2591.332 11981.307 12547.292 4085.937 10495.587 5647.203 7307.744 6010.573 14698.717 3080.341 9108.576 3248.807 3491.901 16063.357
3170.686 6220.238 10038.254 10029.235 7570.501 6200.220 3629.698 9784.782 0.000 4557.849 5966.736 3947.292 5470.897 3641.260 6089.003 7255.050 2773.252 4635.494 4007.399 3691.594 2866.317 6459.339 4459.420 5402.925 5499.920 5753.743 4778.655 2744.403 8631.548 7004.718 1756.550 3700.101 11175.986 932.854 6852.107 3233.685 7236.531 6190.042 1441.668 7535.922 4099.601 4534.764 4885.909 7458.447 1661.504 4730.799 4385.840 4604.292 3523.944 7138.713 2947.543 3704.029 3951.444 6189.080 6775.107 10938.342 3888.654 6868.697 5360.117 8831.862 3067.813 10221.514 8380.371 10755.233 4613.411 2093.728 5336.228 5062.991 7588.688 4818.858 3497.128 6317.323 6032.699 9758.711 6979.144 7828.284 12856.782 7561.383 1705.788 4488.190 8604.516 9776.998 4625.647 6322.295 6751.926 6104.246 5493.654 8121.659 5135.837 4400.182 11242.361 1504.859 7281.695 6794.579 6344.194 4556.513 7881.649 5416.973 9338.530 7635.694 6001.052
1342.932 3661.897 6821.554 6812.536 5098.308 2676.853 2199.052 6568.083 4291.433 0.000 9928.254 1494.068 3254.872 1540.088 5765.815 3982.337 1977.119 6809.597 1204.950 4824.182 6640.790 9072.521 6233.436 3392.153 3147.986 4983.365 2603.801 4388.595 6442.198 3732.004 5163.545 1246.878 7959.287 5224.287 4662.758 5054.031 6913.343 9964.515 5441.646 4464.699 7885.469 1589.025 2779.947 5475.129 4551.444 172.951 143.448 6952.474 5975.440 10913.186 2025.074 7478.502 532.116 4178.308 10816.524 8171.048 7506.067 3595.984 3170.768 6190.467 5479.828 7303.629 5163.672 7684.009 2397.386 5677.057 7510.332 5186.861 4445.464 7638.050 1070.986 9935.990 9365.185 6855.524 3907.921 5318.548 9655.160 4344.684 5721.854 4652.882 5387.817 7267.262 1679.907 10363.711 4768.608 9436.732 3348.714 4904.960 7309.941 7219.374 8732.625 4394.799 5051.736 4605.230 3450.460 8597.929 4664.950 4049.891 6697.135 4564.471 9962.570
9223.564 12273.116 16091.132 16082.113 13623.379 12145.795 9263.015 15837.660 6342.775 10315.782 0.000 9705.224 11523.775 9399.193 11915.141 13012.983 8623.519 9547.481 9765.331 9517.732 7057.210 10269.060 9565.704 10200.391 11552.799 11579.881 10277.495 8570.541 13040.987 12762.650 7582.689 9458.034 17228.864 6141.532 11878.746 8880.787 13062.669 8256.885 5483.588 13031.508 7446.567 10292.697 10384.748 13511.325 5830.327 10488.732 10350.073 5196.357 8508.252 9000.466 8705.476 7946.107 9969.286 10574.320 1601.221 16991.220 8253.418 12626.630 10581.485 14884.741 8714.915 15442.882 14433.249 16236.246 10666.289 5084.552 10147.654 10889.130 13346.621 9459.870 9477.146 1451.409 8928.166 15811.589 12737.077 13881.163 18593.192 13614.262 6193.563 8571.681 14657.394 15829.876 10383.580 1148.409 12804.804 8955.318 10291.119 14174.538 10047.825 9041.194 17295.240 5865.328 13334.573 11821.218 11843.033 2235.376 13934.528 9425.256 15391.409 13393.627 223.291
1097.246 3852.870 6922.672 6913.653 5454.809 2867.825 1275.418 6669.200 3804.439 1037.812 9330.784 0.000 3704.559 1031.653 5875.762 3779.481 1386.510 6463.222 907.964 4477.806 6153.797 8726.145 5887.061 3107.308 3615.234 5093.312 2318.956 4042.219 6157.354 3529.148 4746.527 272.806 8060.404 4737.294 4377.913 4707.656 7023.290 9477.521 4844.176 4179.854 7398.476 1304.180 2495.103 5924.816 3953.975 1210.762 1072.104 6355.004 5629.064 10426.192 1113.212 6991.509 959.040 3893.463 10219.054 8362.021 7040.478 3393.128 2885.923 6381.440 5133.452 7018.785 5282.005 7399.165 2847.073 5079.588 7163.956 5096.509 4232.620 7291.674 724.610 9338.520 9018.809 7046.497 3623.077 5654.920 9452.304 4535.657 5234.861 3817.907 5488.934 7623.762 1395.062 9766.242 5218.295 9090.356 3063.870 5023.293 6963.565 6872.998 9065.149 3797.330 5320.944 4320.385 3165.616 8000.460 4792.382 3530.605 6888.108 4279.626 9365.100
2723.718 2191.998 6128.106 6119.087 2847.897 2291.204 4298.543 5874.634 5298.933 2814.799 11079.638 3593.559 0.000 3685.073 4126.255 3488.347 3719.754 6085.713 3349.934 4100.297 6875.517 8348.636 5392.013 5537.138 812.748 3343.805 4748.786 3664.710 8587.183 3238.014 4855.600 3346.368 7265.839 6055.555 6807.743 4330.147 5007.338 9462.330 6554.570 5104.245 7672.468 3514.964 4924.932 2904.320 6357.673 2987.749 2517.252 8758.702 5251.555 10216.794 3953.276 7010.944 2654.880 6323.293 11888.009 6605.068 6782.182 3101.994 5315.753 4498.589 4755.944 7870.574 4451.642 8001.570 870.471 7206.630 6786.447 3547.301 3951.474 6914.165 2937.602 11430.224 8641.300 5460.455 4547.467 3495.010 9114.773 3415.326 6455.468 6797.866 4694.369 5414.206 3824.892 11435.197 2197.799 8712.847 5493.699 4192.930 6469.277 6495.489 6879.569 6201.028 2170.418 6750.215 4841.917 9669.415 3952.920 6194.876 5005.256 4685.229 11113.954
1547.539 4041.578 6756.981 6747.962 5643.517 2996.168 755.385 6503.509 3488.692 1360.915 8987.620 988.370 4140.737 0.000 6326.055 3613.790 1726.433 6883.722 463.221 4898.307 6232.692 9146.646 6307.561 2434.962 3938.337 5543.605 1810.692 4462.720 5663.585 3363.457 4825.422 741.180 7894.713 4421.546 3884.144 5128.156 7473.583 9556.417 4501.012 3894.662 7477.371 893.504 1917.946 6360.994 3610.811 1533.865 1395.207 6011.840 6036.705 10505.088 962.119 7070.404 1427.415 3221.117 9875.890 8348.124 7119.373 3227.437 2392.154 6486.519 5553.953 6733.592 5116.314 7113.972 3283.251 4736.424 7584.457 5546.802 3947.428 7712.175 1174.903 8995.356 9263.418 7032.600 3337.884 5843.629 9215.522 4640.736 5194.480 3448.456 5323.243 7812.471 984.387 9423.078 5654.473 9334.965 2525.691 4857.603 7384.066 7293.499 9139.546 3454.166 5509.653 3826.616 2754.940 7657.296 4626.691 2845.465 6993.187 3994.434 9021.936
4675.343 4787.863 8723.972 8714.953 4687.874 5569.310 6250.168 8470.500 5684.744 4778.047 11354.612 5545.183 3758.322 5648.321 0.000 6696.079 4975.645 3696.639 5313.182 2535.404 5584.720 5314.803 2596.036 7500.386 4211.449 871.821 6712.034 3100.933 10550.431 6350.758 4580.120 5297.993 9833.529 6071.196 8770.990 3080.597 1826.801 6977.664 6829.544 8382.351 5639.813 5697.257 6888.180 2751.714 7045.507 4950.997 4480.500 9930.155 3477.182 7583.502 5480.325 4978.289 4618.128 8286.540 12162.983 7954.396 4749.527 6380.099 7279.000 5847.917 3653.629 11148.679 6935.893 10955.564 3618.058 7481.604 3847.638 796.968 7229.579 4438.309 4889.227 11705.198 6008.008 7137.286 7825.573 4935.299 11710.639 6011.192 6111.706 8219.500 7290.234 6781.470 5788.140 11710.170 2460.046 6079.555 7456.947 6776.773 3301.559 4158.495 8033.807 6888.862 3629.041 8713.462 7558.693 9944.389 6548.786 8158.124 6354.585 7963.335 11388.928
4277.888 2044.956 3294.708 3285.690 3945.177 1774.998 4393.632 3276.391 7126.939 3628.883 12625.868 4593.307 3655.101 3638.248 6518.725 0.000 5083.196 9156.067 3733.607 7087.460 9603.574 11046.674 8078.143 5011.257 2975.058 5736.275 3976.695 6777.290 6744.553 584.674 7942.179 4346.117 4667.596 8059.794 5261.861 7400.501 7388.386 12532.684 8139.260 2760.189 10785.047 2744.743 4152.841 4884.658 7249.059 3733.551 3663.175 9650.088 8321.910 13287.149 4600.367 10123.523 3927.235 5546.516 13514.138 5131.580 9894.762 485.444 3771.974 3646.924 7868.523 5207.420 1899.770 4687.219 3996.623 8374.672 9545.937 5939.771 1288.320 9984.520 4357.195 12633.604 11711.655 3816.055 2259.879 3077.816 5803.882 1861.953 8684.638 6306.005 2096.125 5218.922 3498.926 13061.326 4178.137 11783.202 4070.826 1641.058 8999.858 9565.844 5923.002 7092.414 3778.347 5157.832 2768.583 11295.544 1432.010 5703.014 3833.670 2022.075 12660.184
1380.334 4550.446 8187.535 8178.517 5938.253 4132.689 1697.382 7934.064 2683.888 2281.416 8217.094 1692.119 3987.647 1616.408 5665.772 5044.345 0.000 5898.908 1752.225 3913.493 5033.246 8161.832 5322.747 3627.666 3987.931 4964.820 3003.396 3470.549 6856.288 4794.012 3625.976 1444.928 9325.268 3616.743 5076.848 4143.342 6813.301 8356.970 3730.486 5379.057 6277.925 2377.899 3110.649 6207.903 2840.284 2454.367 2315.708 5241.314 4837.259 9305.641 759.742 5870.958 1643.623 4413.820 9105.364 9268.551 5919.927 4657.992 3584.858 7162.071 4375.619 8217.987 6546.869 8598.367 3130.160 3965.897 6599.643 4630.487 5431.822 6558.340 1151.483 8224.830 8063.972 8088.920 4822.279 6158.493 10699.916 5800.521 4114.310 3386.479 6753.798 8107.207 2468.781 8652.551 5501.383 8135.519 3718.394 6288.157 6399.252 6139.664 9572.570 2683.639 5798.445 5019.320 4239.334 6886.769 6057.246 3641.714 7668.739 5478.828 8251.410
5586.908 7345.424 11214.342 11205.323 7955.891 7376.309 7256.150 10960.870 4836.214 6427.858 9694.731 6738.996 5935.978 7173.011 4033.904 8573.452 5811.665 0.000 6962.994 2282.737 3271.381 2643.940 992.689 9150.197 6093.659 4468.019 8361.845 3042.580 12200.243 8323.119 3731.589 6491.805 12352.075 4792.678 10420.802 2312.148 4138.433 4139.489 5836.078 10189.350 3153.849 7347.069 8537.992 6566.197 6253.318 6600.809 6130.312 9041.155 1478.993 4893.551 6316.344 2492.325 6267.940 9936.352 10503.102 11474.037 2263.563 8187.099 8928.812 9367.557 2259.159 12955.679 9556.460 13086.675 5276.983 6488.139 1081.751 3777.267 9036.578 1590.923 5913.350 10382.846 3318.057 10640.723 9632.572 8675.278 14201.009 8737.472 4633.181 8600.084 9780.605 10315.321 7437.951 10050.289 5866.488 3389.604 9106.758 9297.748 881.360 1346.534 11553.447 6096.673 6821.499 10363.274 9208.505 8284.507 9057.738 9218.765 9874.225 9770.334 9729.047
1650.500 3773.747 6489.150 6480.131 5375.686 2728.337 1090.523 6235.678 3823.830 1093.084 9322.759 1091.331 3872.906 335.139 6383.850 3345.959 1895.407 6986.683 0.000 5001.268 6567.831 9249.607 6410.522 2428.802 3670.506 5601.400 1640.450 4565.681 5478.847 3095.627 5160.561 844.141 7626.882 4756.685 3699.407 5231.117 7531.378 9891.555 4836.151 3626.831 7812.510 625.673 1816.596 6093.163 3945.950 1266.034 1127.376 6346.979 6152.526 10840.226 1297.258 7405.543 1391.435 3214.957 10211.029 8080.293 7454.512 2959.606 2207.416 6218.688 5656.914 6465.761 4848.483 6846.142 3015.420 5071.562 7687.418 5649.763 3679.597 7815.136 1277.864 9330.495 9542.270 6764.769 3070.053 5575.798 8947.691 4372.905 5529.618 3651.319 5055.412 7544.640 716.556 9758.217 5386.642 9613.818 2385.363 4589.772 7487.027 7396.460 8871.715 3789.305 5241.822 3641.879 2487.109 7992.435 4358.860 3048.329 6725.356 3726.603 9357.075
3304.171 5062.686 8931.605 8922.586 5673.154 5093.572 4973.412 8678.133 3547.875 4145.121 9217.743 4456.258 3653.241 4890.273 2944.324 6290.714 3528.927 2753.277 4680.257 0.000 3659.827 5016.201 2177.116 6867.460 3810.921 2609.064 6079.108 1093.338 9917.505 6040.382 2443.251 4209.068 10069.337 3934.328 8138.065 997.711 4091.852 6129.894 4692.675 7906.613 4456.777 5064.332 6255.254 4610.883 4964.980 4318.072 3847.574 7855.299 1919.120 6884.359 4033.607 3795.253 3985.202 7653.615 10026.114 9502.599 3566.492 5904.361 6646.075 7396.119 1540.253 10672.941 7273.722 10803.937 2994.245 5344.735 3454.012 1918.312 6753.841 3581.730 3630.613 9568.330 5308.864 8357.985 7349.835 6392.541 11918.272 6454.735 3964.564 6772.782 7497.867 8239.463 5155.214 9573.302 3904.362 5380.412 6824.021 7015.010 3253.621 3163.054 9590.288 4808.335 4538.762 8080.537 6925.767 7807.520 6775.000 6985.609 7902.787 7487.597 9252.059
5244.930 8294.482 12112.498 12103.479 9204.306 8274.465 6219.280 11859.026 2798.287 6680.496 6830.350 6397.018 7114.101 6141.264 6093.679 9471.607 5273.256 3149.942 6507.402 3531.153 0.000 4383.236 3168.164 8110.019 7143.124 5758.419 7485.749 3296.605 11338.641 9221.275 2737.745 6149.828 13250.230 2468.284 9559.201 2700.647 6777.785 3909.617 3511.685 10035.926 1598.439 7034.768 7593.003 8079.191 4011.237 6853.447 6460.084 6716.761 2110.712 4808.339 5447.547 1548.567 6025.689 8896.174 7638.720 12970.876 1855.879 9085.254 8067.211 10864.397 2323.383 12874.856 10454.615 13255.236 6256.615 4160.462 3750.115 5067.668 9934.734 3062.331 5571.372 7518.465 3829.284 11826.263 9479.148 9860.818 15099.165 9635.628 1824.857 7036.721 10678.760 11770.615 7125.650 7185.908 7114.904 3867.897 8200.748 10195.903 3650.285 2643.655 13121.441 3854.592 8069.915 9501.673 8896.204 5420.126 9955.893 8090.358 11371.065 10135.697 6864.666
7904.271 9662.787 13531.705 13522.686 9958.925 9693.672 9325.693 13278.233 6408.135 8745.221 10472.773 9056.359 8253.341 9247.676 5490.472 10890.815 8041.101 2364.653 9280.357 4600.100 4345.691 0.000 3310.052 11245.713 8411.022 6142.871 10621.443 5108.563 14474.336 10640.482 5731.431 8809.168 14669.438 6078.132 12694.895 4353.144 5117.844 2620.620 7121.533 12506.713 3493.418 9664.432 10728.697 8022.765 7621.085 8918.172 8447.675 10326.609 3422.177 2685.576 8545.780 2901.566 8585.303 12031.868 11281.143 12829.759 3205.885 10504.462 11202.905 10824.125 4300.156 15273.042 11873.823 15404.038 7594.346 7773.593 1819.915 5458.898 11353.942 1721.186 8230.713 11160.888 1367.872 12113.494 11949.935 10206.350 16518.372 11054.835 5656.863 10641.081 12097.968 11660.694 9755.314 10828.331 7731.097 1439.419 11336.442 11615.111 2296.634 2080.051 12851.135 7464.440 8900.092 12637.367 11525.868 9062.549 11375.101 11259.761 11330.793 12087.697 10507.089
4932.869 6691.385 10560.303 10551.284 7301.852 6722.270 6602.111 10306.831 4518.538 5773.819 9647.372 6084.957 5281.939 6518.972 3697.061 7919.413 5157.626 1163.316 6308.955 1628.698 3224.022 3206.174 0.000 8496.158 5439.620 3590.986 7707.806 2388.541 11546.204 7669.080 3413.913 5837.766 11698.036 4678.395 9766.763 1694.861 3904.204 4592.013 5663.337 9535.311 3106.490 6693.030 7883.953 5769.503 5935.642 5946.770 5476.273 8825.961 1364.154 5346.478 5662.305 2444.966 5613.901 9282.313 10455.743 10972.185 2216.205 7533.060 8274.773 8865.705 1941.483 12301.640 8902.421 12432.636 4622.944 6315.398 1643.985 2900.234 8382.539 2043.849 5259.311 10335.488 3770.984 9986.684 8978.533 7953.088 13546.970 8083.433 4518.898 8282.408 9126.566 9799.259 6783.912 10002.931 5212.449 3842.531 8452.720 8643.709 1097.906 1625.173 11051.595 5778.997 6167.460 9709.235 8554.466 8237.149 8403.699 8614.307 9372.373 9116.295 9681.688
4545.600 6443.064 7992.800 7983.782 8045.003 5340.581 3229.701 8252.121 5787.545 4099.706 9947.429 3986.431 6879.529 3118.617 9324.115 5590.617 4268.706 9690.527 3581.837 7755.261 8653.862 11953.451 9164.515 0.000 6676.727 8541.666 2403.578 7212.268 3877.542 5546.610 7367.695 3739.241 9592.119 6720.399 2139.528 7985.110 10471.644 11977.587 5991.555 4305.753 9887.146 3594.321 2044.541 8986.530 4864.282 4272.657 4133.998 6503.893 8578.978 12926.258 3533.267 9491.574 4398.058 835.101 10865.308 10248.697 9661.646 5340.926 1855.730 8669.672 8117.338 6311.579 6892.205 7113.706 6022.043 5955.101 10391.262 8472.255 5434.937 10300.059 4172.963 9955.165 11805.691 8933.173 4582.301 8039.751 9470.651 6823.888 7493.333 2166.276 7071.855 10213.957 3148.813 10644.182 8280.010 11877.238 1565.365 6758.175 10190.871 9881.383 11040.119 5014.998 7911.139 2082.000 3190.017 9124.733 6549.127 1243.864 8950.787 5185.761 9981.745
2682.415 1708.815 5644.924 5635.905 2364.714 2048.507 4257.240 5391.452 5349.358 2773.496 11130.063 3552.256 1129.659 3643.770 4767.212 3245.650 3770.179 6429.744 3308.631 4444.328 7219.548 8692.668 5736.044 5495.835 0.000 3984.762 4693.531 4008.741 8531.928 2995.317 5199.631 3305.065 6782.657 6105.981 6731.402 4674.178 5648.295 9806.361 6604.995 4861.548 8016.499 3272.267 4869.677 3273.276 6370.204 2946.446 2475.949 8771.233 5595.586 10560.825 3965.807 7354.975 2613.577 6281.990 11938.434 6121.886 7126.213 2859.297 5153.554 4015.406 5099.975 7627.877 3968.460 7758.873 1214.502 7257.055 7130.479 4188.258 3708.777 7258.196 2896.299 11480.650 8985.331 4977.273 4304.771 3011.828 8631.591 2932.144 6505.893 6756.563 4211.186 4931.023 3783.589 11485.622 2566.755 9056.878 5438.444 3709.748 6813.308 6839.520 6396.387 6213.559 2197.884 6627.373 4599.220 9719.840 3469.738 6153.573 4522.074 4442.532 11164.379
4843.535 4510.901 8447.010 8437.991 4270.240 5419.860 6418.360 8193.538 6266.962 4946.239 11936.830 5713.376 3481.360 5816.513 1737.067 6419.117 5143.837 5051.823 5481.374 3226.688 6498.252 6495.332 4174.886 7668.578 3934.487 0.000 6880.226 3683.151 10718.623 6073.796 5162.337 5466.185 9415.895 6653.414 8939.182 3836.137 2317.022 8158.193 7411.761 8232.901 7218.663 5865.449 7056.372 2334.080 7495.371 5119.189 4648.692 10104.700 4661.554 8764.032 5648.517 6557.139 4786.320 8454.732 12745.201 7536.762 6328.377 6230.650 7447.192 5430.282 4378.679 10999.229 6518.259 10678.602 3786.250 8063.822 5028.168 2036.514 7080.129 5618.839 5057.419 12287.416 7188.538 6719.651 7676.123 4517.665 11350.098 5734.229 6802.990 8387.692 7013.272 6363.836 5956.332 12292.388 2042.412 7260.085 7625.139 6359.139 4482.089 5441.844 7616.172 7338.726 3211.407 8881.654 7726.885 10526.606 6271.824 8326.316 5936.950 7813.885 11971.146
3254.367 4575.620 6630.063 6621.044 6177.559 3415.847 2286.344 6627.642 5342.527 2232.263 10239.738 2883.688 5012.085 1899.055 7523.028 3853.254 3618.992 8699.185 2111.199 6713.770 8125.251 10962.109 8123.024 1768.732 4809.283 6740.579 0.000 6278.183 3921.785 3602.922 6717.981 2636.498 8018.846 6275.381 2142.345 6943.619 8670.556 11448.976 6096.324 3046.095 9369.930 1726.877 176.146 7119.087 4969.051 2405.213 2266.554 7263.958 7865.028 12397.647 2861.174 8962.963 2530.614 2303.990 11157.617 8587.588 9011.932 3466.901 650.354 6725.983 7369.416 5511.752 5267.726 6305.116 4154.599 6247.409 9399.920 6944.075 3810.459 9527.638 2960.574 10247.474 11155.977 7272.064 2957.822 6096.063 8662.061 4880.200 7048.315 3611.485 5447.376 8297.981 1281.369 10936.491 6412.566 11227.524 828.301 5097.067 9199.529 9108.962 9379.010 5085.562 6043.695 2084.817 1565.538 9265.009 4866.155 2929.734 7232.651 3826.181 10274.054
3067.356 5284.081 9152.999 9143.981 6056.078 5314.966 4608.487 8899.528 2583.811 4362.362 8253.679 4219.444 4036.166 4525.348 3344.600 6512.109 3164.002 2998.100 4560.462 1179.380 3465.679 5261.024 2421.939 6581.499 4102.150 3009.340 5957.229 0.000 9810.122 6261.776 1479.186 3972.253 10290.732 2970.263 8030.681 1060.952 4492.128 6087.118 3728.610 8128.007 4262.630 5186.135 6064.483 4993.808 4000.915 4535.313 4064.815 6891.235 2001.805 7025.515 3668.681 3601.106 3848.114 7367.654 9062.050 9885.523 3372.344 6125.756 6538.691 7779.044 1346.106 10894.336 7495.117 11025.332 3215.640 4380.671 3698.835 2318.588 6975.236 3722.886 3393.798 8604.265 5450.020 8740.910 7571.230 6775.466 12139.666 6676.129 3289.281 6100.153 7719.262 8622.387 5277.017 8609.237 4287.287 5521.568 6672.228 7236.405 3498.444 3304.210 9973.213 3844.270 4921.687 7973.153 7047.571 6843.455 6996.395 6595.547 8285.712 7708.992 8287.995
7157.349 8330.356 7095.002 7085.983 10080.542 7020.861 6189.326 7782.603 9014.368 6135.245 12747.271 6786.671 8915.067 5802.038 11426.010 6967.912 7290.833 12602.168 6014.181 10616.752 11797.093 14865.091 12026.007 4364.897 8712.265 10643.561 4203.103 10181.165 0.000 7207.935 10389.823 6539.480 8458.253 9947.222 2918.356 10846.601 12573.539 15120.817 9306.391 4985.182 13041.772 5629.860 4141.018 11022.069 8179.117 6308.195 6169.537 8951.440 11601.106 16069.488 6555.395 12634.805 6433.596 3704.550 13665.150 10061.824 12683.774 6718.222 3517.055 9143.422 11139.466 4017.247 7692.502 5747.495 8057.581 9012.455 13302.902 10847.057 5879.140 13322.187 6863.556 12755.007 14827.819 8954.856 6127.963 9459.045 8104.441 8402.769 10720.156 5655.571 7252.709 10511.629 5184.351 13444.024 10315.548 14899.366 3424.466 8022.184 13102.511 12903.511 10853.246 8329.834 9946.677 2833.723 4851.342 11929.384 7926.422 5351.550 8972.470 5326.334 12781.587
3693.214 1460.282 3727.865 3718.846 3360.503 1223.203 4140.801 3474.393 6669.543 3376.052 12373.037 4340.476 3070.426 3385.416 5934.051 584.674 4781.199 8571.393 3480.776 6502.786 9018.900 10462.000 7493.469 4794.834 2390.384 5151.601 3755.318 6192.615 6994.688 0.000 7357.505 4093.286 4865.597 7602.397 5180.201 6815.827 6803.712 11948.010 7874.043 3232.892 10200.373 2491.912 3931.464 4299.983 6996.228 3480.720 3410.344 9397.257 7737.235 12702.474 4347.535 9538.849 3624.376 5376.894 13207.482 5224.568 9310.087 766.909 3602.352 3243.988 7283.849 5689.495 2079.542 5140.835 3411.949 8121.840 8961.263 5355.097 1770.394 9399.845 3907.098 12380.773 11126.980 3909.044 2691.524 2614.067 6257.498 1398.204 8099.964 6055.562 2294.127 4815.986 3246.094 12754.670 3593.463 11198.527 3901.204 1820.830 8415.184 8981.169 5927.696 6839.583 3193.673 5076.172 2985.973 10988.888 1580.820 5452.572 3750.655 2504.150 12407.353
3551.068 6279.677 10148.596 10139.577 7168.326 6310.563 4715.050 9895.124 1811.373 4986.635 7481.240 4703.156 5068.722 4637.034 4698.383 7507.705 3647.714 3250.382 5003.172 2300.974 3094.675 5513.306 3068.800 6635.071 5097.746 4363.123 6010.801 1353.783 9863.693 7257.372 0.000 4455.966 11286.328 2197.825 8084.253 1843.065 5845.911 6142.605 2956.172 8531.696 4238.089 5530.538 6118.055 6347.591 3228.477 5159.585 4766.223 6118.796 2138.833 7091.276 3943.317 3656.592 4331.827 7421.226 8289.611 10925.498 3427.831 7121.352 6592.263 8819.018 1677.193 11370.626 8490.713 11751.006 4211.236 3608.233 3951.117 3672.371 7970.832 3859.914 3877.510 7831.827 5571.875 9780.884 7974.918 7815.440 13135.262 7671.726 2546.109 6026.487 8714.858 9734.635 5621.420 7836.799 5641.070 5643.422 6725.799 8232.001 3750.726 3441.238 11199.998 3071.832 6275.469 8026.725 7391.974 6071.017 7991.991 6649.119 9325.686 8631.467 7515.557
908.708 3856.484 7016.142 7007.123 5383.286 2871.440 1448.140 6762.670 3644.136 864.402 9177.342 247.190 3516.020 1204.375 5687.223 4026.671 1226.207 6274.683 1099.152 4289.267 5993.494 8537.607 5698.522 3354.499 3441.824 4904.774 2566.147 3853.681 6404.544 3776.339 4586.224 0.000 8153.874 4576.991 4625.103 4519.117 6834.752 9317.218 4690.734 4427.045 7238.173 1551.370 2742.293 5736.277 3800.533 1037.352 898.694 6201.562 5440.525 10265.889 1274.162 6831.206 686.235 4140.653 10065.612 8365.636 6880.175 3640.319 3133.113 6385.055 4944.914 7265.975 5358.259 7646.355 2658.534 4926.145 6975.418 4907.970 4479.810 7103.136 536.072 9185.078 8830.270 7050.111 3870.267 5603.526 9699.495 4539.272 5074.558 3990.629 5582.404 7552.239 1642.253 9612.800 5029.756 8901.817 3311.060 5099.548 6775.027 6684.459 9017.603 3643.888 5324.559 4567.575 3412.806 7847.018 4859.538 3703.327 6891.723 4526.816 9211.658
8390.082 5588.052 1605.508 1596.490 5899.759 5987.309 8605.943 1881.562 11339.250 7841.194 16838.179 8805.618 7445.687 7850.559 10069.918 4549.811 9295.507 12946.654 7945.918 10878.047 13715.768 14828.184 11868.730 9062.385 6765.645 9526.862 8220.460 10567.876 8081.252 4796.985 11758.766 8558.428 0.000 12272.105 7984.027 11191.088 10649.874 16323.271 12351.571 5893.989 14575.634 6957.054 8238.379 7630.678 11461.370 7945.862 7875.486 13862.399 12112.496 17077.735 8812.678 13914.110 8139.546 9597.644 17726.449 3492.069 13685.348 4805.392 7823.102 4246.011 11659.110 5231.153 3070.788 3464.922 7787.210 12586.983 13336.524 9730.358 4952.177 13775.106 8569.506 16845.915 15502.241 3811.222 5807.731 4815.339 2293.245 4375.921 12796.832 10520.704 2766.593 5175.830 7711.237 17273.637 7668.271 15573.788 8121.954 3400.470 12790.445 13356.430 4283.491 11304.725 6456.341 7879.998 6819.711 15507.855 3889.479 9917.714 3973.194 4256.840 16872.495
3906.061 6955.613 10773.628 10764.610 8179.866 6935.595 4872.620 10520.157 1242.922 5341.627 6027.669 5058.148 6080.262 4804.357 6288.059 8132.738 3936.349 4313.686 5170.495 3776.315 2198.388 5846.500 4283.294 6645.847 6109.285 5952.799 6021.577 2943.459 9874.470 7882.405 1955.607 4810.958 11911.361 0.000 8095.029 3057.560 7435.588 5522.112 1794.257 8699.019 3431.672 5697.861 6128.831 7937.267 2294.300 5514.578 5121.215 4999.333 3274.457 6470.783 4110.640 3036.100 4686.819 7432.002 6836.040 11673.717 3275.815 7746.385 6603.039 9567.237 2891.688 11464.436 9115.746 11918.329 5222.776 2446.317 5014.421 5262.048 8595.865 4454.017 4232.503 6639.738 5419.859 10494.086 8142.241 8563.659 13760.295 8296.758 1037.858 5319.784 9339.891 10512.373 5788.743 6383.227 7230.747 5480.393 6736.576 8857.034 4814.030 4035.340 11977.736 2137.655 7865.146 8037.501 7559.297 4617.445 8617.024 6373.422 10073.905 8798.790 6061.985
5328.107 6180.203 6186.001 6176.983 7971.261 4870.708 4360.085 6622.525 7255.656 4306.003 11691.093 4957.429 6895.711 3972.796 9596.769 5004.930 5532.121 10772.926 4184.940 8787.510 10038.381 13035.850 10196.765 2606.185 6690.524 8814.319 2373.862 8351.923 2852.264 5057.782 8631.111 4710.239 7780.140 8188.511 0.000 9017.360 10744.297 13362.105 7547.679 2765.212 11283.060 3800.618 2361.567 8912.788 6420.406 4478.954 4340.295 8701.655 9842.394 14310.776 4796.683 10876.093 4604.355 2551.389 12608.972 8866.759 10925.062 4755.239 1366.902 7778.722 9380.754 4352.351 5882.053 5256.567 6228.339 7698.764 11473.661 9017.815 3931.768 11563.475 5034.314 11698.829 13069.107 7590.156 3961.149 7550.923 7613.512 6335.060 8961.444 4519.193 5442.259 9146.928 3355.110 12387.846 8206.268 13140.654 1665.754 6172.489 11273.270 11144.799 9658.181 6571.122 7837.397 222.774 2701.189 10716.364 5963.440 3767.186 7607.770 3378.962 11725.409
3941.770 5940.928 9809.847 9800.828 6563.600 5971.814 5423.357 9556.375 3081.968 5019.209 8647.734 5093.858 4543.688 5345.340 3452.973 7168.956 4038.416 2115.693 5434.876 890.447 2828.875 4378.616 1588.803 7343.378 4701.368 3117.713 6719.108 1062.656 10572.000 6918.624 1977.344 4846.667 10947.579 3416.075 8792.559 0.000 4600.501 5450.314 4226.768 8784.855 3625.826 5938.420 6826.361 5438.485 4499.073 5192.160 4721.663 7389.392 1154.441 6242.280 4543.095 2964.302 4722.528 8129.532 9456.104 10393.045 2735.540 6782.603 7300.569 8286.566 709.302 11551.183 8151.964 11682.179 3872.487 4878.828 2816.427 2426.962 7632.083 2939.651 4268.212 9102.422 4666.786 9248.432 8228.077 7282.988 12796.513 7332.977 3256.578 6827.810 8376.109 9129.909 6029.302 9003.292 4474.198 4738.333 7434.106 7893.252 2616.036 2520.975 10480.735 4342.427 5429.209 8735.032 7799.855 7237.510 7653.242 7357.426 8793.234 8365.839 8682.050
6134.879 6247.400 9698.814 9689.795 6076.694 7028.846 7709.704 9445.342 7144.281 6237.583 12814.149 7004.720 5217.858 7107.857 1678.959 8155.615 6435.182 4245.836 6772.719 3994.941 7044.256 4761.028 4055.573 8959.922 5670.986 2331.358 8171.570 4560.470 12009.968 7810.294 6039.656 6757.530 10803.221 7530.733 10230.527 4540.133 0.000 6718.974 8289.080 9841.887 6845.190 7156.794 8347.716 3913.665 8505.043 6410.534 5940.037 11389.691 4936.718 7041.720 6939.861 6253.338 6077.664 9746.077 13622.519 8539.417 6078.413 7839.636 8738.537 6639.237 5113.166 12608.216 8324.713 12331.362 5077.594 8941.141 3876.681 2256.504 8689.116 4355.139 6348.763 13164.735 5466.226 7928.607 9285.110 6324.119 12737.424 7470.728 7571.242 9679.037 8749.771 7370.352 7247.676 13169.707 3848.866 5537.773 8916.483 8165.593 3676.102 4590.825 8560.793 8348.398 5017.861 10172.999 9018.229 11403.925 8008.322 9617.660 7145.905 9422.871 12848.465
8915.228 11377.551 15246.469 15237.451 11841.490 11408.436 9889.578 14992.997 6392.917 10350.794 8295.869 10067.315 9968.105 9811.561 7382.125 12605.579 8943.553 4079.417 10177.700 6314.864 4274.978 2654.986 5024.816 11780.316 10125.786 7895.265 11156.047 6312.216 15008.939 12355.246 6292.585 9820.125 16384.202 6045.084 13229.498 5556.798 7008.389 0.000 6856.864 13706.223 2634.397 10705.065 11263.300 9914.418 7356.907 10523.744 10130.382 9181.082 4618.721 975.313 9117.844 2783.046 9695.986 12547.427 9104.240 14822.258 3684.169 12219.226 11737.508 12715.778 5413.025 16545.154 13588.587 16925.534 9309.110 6691.371 3534.679 7204.513 13068.706 2815.191 9241.670 8983.985 1314.092 14005.147 13149.445 12098.003 18233.136 12769.599 4982.262 10382.391 13812.732 13663.542 10795.948 8651.428 9538.103 1341.244 11871.045 13329.875 4011.398 3276.594 14901.186 7200.262 10707.098 13171.970 12566.501 6885.646 13089.865 11436.029 13222.446 13802.461 8330.185
4670.420 7719.972 11537.988 11528.969 9070.235 7699.955 4941.900 11284.516 1789.631 5972.835 4708.547 5362.278 6970.631 5056.246 7361.997 8670.036 4247.154 5851.978 5422.385 4964.588 3478.760 7282.617 5732.414 6176.922 6999.655 7026.737 5956.380 4017.397 9559.867 8419.704 3029.545 5115.087 12675.720 1588.388 7883.552 4506.680 8509.525 6577.844 0.000 8950.908 4497.820 5949.751 6063.634 8958.181 1543.909 6145.785 5885.574 3679.133 4796.939 7398.133 4362.529 4447.948 5451.179 6790.404 5516.918 12438.076 4755.260 8283.684 6537.842 10331.597 4340.808 11399.239 9880.105 12170.219 6113.145 859.463 6552.713 6335.986 9003.674 5961.712 4996.862 5083.058 6581.480 11258.445 8394.131 9328.018 14271.768 9061.118 2221.619 4625.369 10104.250 11276.732 6040.633 5064.105 8251.660 6620.094 6267.650 9621.393 6352.322 5543.036 12742.096 1578.910 8781.429 7826.024 7521.918 3298.323 9381.384 5679.006 10838.265 9050.680 4742.863
4870.500 4700.011 4612.518 4603.499 6520.290 3390.515 4495.297 5049.041 7228.604 3848.396 12727.532 4724.545 5459.062 3739.912 8929.853 3242.776 5302.709 10173.817 3922.807 8188.402 9972.604 12436.741 9597.657 4083.630 5253.874 8147.404 3271.919 7752.815 5364.450 3577.589 8565.334 4477.355 6211.836 8161.458 4237.261 8418.251 9866.228 13296.328 8240.924 0.000 11217.283 2846.408 3259.624 7461.817 7350.723 3953.064 3882.688 9751.752 9339.660 14245.000 4702.031 10810.316 4146.747 4618.888 13615.802 7293.276 10859.285 2993.086 2844.347 6205.239 8844.048 4172.287 4308.569 4552.667 5341.769 8476.336 10874.552 8350.900 2358.285 11002.270 4576.707 12735.268 12729.405 6016.672 2050.268 6043.008 6654.216 4677.633 8934.391 5996.638 3868.775 7573.445 3600.590 13162.990 6755.296 12800.952 3143.199 4410.335 10674.161 10583.594 8084.698 7194.078 6386.425 4133.232 1840.956 11397.208 4201.287 5244.632 6034.286 1805.479 12761.848
6583.120 9632.672 13450.688 13441.669 10265.746 9612.655 7555.826 13197.216 3926.128 8018.686 7331.383 7735.208 8245.833 7479.454 6966.984 10809.797 6611.446 3386.905 7845.592 4592.592 1808.188 3788.687 3519.930 9329.053 8403.513 6819.859 8704.783 4517.505 12557.676 10559.465 4101.184 7488.018 14588.420 3578.295 10778.235 3762.086 7051.874 2860.289 4469.211 11374.116 0.000 8372.958 8812.037 9140.630 4969.255 8191.637 7798.274 7253.361 2877.317 3680.578 6785.737 988.335 7363.879 10115.208 8139.753 14095.191 1889.458 10423.445 9286.245 11988.711 3575.204 14147.642 11792.805 14593.426 7574.633 4661.495 3583.330 6129.107 11272.924 2895.546 6909.562 8019.498 2859.171 12950.578 10817.338 10985.133 16437.355 10973.818 2515.473 7994.739 12016.950 12832.055 8463.840 7686.941 8176.343 2897.784 9419.782 11534.094 3550.767 2677.234 14182.880 4812.610 9131.354 10720.707 10234.394 5921.159 11294.084 9048.376 12495.379 11473.887 7365.699
2219.567 3148.074 5863.476 5854.458 4750.013 2102.663 1648.889 5610.005 4382.196 1197.463 9881.125 1878.137 3586.924 893.504 6453.918 2720.286 2619.937 7664.386 1076.400 5678.970 7126.197 9927.309 7088.225 2659.325 3381.736 5671.468 1720.595 5243.383 5558.992 2469.953 5718.926 1630.947 7001.209 5315.050 3758.466 5908.820 7601.446 10449.921 5394.517 3001.158 8370.875 0.000 1896.741 5691.540 4504.316 1370.413 1231.755 6905.345 6830.228 11398.592 1855.623 7963.909 1495.814 3445.480 10769.395 7454.620 8012.878 2333.933 2180.617 5593.015 6334.617 5840.088 4222.810 6220.468 3085.488 5629.928 8365.120 5874.964 3053.923 8492.838 1925.774 9888.861 10156.922 6139.095 2444.380 4950.124 8322.017 3747.232 6087.984 3920.054 4429.739 6918.966 754.182 10316.583 4985.019 10228.470 2465.508 3964.098 8164.729 8074.162 8246.042 4347.671 4616.148 3654.437 2129.705 8550.801 3733.187 3317.063 6099.683 3100.929 9915.441
3634.026 4955.280 6611.279 6602.260 6557.219 3697.377 2666.004 6870.599 5722.186 2611.922 10619.398 3263.348 5391.745 2278.715 7902.688 4134.783 3998.651 9078.845 2490.859 7093.429 8504.911 11341.769 8502.684 1592.586 5188.943 7120.238 679.781 6657.843 3745.639 3884.451 7097.641 3016.158 8210.597 6655.041 1966.198 7323.279 9050.216 11828.635 6475.984 2924.232 9749.590 2106.537 0.000 7498.746 5348.711 2784.873 2646.214 7643.618 8244.688 12777.306 3240.834 9342.623 2910.274 2127.844 11537.277 8867.175 9391.592 3748.430 474.208 7007.512 7749.076 5335.605 5510.683 6128.970 4534.258 6627.069 9779.580 7323.734 4053.416 9907.298 3340.234 10627.134 11535.637 7551.651 3200.779 6377.592 8485.915 5161.729 7427.974 3505.594 5690.333 8579.511 1661.029 11316.151 6792.226 11607.184 652.155 5376.653 9579.189 9488.621 9658.597 5465.222 6423.355 1908.670 1808.495 9644.669 5147.685 2753.587 7514.180 3804.239 10653.714
5138.866 3437.824 6787.354 6778.336 2574.325 4403.022 6713.690 6533.882 7495.509 5229.947 13258.026 6008.706 2752.569 6100.221 3048.151 5346.040 6134.901 6232.643 5765.082 4859.644 8065.350 7676.152 5644.187 7952.285 3205.697 3465.973 7163.933 5004.347 10908.293 5000.719 6483.534 5761.516 7749.189 7974.611 9093.805 5403.235 3490.293 9339.013 8732.958 7216.063 8687.964 5757.599 7340.080 0.000 8686.678 5402.897 4932.400 11173.849 6294.509 9944.852 6368.424 8026.440 5070.028 8738.440 14066.397 5691.685 7797.679 5167.642 7515.957 3585.205 5945.777 9936.222 4910.194 9289.148 3285.619 9385.018 6208.988 3669.469 6017.122 6799.659 5352.750 13608.613 8369.358 4874.575 6659.286 2821.749 9683.392 4644.199 8293.629 9213.014 5431.003 4532.969 6240.039 13613.585 1347.194 8440.905 7814.809 4805.665 5662.909 6622.664 5771.095 8530.033 1885.260 8989.776 6953.735 11847.803 5052.951 8610.024 4091.873 6750.877 13292.342
4232.215 7402.327 10682.391 10673.372 8790.134 6672.012 3811.064 10428.919 2178.065 4841.999 5794.776 4231.442 6768.983 3925.410 7692.762 7539.200 3149.736 6686.409 4291.549 5527.542 4654.880 8436.093 6510.335 4777.957 6798.007 7128.975 4825.544 4540.244 8264.028 7288.868 3807.466 3984.251 11820.124 2639.689 6484.587 5284.601 8840.290 8081.038 1797.278 7609.074 5846.320 4818.915 4932.798 8756.533 0.000 5014.949 4876.291 3196.544 5574.860 8901.327 3231.693 5625.694 4495.503 5391.439 6712.655 12120.431 5865.408 7152.847 5159.051 10013.952 5118.729 10020.448 9041.725 10813.813 5911.497 1737.805 7387.143 6666.750 7872.838 6869.773 4003.363 5802.512 8009.453 10850.684 7263.295 9010.373 13140.932 8339.844 3397.739 3226.404 9248.653 10959.087 4909.797 6491.529 8050.012 8069.986 4868.685 8783.013 7186.752 6451.097 12424.450 879.086 8579.781 6427.059 6391.082 4875.853 8552.102 4280.041 10520.619 7919.844 5829.092
1205.787 3524.752 6684.409 6675.391 4961.163 2539.708 2061.907 6430.938 4154.288 532.669 9791.109 1356.923 3117.727 1402.943 5628.670 3845.192 1839.974 6672.452 1067.805 4687.037 6503.645 8935.376 6096.292 3255.008 3010.841 4846.221 2466.656 4251.450 6305.053 3594.859 5026.400 1109.733 7822.142 5087.142 4525.613 4916.886 6776.198 9827.370 5304.501 4327.554 7748.324 1451.880 2642.802 5337.984 4414.300 0.000 6.303 6815.329 5838.295 10776.041 1887.929 7341.357 394.971 4041.163 10679.379 8033.903 7368.922 3458.839 3033.623 6053.322 5342.683 7166.484 5026.527 7546.864 2260.241 5539.912 7373.187 5049.716 4308.319 7500.905 933.841 9798.845 9228.040 6718.379 3770.776 5181.403 9518.015 4207.539 5584.709 4515.737 5250.672 7130.117 1542.762 10226.566 4631.463 9299.587 3211.569 4767.815 7172.796 7082.229 8595.480 4257.654 4914.591 4468.085 3313.315 8460.784 4527.805 3912.746 6559.990 4427.326 9825.425
1199.484 3518.449 6678.107 6669.088 4954.861 2533.405 2055.604 6424.635 4147.985 526.367 9784.806 1350.620 3111.424 1396.641 5622.368 3838.890 1833.671 6666.150 1061.502 4680.734 6497.343 8929.073 6089.989 3248.706 3004.538 4839.918 2460.353 4245.147 6298.751 3588.557 5020.098 1103.430 7815.839 5080.840 4519.310 4910.584 6769.896 9821.067 5298.198 4321.251 7742.022 1445.577 2636.500 5331.681 4407.997 699.317 0.000 6809.026 5831.992 10769.738 1881.626 7335.055 388.669 4034.860 10673.076 8027.600 7362.619 3452.537 3027.320 6047.020 5336.381 7160.182 5020.224 7540.562 2253.938 5533.610 7366.884 5043.414 4302.016 7494.602 927.538 9792.542 9221.737 6712.076 3764.474 5175.100 9511.713 4201.237 5578.407 4509.434 5244.369 7123.814 1536.460 10220.264 4625.160 9293.284 3205.267 4761.512 7166.493 7075.926 8589.177 4251.352 4908.289 4461.782 3307.013 8454.482 4521.502 3906.444 6553.688 4421.023 9819.122
6889.509 10059.621 13339.685 13330.666 11447.428 9329.306 6381.437 13086.213 4887.106 7499.293 5166.057 6888.736 9426.277 6582.704 10350.056 10196.494 5807.031 9032.854 6948.843 8145.464 6703.256 10565.668 8913.290 6527.597 9455.301 9786.269 7057.176 7197.538 8757.551 9946.162 6210.421 6641.545 14477.418 4769.263 7782.301 7687.556 11497.584 9466.117 3587.228 9761.112 7704.249 7476.209 7164.429 11413.827 3538.211 7672.243 7533.585 0.000 7977.815 10286.406 5888.987 7755.268 7152.797 6477.875 6083.936 14777.725 7994.983 9810.142 7311.088 12671.246 7521.684 11954.352 11699.019 12756.479 8568.791 3152.357 9733.589 9324.044 10524.644 9173.185 6660.657 5173.793 9595.212 13507.978 9915.100 11667.667 15113.424 10997.138 5446.115 4475.236 11905.948 13616.381 7457.213 5862.810 10707.306 9633.825 7020.723 11440.307 9533.198 8754.509 15081.744 3573.212 11237.075 7724.773 8622.714 4469.037 11209.396 5328.811 13177.913 10571.650 5200.373
4831.429 7054.469 10923.388 10914.369 7664.937 7085.355 6212.667 10669.916 3715.500 6136.904 8530.888 5983.517 5645.024 6134.650 4494.286 8282.497 4928.075 1175.678 6324.535 1991.783 2107.538 3438.601 1091.808 8132.687 5802.704 4219.050 7508.418 1995.537 11361.310 8032.165 2615.773 5736.327 12061.120 3588.735 9581.869 1240.119 4701.429 4331.403 4632.135 9898.396 2634.782 6950.208 7615.671 6539.821 5131.688 6309.854 5839.357 7837.212 0.000 5087.838 5432.755 1973.258 5612.188 8918.842 9339.259 11494.382 1744.496 7896.144 8089.879 9387.902 1187.130 12664.724 9265.505 12795.720 4986.028 5284.196 1876.412 3528.298 8745.624 1785.209 5157.871 9219.004 3512.344 10349.768 9341.618 8384.324 13910.054 8446.518 3429.238 7528.055 9489.650 10231.246 7041.091 8886.447 5575.534 3583.891 8223.416 9006.793 1676.021 1366.533 11582.071 4975.043 6530.545 9524.341 8811.644 7120.665 8766.783 8146.735 9894.570 9479.380 8565.204
10285.602 12489.582 16358.500 16349.481 12953.521 12520.467 11259.952 16105.028 7838.959 11572.017 9756.782 11437.690 11080.136 11181.935 8535.753 13717.610 10313.927 5191.448 11548.074 7426.895 5698.814 3334.715 6136.847 13150.691 11237.817 9007.296 12526.421 7677.797 16379.313 13467.277 7658.166 11190.499 17496.233 7508.956 14599.873 6922.379 8163.124 2184.587 8471.038 15076.598 4185.881 12075.440 12633.674 11068.045 8971.081 11744.967 11274.470 10795.256 5810.402 0.000 10488.218 4153.421 11066.360 13936.845 10299.118 15909.304 5049.750 13331.257 13107.883 13869.406 6778.606 17915.528 14700.618 18230.833 10421.141 8305.545 4646.710 8316.544 14180.737 4006.872 10612.044 10360.587 2383.150 15158.775 14519.820 13251.630 19345.167 13881.630 6533.746 11996.565 14924.763 14740.238 12166.322 9846.306 10650.134 2255.822 13241.419 14441.906 5123.429 4468.275 15930.679 8814.436 11819.129 14542.345 13936.875 8381.769 14201.896 13050.203 14376.073 14914.492 9791.098
1936.281 4968.079 7683.482 7674.463 6494.200 3922.669 1004.518 7430.010 2828.330 2248.844 8327.259 1645.917 4543.593 926.501 6221.719 4540.291 982.884 6404.706 1389.722 4469.439 5489.144 8667.629 5878.694 3030.782 4543.877 5520.767 2406.512 3926.447 6259.405 4289.959 4081.873 1398.727 8821.214 3761.184 4479.964 4699.288 7369.247 8812.868 3840.651 4821.163 6733.822 1820.005 2513.766 6763.850 2950.450 2421.794 2283.136 5351.479 5293.156 9761.539 0.000 6326.856 1975.763 3816.937 9215.529 9274.625 6375.825 4153.938 2987.974 7413.020 4831.517 7660.093 6042.815 8040.474 3686.107 4076.062 7105.440 5186.433 4873.929 7014.237 1485.628 8334.995 8519.869 7959.101 4264.385 6714.439 10142.023 5567.237 4534.118 3134.273 6249.744 8663.153 1910.888 8762.717 6057.329 8591.417 3121.511 5784.104 6905.049 6595.561 10066.047 2793.805 6354.391 4422.436 3681.441 6996.935 5553.192 3044.830 7919.688 4920.935 8361.575
6132.181 8654.738 12523.657 12514.638 9277.411 8685.624 7106.531 12270.185 3685.538 7567.747 7887.585 7284.269 7257.498 7028.515 6113.000 9882.767 6160.507 2398.570 7394.653 3604.257 1545.393 3015.879 2531.595 8997.270 7415.178 5831.524 8373.000 3529.169 12225.892 9632.434 3509.539 7037.079 13661.390 3355.535 10446.452 2773.751 6263.903 2486.012 4398.936 10923.177 1197.188 7922.019 8480.254 8152.295 4898.488 7740.698 7347.335 7604.012 1888.981 3434.683 6334.798 0.000 6912.940 9783.425 8695.955 13106.856 901.123 9496.414 8954.462 11000.376 2629.979 13762.107 10865.774 14142.487 6586.298 5050.996 2795.359 5140.772 10345.893 2107.575 6458.623 8575.700 2405.679 11962.242 10366.399 9996.798 15510.324 10046.787 2963.251 7923.972 11089.919 11843.720 8012.901 8243.143 7188.008 2444.293 9087.999 10607.063 2762.795 1688.899 13194.545 4741.843 8143.019 10388.924 9783.455 6477.361 10367.053 8977.610 11507.044 11022.948 7921.901
837.876 3445.123 6827.704 6818.685 4832.930 2683.002 1722.501 6574.232 3764.530 675.964 9451.702 1017.517 2989.493 1478.735 5500.436 3988.487 1500.568 6282.694 1211.100 4297.279 6113.887 8545.618 5706.533 3398.303 2882.607 4717.987 2609.951 3861.692 6448.348 3738.154 4636.642 770.327 7965.437 4697.384 4668.908 4527.128 6647.965 9437.612 4965.094 4470.849 7358.566 1595.175 2786.097 5209.750 4074.893 848.914 710.256 6475.923 5448.537 10386.283 1548.523 6951.599 0.000 4184.458 10302.470 8163.227 6979.164 3602.134 3176.918 6056.748 4952.925 7309.779 5169.822 7690.159 2132.007 5200.506 6983.429 4837.138 4451.614 7111.147 544.083 9459.438 8838.282 6861.674 3914.071 5053.169 9661.310 4350.834 5194.951 4264.990 5393.967 7001.883 1686.057 9849.657 4503.229 8909.829 3354.864 4911.110 6783.038 6692.471 8467.246 3918.248 4786.358 4611.380 3456.610 8083.875 4671.100 3977.687 6563.415 4570.620 9486.018
5434.117 6680.415 8004.184 7995.165 8430.600 5370.919 4118.218 8263.504 6880.758 4485.303 10856.023 4874.948 7265.125 4007.134 9776.069 5602.000 5157.223 10579.045 4364.240 8643.778 9663.482 12841.968 10053.033 1970.204 7062.323 8993.619 2553.162 8100.786 3574.755 5557.993 8256.212 4627.758 9603.502 7813.612 2127.041 8873.627 10923.597 12987.207 7172.781 4317.137 10908.161 3979.918 2129.664 9372.127 6045.507 4658.253 4519.595 7276.742 9467.495 13935.878 4421.785 10501.194 4783.654 0.000 11773.902 10260.080 10550.164 5352.309 1867.113 8681.055 9005.856 6299.092 6903.588 7101.219 6407.639 7022.672 11279.779 9197.115 5446.321 11188.576 5061.481 10863.759 12694.208 8944.556 4593.684 8051.134 9458.165 6835.272 8586.546 3665.789 7083.238 10253.053 3534.410 11552.776 8665.606 12765.755 1650.487 6769.558 11079.388 10769.900 11051.502 6196.224 8296.735 2069.513 3201.400 10033.327 6560.510 3185.994 8962.170 5197.144 10890.339
9722.568 12772.120 16590.136 16581.117 14122.383 12752.103 9994.398 16336.664 6841.779 11025.333 2085.181 10414.776 12022.779 10108.745 12414.145 13722.535 9299.653 10046.485 10474.883 10016.736 7556.214 11076.541 10064.708 11266.013 12051.803 12078.885 11008.878 9069.545 14106.610 13472.202 8081.693 10167.586 17727.868 6640.536 12944.369 9379.791 13561.673 9064.365 6039.521 14003.407 7945.571 11002.249 11116.132 14010.329 6633.469 11198.284 10937.722 6261.980 9007.256 9807.947 9415.028 8445.111 10503.327 11639.942 0.000 17490.224 8752.422 13336.182 11590.340 15383.745 9213.919 16451.737 14932.253 17222.717 11165.293 5640.485 10646.658 11388.134 14056.172 9958.874 10049.010 1579.186 9735.646 16310.593 13446.629 14380.166 19324.266 14113.266 6692.567 9637.304 15156.398 16328.880 11093.131 559.088 13303.808 9762.798 11356.742 14673.541 10546.829 9540.198 17794.244 6668.470 13833.577 12886.841 12574.417 3042.857 14433.532 10490.879 15890.413 14103.178 1975.411
7901.608 5099.578 3809.670 3800.651 4311.845 6027.689 8731.407 3499.567 10877.937 7966.658 16607.506 8771.449 6957.213 7976.022 8339.272 4748.621 8989.593 11481.602 8071.382 10055.115 13036.304 12925.111 10935.309 9385.439 6277.171 8661.444 8345.924 9975.301 9935.872 4884.736 11270.292 8524.258 3496.784 11810.791 9397.862 10374.188 8739.251 14587.972 12082.437 6981.503 13833.254 7082.518 8522.070 5720.187 11586.834 8071.326 7656.739 13987.863 11295.597 15193.811 8938.141 13171.730 7832.770 9932.219 17415.877 0.000 12942.969 4930.855 8157.678 2176.475 10916.730 7630.087 3274.288 6451.239 7298.735 12712.446 11457.947 8864.940 5674.023 12048.618 8115.492 16958.092 13618.317 2196.226 6645.583 3583.287 5738.238 4162.634 12308.358 10646.168 3437.413 1871.180 7836.700 16963.064 6475.444 13689.864 8456.530 3428.907 10911.868 11871.623 791.422 11430.188 5336.472 9293.833 7154.286 15197.282 3676.192 10043.178 1867.655 5344.354 16641.822
6357.949 8531.534 12400.452 12391.434 9142.001 8562.419 7383.403 12146.981 4220.555 7613.969 8569.512 7510.037 7122.089 7305.386 5360.713 9759.562 6431.089 1891.840 7671.524 3468.848 2158.111 3001.819 2178.799 9303.423 7279.769 5654.129 8679.153 3522.057 12532.045 9509.229 3539.756 7262.847 13538.185 3890.552 10752.605 2766.639 5445.603 3733.080 4933.953 11200.048 1908.591 8198.890 8786.407 7832.646 5433.506 7786.919 7316.422 8139.029 1712.584 4591.904 6611.669 1247.067 7138.708 10089.578 9377.882 12800.845 0.000 9373.209 9260.615 10694.366 2622.866 14038.978 10742.570 14272.785 6463.093 5586.014 1977.059 4963.377 10222.689 1289.275 6684.391 9257.627 3016.410 11826.833 10643.270 9861.389 15387.119 9923.582 3575.969 8458.990 10966.715 11642.130 8289.772 8925.070 7052.599 3087.957 9394.152 10483.858 1944.496 870.599 12880.256 5276.861 8007.609 10695.077 10060.326 7159.288 10243.848 9317.471 11201.034 10956.444 8603.828
3941.181 2114.621 3935.707 3926.689 4014.843 1343.562 3962.196 3917.390 6695.503 3197.447 12194.431 4161.871 3724.766 3206.811 6588.390 1242.532 4651.760 8869.870 3302.171 6884.454 9266.867 11116.339 8147.809 4530.629 3044.723 5805.941 3491.252 6448.867 6556.441 992.200 7605.472 3914.681 5308.595 7628.357 4869.195 7114.304 7458.052 12246.487 7707.823 2572.076 10456.625 2313.307 3667.398 4954.323 6817.622 3302.115 3231.739 9218.651 8035.712 13000.951 4168.930 9795.101 3495.798 5065.887 13082.701 5913.967 9566.339 0.000 3291.346 4115.261 7540.101 5019.307 2557.475 5264.484 3768.883 7943.235 9570.605 6009.436 1100.207 9698.323 3925.758 12202.167 11425.457 4598.442 2071.766 3485.341 6444.881 2269.478 8347.931 5820.561 2737.125 5687.259 3067.489 12629.889 4247.802 11497.004 3590.198 2423.445 9069.523 9279.646 6705.389 6660.977 3848.013 4765.166 2414.748 10864.107 2214.397 5217.571 4616.057 1833.963 12228.747
4037.412 4889.508 6151.379 6142.361 6680.566 3580.012 3069.389 6472.597 5964.961 3015.308 10400.397 3666.733 5605.016 2682.100 8306.073 3811.093 4241.426 9482.230 2894.244 7496.815 8747.685 11745.154 8906.069 1315.489 5399.828 7523.624 1083.166 7061.228 3468.542 3767.086 7340.415 3419.543 7750.697 6897.815 1689.102 7726.664 9453.601 12071.410 6256.983 2464.332 9992.364 2509.922 1070.871 7622.093 5129.710 3188.258 3049.599 7410.959 8551.698 13020.081 3505.988 9585.397 3313.659 1850.748 11318.276 8469.173 9634.366 3561.402 0.000 6890.148 8090.058 4861.397 5112.681 5654.762 4937.644 6408.068 10182.965 7727.120 3655.414 10272.779 3743.619 10408.133 11778.411 7153.649 2802.777 6260.227 8011.707 5044.365 7670.749 3228.497 5292.331 8462.146 2064.414 11097.150 6915.572 11849.958 375.058 4978.651 9982.574 9854.103 9260.595 5280.426 6546.701 1631.574 1410.493 9425.668 4769.603 2476.491 7171.263 3344.340 10434.713
6245.635 3201.981 3344.398 3335.380 2399.095 4371.716 7375.182 3090.926 9221.964 6336.716 14951.533 7115.476 5011.359 6619.798 6245.613 3779.664 7333.620 9387.943 6715.157 7961.456 11006.326 10831.452 8841.649 8086.288 4343.878 6567.785 7147.557 7945.323 9067.762 3796.588 9337.000 6868.285 4306.233 10154.818 8428.906 8344.210 6645.592 12494.313 10426.464 6012.546 11803.276 5726.293 7323.704 3626.528 9933.424 6509.666 6000.766 12334.453 9265.619 13100.152 7529.027 11141.752 6176.797 8872.442 15759.904 2248.729 10912.991 3961.899 7188.721 0.000 8886.752 7112.499 2305.332 5929.789 5365.443 11059.037 9364.288 6771.281 4705.067 9954.959 6459.519 15302.119 11524.657 1431.619 5676.626 1545.441 6240.436 3193.678 10555.637 9347.016 2468.456 1714.248 6480.475 15307.091 4381.785 11596.204 7487.573 2459.950 8818.209 9777.964 2825.958 9776.779 3318.439 8324.877 6185.330 13541.309 2707.236 8744.026 648.917 4375.397 14985.849
4262.226 6749.874 10618.793 10609.774 7372.546 6780.760 5445.900 10365.321 2819.296 5697.792 8273.880 5414.313 5352.634 5367.883 4261.919 7977.902 4358.872 2022.714 5734.022 1699.393 2244.372 4285.638 1968.617 7365.920 5510.314 3926.659 6741.650 1609.190 10594.543 7727.570 1714.671 5167.123 11756.525 3042.222 8815.102 868.887 5363.338 4996.479 3964.095 9262.545 3171.990 6261.388 6848.904 6247.431 4236.400 5870.742 5477.380 7126.720 911.165 5934.875 4674.166 2510.466 5042.984 8152.075 9082.251 11201.991 2281.705 7591.549 7323.112 9095.512 0.000 12101.476 8960.910 12481.856 4681.433 4616.156 2723.449 3235.908 8441.029 2632.246 4588.668 8839.750 4359.381 10057.378 8705.768 8091.934 13605.460 8141.923 2882.725 6761.288 9185.055 9938.855 6352.270 8629.439 5283.144 4430.928 7456.649 8702.198 2523.058 2213.570 11289.681 4079.755 6238.155 8757.574 8122.823 6863.657 8462.188 7379.968 9602.180 9174.785 8308.196
7466.185 6994.306 4572.426 4563.408 8360.427 6223.247 7019.841 5260.028 9753.148 6444.081 15211.569 7249.089 8407.164 6264.456 11468.075 5334.485 7898.394 12769.502 6447.351 10784.087 12497.148 15032.426 12193.342 6126.661 7924.408 10685.625 5591.496 10348.500 4200.037 5847.969 11089.878 7001.899 5014.670 10686.002 4639.955 11013.936 12337.736 15820.872 10765.468 3725.445 13741.827 5370.952 5579.202 9834.008 9875.267 6548.749 6478.373 12222.131 11935.345 16769.544 7226.575 13334.860 6742.432 6504.240 16129.448 7695.535 13383.829 5084.794 4887.378 6960.385 11439.733 0.000 5509.464 2303.913 8157.109 11000.880 13470.237 10889.121 4245.713 13597.955 7172.392 15219.305 15325.090 6770.955 4692.450 7276.007 4660.858 6248.446 11458.935 8039.669 5069.671 8220.153 6125.134 15687.534 9127.487 15396.637 5186.230 5839.147 13269.846 13179.279 8486.957 9718.622 8727.697 4535.926 4365.500 13921.752 5762.004 7287.663 6789.432 3692.907 15245.885
5471.922 2669.892 2081.392 2072.373 2850.963 3250.437 5873.906 1827.920 8448.251 5109.157 14106.142 6073.581 4527.527 5118.521 7021.122 1886.800 6559.907 10028.494 5213.881 7959.887 10797.608 11779.388 8950.570 6399.374 3847.485 6608.702 5488.423 7649.716 7530.348 2027.235 8840.606 5826.391 3056.484 9381.105 6637.570 8272.928 7601.078 13405.111 9619.534 4148.306 11657.474 4225.017 5575.368 4581.882 8729.333 5213.825 5143.449 11130.362 9194.336 14048.088 6080.640 10995.950 5403.084 6934.632 14986.191 3520.881 10767.188 2073.354 5160.091 2139.736 8740.950 5681.530 0.000 4535.265 4869.050 9854.945 10312.224 6812.198 2558.165 10856.946 5685.806 14113.878 12472.593 2219.682 3647.996 1766.543 4990.687 1305.133 9878.672 7788.667 677.120 3711.734 4979.199 14533.378 4619.475 12544.141 5458.943 329.682 9766.145 10438.270 4312.303 8572.687 3407.546 6533.541 4156.699 12767.597 818.691 7185.677 2237.296 2584.061 14140.458
7805.279 6514.482 3392.478 3383.460 7637.149 5743.423 7547.924 4080.080 10281.231 6783.175 15780.159 7747.599 8124.627 6792.539 10988.251 4854.662 8237.488 13108.596 6887.899 11123.180 13004.775 15371.520 12532.435 6903.227 7444.585 10205.802 6368.062 10687.594 5567.826 5368.146 11597.505 7500.408 3393.879 11214.085 5531.200 11353.030 11857.913 16328.499 11293.551 4412.127 14249.454 5899.035 6355.767 9354.184 10403.350 6887.843 6817.466 12804.379 12274.438 17239.677 7754.658 13842.487 7081.526 7395.485 16668.429 6549.994 13805.065 4604.971 5663.944 6169.339 11778.827 2200.659 4786.186 0.000 8168.744 11528.963 13809.331 10409.298 3593.501 13937.049 7511.486 15787.895 15664.183 5885.279 4325.868 6552.729 3064.965 5525.168 11987.018 8816.235 4346.392 7334.477 6653.217 16215.617 8647.663 15735.730 5962.796 5115.868 13469.385 13518.372 7341.416 10246.705 8193.732 5427.171 5142.065 14449.835 5038.726 8064.228 5998.387 3040.695 15814.475
2171.211 2396.267 6265.186 6256.167 3284.917 2427.153 3746.036 6011.714 4740.465 2262.292 10521.170 3041.052 1185.313 3132.566 4236.447 3624.296 3161.285 5782.550 2797.427 3797.135 6572.354 8045.474 5088.850 4984.631 1214.336 3453.997 4196.278 3361.548 8034.676 3373.963 4552.438 2793.861 7402.919 5497.087 6255.235 4026.984 5328.080 9159.167 5996.101 5240.194 7369.305 3181.502 4372.425 3405.569 5799.204 2435.242 1964.745 8200.233 4948.393 9913.632 3394.808 6707.781 2102.373 5770.785 11329.540 7042.088 6479.019 3237.943 4763.245 4935.609 4452.781 8006.522 4607.303 8137.519 0.000 6648.162 6483.285 3657.493 4087.422 6611.003 2385.095 10871.756 8338.138 5897.475 4683.416 3932.030 9251.853 3788.316 5896.999 6245.359 4831.448 5851.226 3272.385 10876.728 2699.049 8409.685 4941.192 4348.592 6166.115 6192.327 7316.589 5642.559 2996.111 6197.707 4977.865 9110.946 4108.582 5642.369 5442.276 4821.178 10555.486
5085.904 8135.456 11680.793 11671.774 9485.719 7670.414 4809.466 11427.321 2294.995 5840.400 4764.067 5229.843 7386.115 4923.812 7867.361 8537.602 4148.138 6357.342 5289.950 5469.952 4027.744 7890.156 6237.778 5784.914 7415.139 7532.101 5823.946 4522.761 8899.082 8287.269 3534.909 4982.653 12818.525 2093.752 7491.544 5012.044 9014.889 7014.078 911.716 8616.031 5212.921 5817.316 5931.199 9373.665 1274.893 6013.351 5874.692 2870.026 5302.303 7834.366 4230.095 5079.756 5493.905 6205.570 5572.438 12853.561 5319.471 8151.249 6166.008 10747.081 4846.172 11027.405 10040.126 11820.770 6528.629 0.000 7058.077 6841.350 8871.239 6497.673 5001.764 4773.243 7103.883 11673.929 8261.696 9743.503 14139.333 9338.246 2770.603 4202.932 10247.055 11692.216 5908.199 5119.626 8667.144 7142.496 5875.643 9781.414 6857.686 6078.997 13157.580 1309.894 9196.914 7434.016 7389.484 3353.844 9550.503 5056.507 11253.749 8918.246 4798.383
6876.912 8276.199 12212.308 12203.289 8463.803 8666.313 8298.334 11958.836 5794.228 7717.862 10204.805 8029.000 7225.982 8220.317 3995.351 9863.456 7013.742 1337.294 8252.998 3572.741 3793.405 1562.189 2269.037 10218.354 7383.663 4541.064 9594.084 4081.203 13446.976 9613.123 4745.227 7781.809 13350.040 5464.225 11667.536 3325.785 3622.722 3478.892 6507.626 11479.354 3429.588 8637.073 9701.338 6527.643 7007.178 7890.813 7420.316 9712.702 2492.631 3830.889 7518.421 2837.736 7557.944 11004.509 11013.176 11435.483 2653.599 9477.103 10175.546 9329.003 3272.796 14245.682 10535.844 14376.679 6566.987 7159.686 0.000 3850.312 10326.582 807.146 7203.354 10892.921 2255.394 10618.373 10922.576 8711.228 15198.975 9499.528 5211.263 9613.722 10778.570 10276.767 8727.955 10560.364 6183.903 2326.942 10309.083 10277.132 1269.275 1166.011 11514.893 6850.533 7352.898 11610.008 10498.508 8794.582 10037.122 10232.402 9835.671 11060.338 10239.121
4195.528 4497.286 8433.395 8424.376 4708.376 5278.733 5864.770 8179.923 5139.614 4483.191 10809.481 5250.328 3467.745 5353.465 1103.806 6405.502 4420.285 3581.833 5018.327 1990.274 5261.838 5449.761 2481.231 7205.530 3920.872 699.858 6417.178 2555.803 10255.576 6060.181 4034.989 5003.138 9571.127 5526.066 8476.135 2599.722 2251.334 7010.530 6284.413 8091.774 5525.008 5402.402 6593.324 3033.938 6500.376 4656.142 4185.644 9381.148 3362.376 7718.461 4924.964 4863.484 4323.272 7991.685 11617.852 8236.620 4634.722 6089.522 6984.145 6130.140 3142.264 10858.102 6756.931 10664.987 3323.202 6936.473 3949.024 0.000 6939.002 4462.366 4521.970 11160.068 6142.967 7393.208 7534.996 5217.523 11420.061 5720.615 5566.575 7664.139 6999.657 7063.694 5493.284 11165.040 2404.989 6214.514 7162.091 6498.219 3402.945 4043.690 8316.030 6343.731 3573.985 8418.607 7263.837 9399.258 6258.209 7863.268 6636.808 7672.758 10843.797
4795.797 2969.238 3512.016 3502.997 4869.459 2198.179 4706.361 3948.539 7439.668 3941.612 12938.596 4906.036 4579.383 3950.976 7443.007 1309.417 5395.925 9724.487 4046.336 7739.071 10121.483 11970.956 9002.425 4837.861 3899.340 6660.557 4026.150 7303.484 5513.878 1822.901 8460.089 4658.845 5111.334 8372.522 4621.100 7968.921 8312.669 13101.104 8451.988 2099.956 11311.242 3057.472 4013.855 5808.940 7561.787 4046.280 3975.903 9962.816 8890.329 13855.568 4913.095 10649.718 4239.963 5373.119 13826.866 5967.497 10420.956 1059.726 3598.578 4482.841 8394.718 3939.460 2611.005 4184.637 4623.500 8687.400 10425.221 6864.053 0.000 10552.939 4669.923 12946.332 12280.074 4651.973 2013.697 4109.648 5920.320 2744.274 9145.455 6545.524 2768.273 6054.839 3811.654 13374.054 5102.419 12351.621 3897.430 2476.976 9924.140 10134.263 6758.919 7405.142 4702.630 4517.071 2595.186 11608.272 2267.927 5942.534 4669.588 754.115 12972.912
6634.959 8562.359 12431.278 12422.259 9026.299 8593.245 8016.197 12177.806 5089.620 7644.794 9500.197 7787.047 7152.914 7938.180 4580.443 9790.387 6731.605 1264.225 8128.065 3499.673 3088.797 1712.543 2209.624 9936.217 7310.594 5080.073 9311.947 3799.067 13164.840 9540.055 4112.783 7539.856 13569.010 4759.617 11385.399 3043.649 4206.707 2774.284 5803.017 11406.286 2724.980 8564.005 9419.201 7112.736 6302.570 7817.745 7347.247 9008.094 1803.530 3302.629 7236.284 2133.128 7415.717 10722.372 10308.568 12020.575 1948.991 9404.034 9893.409 9914.096 2990.660 14172.614 10773.395 14303.610 6493.918 6455.078 719.487 4389.321 10253.514 0.000 6961.401 10188.313 1727.135 11203.465 10849.508 9296.321 15417.945 9954.408 4506.655 9328.054 10997.540 10861.860 8654.887 9855.756 6722.911 1798.682 10026.946 10514.683 1196.206 461.403 12099.504 6145.925 7891.907 11327.871 10425.440 8089.974 10274.673 9950.265 10420.764 10987.270 9534.513
538.157 3705.878 7333.616 7324.597 5093.684 3188.914 1595.412 7080.144 3231.714 1181.876 8961.283 900.320 3145.469 1351.646 5316.672 4494.399 1198.721 5749.879 1246.424 3764.463 5581.072 8012.802 5173.718 3675.225 3143.362 4534.223 2886.873 3328.876 6725.271 4244.066 4103.827 653.130 8471.349 4164.568 4945.830 3994.313 6464.201 8904.796 4436.215 4873.255 6825.750 1872.097 3063.020 5365.726 3773.047 1354.827 1216.168 6174.076 4915.721 9853.467 1246.677 6418.784 544.083 4461.380 9769.654 8423.982 6446.348 4108.046 3453.840 6317.502 4420.110 7712.185 5675.734 8092.565 2287.983 4898.660 6450.613 4481.458 4926.020 6578.331 0.000 9157.592 8305.466 7244.351 4316.477 5313.924 10167.222 4856.746 4662.136 4137.901 5899.879 7262.638 1962.979 9316.842 4659.205 8377.013 3631.787 5417.022 6250.222 6159.655 8728.001 3616.402 4956.267 4888.302 3733.533 7551.060 5177.012 3850.598 6824.170 4973.027 8995.599
9205.919 12255.471 15704.318 15695.299 13605.734 11693.939 8811.159 15450.846 6415.010 9863.925 1451.409 9253.368 11506.130 8947.337 11987.376 12561.127 8171.663 9964.142 9313.475 9589.967 7473.871 11197.436 9982.365 9748.535 11535.154 11652.116 9825.639 8642.776 12589.131 12310.794 7654.924 9006.178 16842.050 6213.767 11426.890 8971.259 13134.904 9348.002 5031.731 12579.652 8065.961 9840.841 9932.892 13493.680 5378.471 10036.876 9898.217 4744.501 8924.913 10091.583 8253.620 8362.768 9517.430 10122.463 1349.719 16973.576 8670.079 12174.774 10129.629 14867.096 8805.387 14991.026 14063.651 15784.390 10648.644 4632.696 10564.315 10961.365 12894.764 9876.531 9025.289 0.000 9956.923 15793.944 12285.221 13863.518 18141.336 13361.771 6284.035 8119.825 14270.580 15812.231 9931.723 1128.592 12787.159 9995.537 9839.263 13804.939 10464.485 9457.855 17277.595 5413.472 13316.929 11369.362 11391.177 3306.513 13574.028 8973.400 15373.764 12941.770 1341.639
8105.122 10259.637 14128.556 14119.537 10723.576 10290.523 9079.472 13875.084 5658.479 9342.072 9335.766 9257.210 8850.192 9001.455 6305.808 11487.665 8133.447 2961.503 9367.594 5196.951 3520.783 1385.290 3906.902 10970.211 9007.872 6777.351 10345.941 5451.757 14198.833 11237.332 5432.126 9010.019 15266.288 5328.476 12419.393 4696.338 5933.180 1252.748 6371.876 12896.118 2548.087 9894.960 10453.194 8838.101 6871.429 9515.022 9044.525 9471.825 3580.458 1575.494 8307.738 2121.442 8885.880 11756.365 10103.419 13679.359 2823.710 11101.312 10927.403 11639.461 4552.566 15735.048 12470.673 16000.888 8191.196 6911.623 2416.765 6086.599 11950.792 1776.928 8431.564 10023.881 0.000 12928.830 12339.340 11021.686 17115.222 11651.686 4895.953 9896.913 12694.818 12510.294 9985.842 9650.606 8420.189 71.547 11060.939 12211.961 2893.484 2238.331 13700.735 6714.784 9589.185 12361.865 11756.395 7925.542 11971.951 10950.550 12146.129 12684.548 9370.082
6624.397 3822.367 2357.811 2348.793 3497.215 4725.908 7349.377 2104.340 9600.725 6584.628 15330.294 7494.237 5680.002 6593.992 7667.374 3300.971 7712.381 10824.131 6689.352 8783.936 11759.092 12267.641 9774.619 7813.545 4999.959 7432.751 6963.893 8698.089 8081.175 3502.705 9993.081 7247.047 3319.646 10533.579 7611.613 9096.977 8081.781 13930.501 10805.226 5195.254 12556.043 5700.488 6989.539 5062.716 10204.803 6689.296 6379.527 12605.833 10018.385 14536.340 7556.111 11894.519 6555.559 8348.804 16138.665 2645.962 11665.757 3548.825 6574.262 1519.005 9639.519 6125.912 1568.953 4943.202 6021.524 11330.416 10800.476 7636.247 3972.336 11391.147 6838.281 15589.348 12960.846 0.000 5062.167 2412.795 5253.849 2780.604 11031.147 9264.138 1651.164 2887.211 6454.670 15685.853 5271.190 13032.393 6873.114 1898.635 10254.397 11214.152 3437.384 10048.158 4059.260 7507.584 5570.871 13920.071 2294.162 8661.147 1348.052 3558.105 15364.610
4017.122 3846.632 5053.323 5044.304 5666.911 2537.137 3759.767 5050.902 6493.073 2995.017 11992.002 3959.442 4605.683 3004.382 8076.475 2389.398 4449.331 9320.439 3099.741 7335.023 9216.618 11583.363 8744.278 3509.941 4400.496 7294.025 2698.230 6899.436 5662.994 2724.211 7809.348 3712.251 6442.106 7425.928 3760.545 7564.873 9012.850 12540.342 7505.394 831.548 10461.297 2110.877 2685.935 6608.438 6615.193 3099.686 3029.309 9016.222 8486.281 13451.520 3966.501 10054.330 3293.369 4045.199 12880.272 7047.478 10016.908 2139.707 2270.658 5562.822 7990.670 4776.790 3690.986 5157.170 4488.391 7740.806 10021.174 7497.521 2233.719 10148.891 3723.329 11999.738 11876.026 5731.954 0.000 5189.629 7258.719 3824.255 8198.861 5422.949 3870.636 7134.820 2865.060 12427.460 5901.917 11947.573 2569.510 3556.956 9820.782 9730.215 7838.900 6458.548 5533.047 3656.516 1267.267 10661.678 3347.908 4670.942 5749.568 2249.440 12026.318
5063.686 1988.359 3987.249 3978.230 1084.420 3531.301 6534.767 3733.777 8040.015 5154.767 13769.584 5933.527 3704.894 5779.382 5254.579 3303.630 6151.671 8569.335 5689.903 6805.901 9781.058 10012.845 7796.585 7245.873 3081.093 5454.717 6307.142 6720.055 9462.482 2986.754 8074.214 5686.337 4949.083 8892.940 8097.571 7118.943 5834.535 11675.706 9244.515 5700.902 10578.009 4885.878 6483.289 2815.339 8751.475 5327.718 4856.434 11152.504 8040.351 12281.544 6347.079 9916.485 4994.848 8032.027 14577.955 3304.043 9687.723 3485.865 6519.722 1197.563 7661.485 7613.664 2088.445 6467.399 4102.658 9877.088 8545.680 5658.213 4229.033 9136.351 5277.570 14120.170 10706.050 2391.763 5200.592 0.000 6883.286 2599.738 9292.852 8506.601 2609.253 2714.015 5640.060 14125.142 3293.155 10777.597 6818.574 1983.916 7999.601 8959.356 3881.272 8594.830 2081.226 7993.542 5709.296 12359.360 2231.201 7903.611 1704.231 4516.194 13803.900
9818.368 7143.494 3310.714 3301.695 7735.239 7315.478 9796.885 3717.041 12530.192 9032.136 18029.121 9996.560 9001.129 9041.500 11864.753 5804.465 10486.449 14502.096 9136.860 12433.488 15144.054 16392.702 13424.172 9139.497 8321.087 11082.304 8604.332 12123.318 7804.096 6125.154 13314.208 9749.370 2284.791 13463.046 7767.470 12746.529 12485.353 17878.712 13542.513 6661.088 16131.076 8147.996 8592.037 9466.157 12652.312 9136.804 9066.428 15053.341 13667.938 18633.177 10003.619 15469.552 9330.487 9631.754 18917.391 5776.860 15240.790 6133.560 7900.214 6081.490 13214.552 4436.929 4906.267 2873.190 9342.651 13777.924 14891.965 11285.800 5842.463 15330.548 9760.447 18036.857 17057.683 5731.454 6574.830 6650.818 0.000 5943.581 14225.118 11052.505 4602.073 7096.062 8902.178 18464.578 9503.750 17129.230 8199.066 5235.950 14345.886 14911.872 6568.282 12495.666 8291.821 7663.441 7378.335 16698.796 5457.138 10300.498 5893.425 5289.657 18063.437
4487.510 1685.480 3116.461 3107.442 2583.173 2387.727 5235.941 2862.989 7463.838 4471.192 13193.407 5357.350 3543.115 4480.556 6406.739 1509.845 5575.494 9044.081 4575.916 6975.474 9813.196 10934.688 7966.157 5889.974 2863.072 5624.290 4850.458 6665.304 8089.828 1164.524 7856.194 5110.160 4254.194 8396.693 6275.341 7288.515 7276.401 12420.698 8668.339 4157.053 10673.061 3587.052 5026.604 4314.091 8091.368 4575.860 4242.640 10492.397 8209.924 13175.163 5442.675 10011.537 4418.672 6472.034 14001.778 3946.287 9782.776 1692.080 4697.492 2128.673 7756.537 6275.513 1399.508 5369.063 3884.637 9216.980 9433.951 5827.785 2685.184 9872.534 4701.394 13475.913 11599.669 2630.763 3656.743 1498.753 6103.128 0.000 8894.260 7150.702 1682.723 3700.671 4341.234 13548.966 4061.011 11671.216 4996.344 1140.796 8887.872 9453.858 4737.709 7934.723 2849.082 6171.312 4081.113 11783.184 805.202 6547.712 2635.341 3178.044 13227.723
4073.794 7123.346 10941.362 10932.343 8347.599 7103.329 5040.354 10687.890 1410.655 5509.360 5753.905 5225.882 6247.995 4972.090 6154.088 8300.471 4104.082 4128.933 5338.229 3591.562 1592.718 5568.955 4098.541 6813.580 6277.019 5818.828 6189.311 2886.249 10042.203 8050.139 2103.748 4978.692 12079.094 1062.822 8262.762 2872.806 7301.616 5095.336 1953.738 8866.752 2784.158 5865.594 6296.564 7880.057 2453.782 5682.311 5288.948 5158.815 3089.704 5994.058 4278.373 2734.286 4854.553 7599.735 6562.276 11841.450 3041.598 7914.119 6770.772 9734.971 2706.935 11632.169 9283.479 12086.063 5390.509 2466.926 4829.667 5128.077 8763.598 4248.050 4400.236 6365.974 5015.003 10661.819 8309.974 8731.393 13928.029 8464.492 0.000 5479.266 9507.624 10680.106 5956.477 6109.463 7173.536 5053.616 6904.309 9024.768 4629.276 3829.374 12145.470 2297.137 7807.936 8205.234 7727.030 4343.681 8784.758 6532.903 10241.639 8966.524 5788.221
4656.735 6554.200 9162.880 9153.861 8156.139 5451.716 3340.836 8959.057 4257.962 4210.842 8301.922 4097.566 6990.664 3229.752 8971.633 6069.339 3771.202 8399.011 3692.973 7025.393 7124.279 10661.935 8217.429 2299.180 6787.862 8270.681 2859.911 6038.095 5291.898 5819.006 6010.150 3850.376 10350.262 5165.278 3553.884 6817.303 10119.161 10448.004 4381.233 5563.847 8357.563 3705.457 2967.164 9097.666 3253.959 4383.792 4245.134 4871.586 7287.462 11396.675 3422.041 7961.991 4509.193 2249.458 9219.801 10803.673 8142.254 5682.986 3113.823 8942.068 6825.822 7725.935 7571.863 8528.062 6133.178 4309.594 9099.746 7936.348 6327.379 9008.543 4284.099 8309.658 10286.299 9488.148 5717.836 8312.147 10885.008 7096.285 5963.750 0.000 7778.792 10325.092 3259.948 8998.675 8391.145 10357.846 2823.458 7313.151 8899.355 8589.867 11595.095 3404.676 8022.274 3496.356 4425.449 7479.226 7082.240 1100.394 9448.736 6374.385 8336.238
6430.582 3628.552 1433.738 1424.719 4040.894 4027.809 6646.443 1180.266 9379.750 5881.694 14878.679 6846.118 5486.187 5891.058 8211.053 2590.311 7336.007 10987.153 5986.418 8918.546 11756.268 12877.760 9909.229 7102.885 4806.144 7567.361 6260.959 8608.376 7157.102 2837.485 9799.266 6598.928 2571.470 10312.604 6700.868 9231.587 8791.009 14363.770 10392.071 4284.508 12616.133 4997.554 6278.879 5771.813 9501.869 5986.362 5915.986 11902.899 10152.996 15118.235 6853.177 11954.609 6180.045 7638.143 15766.949 3424.500 11725.848 2845.891 5863.602 2387.146 9699.609 5201.838 1207.776 4019.128 5827.709 10627.482 11377.023 7770.857 3261.676 11815.606 6610.005 14886.415 13542.741 2198.579 4198.250 2956.474 4505.673 2428.638 10837.332 8561.204 0.000 3755.352 5751.736 15314.136 5809.406 13614.288 6162.454 1537.459 10830.944 11396.930 4215.922 9345.224 4597.477 6596.839 4860.210 13548.354 1942.196 7958.213 2216.194 2647.359 14912.995
6885.626 3999.948 4785.204 4776.186 2530.429 5438.423 8441.890 4531.733 9861.954 6976.707 15591.523 7755.466 5491.591 7686.505 6822.716 5220.470 7973.611 9965.046 7511.842 8538.559 11554.649 11408.555 9418.752 9152.995 4867.790 7144.888 8214.265 8493.646 10508.568 5356.585 9860.911 7508.276 5704.359 10679.636 9869.712 8892.533 7222.695 13071.416 11066.455 7453.353 12351.599 6793.001 8390.411 4203.631 10573.415 7149.657 6678.374 12974.444 9813.942 13677.255 8169.018 11690.075 6816.788 9939.150 16399.894 2282.433 11461.314 5402.705 8551.358 1967.203 9435.075 8553.305 3746.138 7370.595 5889.355 11699.027 9941.391 7348.384 6145.873 10532.062 7099.510 15942.110 12101.761 2872.425 7117.432 2610.271 7681.242 4634.484 11079.549 10413.724 3909.262 0.000 7547.183 15947.082 4958.888 12173.308 8850.210 3900.756 9395.312 10355.067 2049.449 10416.770 3854.817 9765.683 7626.136 14181.300 4148.042 9810.733 1835.777 5816.203 15625.839
2666.975 3420.484 6029.164 6020.145 5022.423 2318.001 2207.252 5825.342 4953.937 1644.870 10160.645 2449.878 3859.334 1465.245 6726.328 2935.623 3099.184 7970.292 1648.141 5984.876 7697.938 10233.216 7394.131 2359.619 3654.147 5943.878 1420.888 5549.289 5259.286 2685.290 6290.667 2202.688 7216.546 5886.791 3458.760 6214.726 7873.856 11021.662 5966.258 3140.898 8942.616 571.741 1597.035 5963.950 4889.958 1749.539 1679.162 7184.865 7136.134 11970.333 2427.364 8535.650 1943.222 3145.773 11078.525 7669.957 8584.619 2549.270 1880.911 5808.352 6640.523 5956.668 4438.147 6360.208 3357.899 6168.317 8671.027 6147.374 3193.664 8798.744 2373.182 10168.381 10525.879 6354.433 2584.120 5178.432 8461.758 3962.569 6659.725 3620.347 4645.076 7191.377 0.000 10857.398 5257.430 10597.426 2165.801 4179.436 8470.635 8380.068 8461.379 4919.412 4888.559 3354.731 1829.999 9122.542 3948.524 3017.357 6315.020 3240.670 10194.961
9299.409 12348.961 16166.977 16157.958 13699.224 12328.944 9571.240 15913.505 6418.620 10602.174 1662.022 9991.617 11599.620 9685.586 11990.986 13299.376 8876.494 9623.326 10051.724 9593.577 7133.055 10653.382 9641.549 10842.855 11628.644 11655.727 10585.720 8646.386 13683.451 13049.043 7658.534 9744.427 17304.710 6217.377 12521.210 8956.632 13138.515 8641.207 5616.362 13580.248 7522.412 10579.090 10692.973 13587.170 6210.310 10775.125 10514.564 5838.821 8584.097 9384.788 8991.869 8021.952 10080.168 11216.783 710.440 17067.065 8329.264 12913.023 11167.181 14960.586 8790.760 16028.578 14509.094 16799.558 10742.134 5217.326 10223.499 10964.975 13633.013 9535.715 9625.851 1156.028 9312.488 15887.434 13023.470 13957.008 18901.107 13690.107 6269.408 9214.145 14733.239 15905.721 10669.972 0.000 12880.649 9339.640 10933.583 14250.383 10123.670 9117.039 17371.085 6245.311 13410.418 12463.682 12151.258 2619.698 14010.373 10067.720 15467.254 13680.019 1552.252
4302.551 2866.622 6701.036 6692.018 2592.775 3831.820 5877.376 6447.565 6659.194 4393.632 12355.845 5172.392 1995.786 5263.906 2716.683 4774.837 5298.587 5694.504 4928.768 3645.703 6917.267 7474.948 4593.901 7115.971 2448.914 2252.033 6327.619 4102.166 10166.016 4429.516 5581.352 4925.202 7662.871 7072.429 8386.576 4255.152 3296.638 9123.201 7830.776 6644.861 7637.678 5186.397 6503.765 1306.878 7850.364 4566.583 4096.085 10337.535 5080.568 9743.648 5532.109 6976.154 4233.713 7902.126 13164.216 6280.316 6747.392 4596.440 6894.586 4173.837 4797.694 9365.019 4765.235 9034.323 2449.304 8482.837 6007.784 2455.529 5445.919 6575.036 4516.435 12706.431 8168.154 5277.607 6088.083 3261.219 9597.074 4089.950 7222.005 8376.700 5308.722 5107.390 5403.725 12711.403 0.000 8239.701 7072.532 4606.115 5461.705 6156.360 6359.727 7693.719 1458.383 8329.048 6382.532 10945.621 4627.544 7773.709 4680.505 6179.675 12390.161
8239.603 10458.424 14327.342 14318.324 10922.363 10489.309 9213.953 14073.871 5792.960 9540.859 9687.758 9391.690 9048.979 9135.936 6504.595 11686.452 8267.928 3160.290 9502.075 5395.738 3655.264 1584.077 4105.689 11104.692 9206.659 6976.138 10480.422 5586.237 14333.314 11436.119 5566.607 9144.500 15465.075 5462.957 12553.874 4830.819 6131.967 1604.740 6506.357 13030.598 2900.080 10029.441 10587.675 9036.887 7005.910 9713.809 9243.312 9711.434 3779.244 1670.025 8442.219 2255.923 9020.361 11890.846 10455.411 13878.146 2958.191 11300.099 11061.883 11838.248 4687.047 15869.529 12669.460 16199.675 8389.983 7158.418 2615.552 6285.386 12149.579 1975.715 8566.045 10375.874 351.992 13127.617 12473.821 11220.472 17314.009 11850.472 5073.122 10031.394 12893.605 12709.081 10120.323 10002.599 8618.976 0.000 11195.420 12410.748 3092.271 2437.118 13899.522 6849.265 9787.971 12496.346 11890.876 8277.535 12170.738 11085.031 12344.916 12883.334 9722.074
4143.262 5463.299 6787.068 6778.049 7169.172 4153.803 2827.363 7046.388 5589.903 3223.875 10025.339 3584.093 6003.697 2716.279 8514.641 4384.884 3866.368 9288.189 3102.812 7352.923 8372.627 11551.113 8762.177 940.431 5800.895 7732.191 1291.734 6809.930 3457.426 4340.877 6965.357 3336.903 8386.386 6522.757 1677.985 7582.772 9662.169 11696.352 5881.925 3100.021 9617.306 2718.490 838.809 8110.699 4754.652 3396.826 3258.167 7035.901 8176.640 12645.023 3130.930 9210.339 3522.227 1475.690 10943.218 9042.964 9259.308 4135.194 649.997 7463.939 7715.000 5511.394 5686.473 6304.759 5146.211 6033.010 9988.924 7935.687 4229.205 9897.721 3770.625 10033.075 11403.353 7727.440 3376.568 6834.019 8661.704 5618.156 7295.691 2853.439 5866.123 9035.937 2272.982 10722.092 7404.178 11474.900 0.000 5552.443 9788.533 9479.045 9834.386 4905.368 7035.308 1620.457 1984.285 9050.610 5343.395 2101.433 7745.055 3980.029 10059.655
5142.240 2340.210 2411.074 2402.056 2935.604 2920.755 5544.224 2157.603 8118.568 4779.475 13776.459 5743.899 4197.845 4788.839 7061.469 1561.437 6230.225 9698.812 4884.198 7630.204 10467.926 11589.418 8620.888 6198.256 3517.802 6279.020 5158.740 7320.034 7690.758 1697.552 8510.924 5496.708 3386.166 9051.423 6460.381 7943.245 7685.719 13075.428 9289.851 3958.709 11327.792 3895.335 5334.886 4666.523 8399.650 4884.143 4813.766 10800.679 8864.654 13829.893 5750.958 10666.268 5073.402 6745.036 14656.508 3709.033 10437.506 1743.672 4970.494 2224.377 8411.267 5841.940 329.682 4832.696 4539.367 9525.263 10088.681 6482.516 2486.840 10527.264 5356.124 13784.195 12254.399 2393.509 3458.399 1851.184 5320.369 975.451 9548.990 7458.984 1006.802 3796.375 4649.517 14203.696 4704.116 12325.946 5269.346 0.000 9542.602 10108.588 4500.455 8243.005 3492.187 6356.352 3967.103 12437.914 489.009 6855.994 2411.123 2744.470 13810.775
5632.644 7391.160 11260.078 11251.059 8001.627 7422.045 7301.886 11006.606 5024.932 6473.594 9883.448 6784.732 5981.714 7218.747 3675.501 8619.188 5857.401 569.734 7008.730 2328.473 3460.098 2108.268 1038.425 9195.933 6139.395 4143.151 8407.581 3088.316 12245.979 8368.855 3920.307 6537.541 12397.811 4981.395 10466.538 2394.636 3760.392 3752.710 6024.796 10235.086 3242.151 7392.805 8583.728 6207.794 6442.036 6646.545 6176.048 9229.872 1667.711 4376.968 6362.080 2650.299 6313.676 9982.088 10691.819 11115.634 2447.343 8232.835 8974.548 9009.154 2447.877 13001.414 9602.196 13132.411 5322.719 6676.856 546.079 3452.399 9082.314 1204.144 5959.086 10571.564 2801.473 10298.523 9678.308 8391.379 14246.745 8783.208 4821.898 8788.802 9826.341 9956.918 7483.687 10239.007 5785.989 2873.021 9152.494 9343.484 0.000 959.755 11195.044 6285.391 6867.235 10409.010 9254.240 8473.225 9103.474 9314.082 9515.822 9816.070 9917.764
6239.025 8226.546 12095.464 12086.445 8837.013 8257.431 7620.263 11841.992 4628.217 7308.980 9038.794 7391.113 6817.100 7542.246 4490.114 9454.574 6335.671 1141.916 7732.131 3163.859 2627.394 2131.220 1873.811 9540.283 6974.781 4957.763 8916.013 3403.133 12768.906 9204.241 3651.380 7143.922 13233.197 4298.214 10989.465 2647.715 4575.004 2966.841 5341.614 11070.472 2377.874 8228.191 9023.267 7022.407 5841.167 7481.931 7011.434 8546.691 1407.596 3721.305 6840.350 1716.350 7019.783 10326.438 9847.165 11930.246 1487.588 9068.221 9497.475 9823.767 2594.726 13836.800 10437.582 13967.797 6158.105 5993.675 1106.460 4267.012 9917.700 418.676 6565.467 9726.910 2145.811 11113.136 10513.694 9205.992 15082.131 9618.594 4045.252 8866.651 10661.727 10771.531 8319.073 9394.353 6600.602 2217.358 9631.012 10178.870 1073.897 0.000 12009.657 5684.522 7702.621 10931.937 10089.626 7628.571 9938.860 9554.331 10330.435 10651.456 9073.110
8544.755 5659.077 4694.877 4685.858 4173.834 6912.896 9616.614 4384.774 11521.083 8635.836 17250.652 9414.595 7134.996 8861.229 8466.121 5633.828 9632.740 11608.451 8956.589 10181.964 13198.054 13051.960 11062.157 10270.646 6511.195 8788.293 9231.131 10137.051 10821.079 5769.943 11504.316 9167.405 4625.599 12323.041 10283.069 10535.938 8866.100 14714.821 12725.584 7866.710 13995.004 7967.725 9407.277 5847.036 12232.544 8808.786 8337.503 14633.573 11457.347 15320.660 9823.348 13333.480 8475.917 10817.426 18059.023 1203.674 13104.719 5816.062 9042.885 2920.801 11078.480 8515.294 4159.495 7336.446 7532.760 13358.156 11584.796 8991.789 6559.230 12175.467 8758.639 17601.239 13745.166 3081.433 7530.790 4269.400 6867.054 5047.841 12722.954 11531.375 4322.620 2174.297 8721.907 17606.211 6602.293 13816.713 9341.737 4314.114 11038.717 11998.472 0.000 12075.899 5498.222 10179.040 8039.493 15840.429 4561.399 10928.385 2720.227 6229.561 17284.968
3982.090 7031.642 10550.043 10541.025 8381.905 6539.665 3678.716 10296.571 1493.039 4709.651 5769.212 4099.094 6282.301 3793.062 7090.135 7406.853 3017.389 5826.348 4159.201 4882.448 3819.534 7576.032 5650.274 4932.429 6311.325 6642.293 4693.196 3935.257 8418.500 7156.520 2947.405 3851.904 11687.776 1779.628 6639.060 4424.540 8237.663 7245.692 1190.303 7687.725 5010.974 4686.567 4800.450 8269.851 387.883 4882.602 4743.943 3511.393 4714.799 8065.981 3099.345 4765.633 4363.155 5578.402 6577.583 11749.746 5005.347 7020.500 5274.658 9643.267 4258.668 10136.055 8909.377 10907.035 5424.815 1425.715 6527.082 6064.123 7740.490 6009.712 3871.015 5778.388 7149.392 10570.115 7130.947 8639.689 13008.584 8207.496 2562.393 3413.367 9116.306 10588.402 4777.449 6124.770 7563.330 7209.925 5023.158 8650.665 6326.691 5591.036 12053.766 0.000 8093.099 6581.532 6258.735 4358.988 8419.754 4467.004 10149.935 7787.496 5803.528
4763.510 1980.661 5590.768 5581.749 1482.507 3419.137 6338.335 5337.296 7430.454 4854.591 13211.159 5633.351 2510.630 5667.218 4625.008 3839.392 5851.274 7555.711 5389.727 5487.103 8462.260 9383.273 6477.787 7133.708 2375.229 4135.919 6194.978 5401.257 9924.407 3494.071 6880.444 5386.161 6552.603 8187.076 8109.920 5800.145 5204.963 10932.328 8686.090 6232.178 9259.211 4773.714 6371.124 2336.375 8451.299 5027.542 4557.044 10852.328 6721.553 11651.973 6046.903 8597.687 4694.672 7919.863 14019.529 5075.439 8368.925 4021.626 6532.071 2968.960 6342.687 8804.026 3654.967 8056.599 3212.822 9338.151 7916.109 4339.415 4931.125 8384.163 4977.394 13561.745 10076.479 4167.338 5675.400 1857.520 8486.806 3107.054 8586.988 8394.437 4198.454 3703.691 5527.896 13566.717 1974.358 10148.026 6830.923 3495.846 7370.030 7965.487 5154.849 8294.654 0.000 8005.891 5969.849 11800.935 3644.648 7791.447 3475.627 5664.880 13245.475
5105.333 5957.429 6255.148 6246.129 7748.487 4647.933 4137.311 6691.671 7032.882 4083.229 11468.319 4734.655 6672.937 3750.022 9373.995 4879.015 5309.347 10550.152 3962.166 8564.736 9815.607 12813.076 9973.991 2383.411 6467.750 8591.545 2151.088 8129.149 2792.026 4835.008 8408.337 4487.465 7849.286 7965.737 351.535 8794.586 10521.523 13139.331 7324.905 2834.358 11060.286 3577.844 2138.793 8690.014 6197.632 4256.180 4117.521 8478.881 9619.620 14088.002 4573.909 10653.319 4381.580 2491.152 12386.198 8935.906 10702.288 4629.324 1144.128 7847.868 9157.980 4523.586 5951.199 5325.713 6005.565 7475.990 11250.886 8795.041 4000.914 11340.701 4811.540 11476.055 12846.333 7659.302 3870.699 7328.149 7682.658 6112.286 8738.670 4296.419 5511.405 9216.074 3132.336 12165.071 7983.494 12917.880 1442.980 6046.573 11050.495 10922.025 9727.328 6348.348 7614.623 0.000 2478.415 10493.590 5837.525 3544.412 7676.916 3448.108 11502.635
5024.260 5238.983 5308.038 5299.019 7030.041 3929.487 4278.082 5744.561 7311.222 4002.156 12150.210 4807.164 5965.239 3822.531 9083.613 3911.744 5456.469 10327.577 4005.426 8342.161 10055.223 12590.501 9751.416 3065.303 5760.052 8301.164 2291.859 7906.575 4490.517 4116.562 8647.953 4559.973 6907.356 8244.077 2551.958 8572.011 10231.141 13378.947 8006.797 1620.991 11299.902 2929.026 2279.564 7971.568 6879.523 4106.824 4036.447 9160.773 9493.420 14327.618 4784.649 10892.935 4300.507 3600.561 13068.090 7988.796 10941.904 3662.053 1826.020 6900.759 8997.808 4304.261 5004.089 5097.625 5715.184 8157.882 11028.312 8504.660 3053.805 11156.030 4730.467 12157.946 12883.164 6712.192 2903.428 6609.703 7349.736 5346.600 9017.010 4978.311 4564.296 8268.965 3273.107 12846.963 7265.048 12954.711 2124.871 5079.302 10827.921 10737.353 8780.218 7030.240 6896.177 2447.929 0.000 11175.482 4870.254 4226.304 6729.807 2500.999 12184.526
8512.644 11562.196 15380.212 15371.193 12912.459 11542.179 8784.474 15126.740 5631.855 9815.409 1418.576 9204.852 10812.855 8898.820 11204.221 12512.611 8089.728 8836.561 9264.959 8806.812 6346.290 9879.918 8854.784 10054.722 10841.878 10868.961 9798.954 7859.621 12895.318 12262.278 6871.769 8957.662 16517.944 5430.611 11733.077 8169.866 12351.749 7867.742 4829.597 12793.482 6735.647 9792.325 9906.208 12800.405 5423.545 9988.360 9727.798 5050.688 7797.332 8611.324 8205.103 7235.187 9293.402 10428.651 2287.637 16280.300 7542.498 12126.258 10380.416 14173.821 8003.995 15241.813 13722.329 16012.793 9955.369 4430.561 9436.734 10178.209 12846.248 8748.950 8839.086 2106.692 8539.023 15100.669 12236.705 13170.242 18114.342 12903.342 5482.642 8426.012 13946.474 15118.956 9883.207 1834.825 12093.884 8566.175 10145.450 13463.617 9336.905 8330.274 16584.319 5458.546 12623.653 11675.549 11364.493 0.000 13223.607 9279.587 14680.489 12893.254 1452.892
4693.958 1891.928 2749.436 2740.417 3012.691 2594.175 5435.566 2495.964 7670.286 4670.817 13399.855 5563.798 3749.563 4680.181 6613.187 1452.779 5781.942 9250.529 4775.541 7181.922 10019.644 11141.136 8172.606 6089.598 3069.520 5830.738 5050.082 6871.752 7860.099 1370.972 8062.642 5316.608 3887.169 8603.141 6409.897 7494.963 7482.849 12627.146 8874.787 3908.226 10879.509 3786.677 5226.229 4743.609 8290.992 4775.485 4449.088 10692.022 8416.372 13381.611 5642.300 10217.985 4625.120 6671.658 14208.226 4264.293 9989.224 1635.014 4897.117 2558.191 7962.985 6011.281 1032.483 5002.038 4091.085 9416.605 9640.399 6034.233 2436.356 10078.982 4907.842 13675.537 11806.117 2948.768 3407.916 1928.270 5736.103 486.442 9100.708 7350.327 1315.699 4130.189 4540.859 13755.414 4270.766 11877.664 5195.969 773.771 9094.320 9660.306 5055.715 8134.347 3278.600 6305.868 3916.619 11989.632 0.000 6747.336 2966.383 2913.812 13434.171
5688.573 7586.038 9763.933 9754.914 9187.977 6483.554 4372.674 9990.895 6069.207 5242.680 9874.444 5129.404 8022.502 4261.590 10428.151 7101.177 5189.317 10210.256 4724.811 8675.872 8914.259 12473.180 10028.674 3119.832 7819.700 9684.639 3891.749 7849.341 4670.667 6850.844 7821.395 4882.214 11358.072 6855.341 3860.320 8628.548 11575.680 12259.249 6071.296 6343.143 10105.699 4737.294 3999.002 10129.504 4944.022 5415.630 5276.972 6295.163 9098.707 13160.706 4453.879 9773.236 5541.031 2494.803 10792.324 11835.511 9953.499 6714.824 4090.738 9973.906 8637.067 7800.088 8603.701 8825.337 7165.016 5918.069 10910.991 9392.866 7359.217 10819.788 5315.937 9882.180 12097.544 10519.986 6749.674 9343.985 11182.283 8128.123 7657.118 2352.813 8810.630 11356.930 4291.786 10571.197 9422.983 12169.091 3800.373 8344.989 10710.600 10401.112 12626.933 5094.739 9054.112 3802.792 5425.025 9051.749 8114.078 0.000 10480.573 6956.893 9908.760
6563.087 3761.057 2974.833 2965.814 2819.116 4689.168 7392.886 2721.361 9539.415 6628.137 15268.984 7432.927 5438.710 6637.501 6744.745 3410.099 7651.071 9887.074 6732.860 8460.587 11505.457 11330.583 9340.781 8046.918 4814.909 7066.917 7007.402 8444.454 8698.197 3546.214 9808.031 7185.737 3936.668 10472.270 8059.341 8843.341 7144.724 12993.444 10743.916 5642.981 12302.408 5743.996 7183.548 4125.659 10248.312 6732.805 6318.217 12649.341 9764.750 13599.283 7599.620 11640.884 6494.249 8593.698 16077.355 1790.844 11412.122 3592.334 6819.156 581.947 9385.884 6742.934 1935.767 5560.223 5836.474 11373.925 9863.419 7270.413 4335.502 10454.090 6776.971 15619.571 12023.789 1062.053 5307.061 2127.388 5870.871 2824.113 10969.837 9307.646 2098.891 1564.564 6498.179 15624.543 4880.916 12095.336 7118.008 2090.385 9317.340 10277.095 2561.737 10091.667 3815.042 7955.312 5815.765 13858.761 2337.671 8704.656 0.000 4005.832 15303.300
5030.301 3616.318 2807.039 2798.021 5354.054 2845.259 4772.946 3243.563 7506.253 4008.197 13005.182 4972.621 5226.463 4017.561 8090.087 1956.498 5462.510 10333.619 4112.921 8348.203 10229.797 12596.542 9649.506 4884.944 4546.421 7307.638 4073.232 7912.616 4946.287 2469.982 8822.527 4725.431 4406.357 8439.107 4053.509 8578.052 8959.749 13553.522 8518.574 1637.149 11474.476 3124.057 4060.938 6456.020 7628.373 4112.865 4042.489 10029.402 9499.461 14464.700 4979.680 11067.509 4306.548 5420.202 13893.452 5487.797 11030.088 1706.807 3645.661 4399.760 9003.849 3371.869 2503.090 3550.117 5270.580 8753.985 11034.353 7511.134 695.337 11162.071 4736.508 13012.918 12889.206 4211.193 1550.891 4269.634 5285.800 3200.326 9212.041 6612.110 2063.297 5767.966 3878.239 13440.639 5749.499 12960.753 3944.512 2832.773 10571.221 10743.395 6279.219 7471.727 5349.710 3949.480 2642.269 11674.858 2713.884 6009.119 4228.808 0.000 13039.498
9191.544 12241.096 16059.112 16050.093 13591.359 12101.963 9219.183 15805.640 6310.755 10271.949 223.291 9661.392 11491.755 9355.361 11883.121 12969.151 8579.687 9515.461 9721.499 9485.712 7025.190 10303.376 9533.684 10156.559 11520.779 11547.862 10233.663 8538.522 12997.155 12718.818 7550.669 9414.202 17196.845 6109.512 11834.914 8848.767 13030.650 8291.201 5439.756 12987.676 7414.547 10248.865 10340.916 13479.305 5786.495 10444.900 10306.241 5152.525 8476.232 9034.782 8661.644 7914.087 9925.454 10530.488 1472.522 16959.200 8221.399 12582.798 10537.653 14852.721 8682.895 15399.050 14401.230 16192.414 10634.269 5040.720 10115.634 10857.110 13302.789 9427.851 9433.314 1295.376 8962.482 15779.569 12693.245 13849.143 18549.360 13582.242 6161.543 8527.849 14625.375 15797.856 10339.748 1019.710 12772.784 8989.634 10247.287 14142.518 10015.805 9009.174 17263.220 5821.496 13302.553 11777.386 11799.201 2269.692 13902.508 9381.424 15359.389 13349.795 0.000
NODE_COORD_SECTION
1 -500.874011 70.822412
2 1765.514132 -1516.754975
3 5421.419314 -862.630175
4 5425.632081 -870.388324
5 2368.942260 -2882.148912
6 1942.252716 -259.146961
7 3.726492 1686.028259
8 5492.661943 -1358.443059
9 -3170.335679 1208.181430
10 427.546443 378.470596
11 -7424.593878 3832.980366
12 15.546548 831.634329
13 625.043985 -1443.936259
14 129.284579 1295.992533
15 -1455.370222 -3575.633578
16 3054.903763 -421.166858
17 -1085.502978 890.557320
18 -4247.218823 -2684.223160
19 405.623620 1170.541794
20 -2369.080557 -1702.180044
21 -4855.044263 -426.653053
22 -5801.111622 -3962.533821
23 -3577.675184 -2448.411566
24 936.430485 3287.415951
25 950.298089 -1322.452597
26 -972.765610 -3183.747025
27 1125.327557 2375.983164
28 -2491.325743 -1002.892004
29 3443.146856 4632.544919
30 2540.465435 -560.188648
31 -3018.841262 -24.511177
32 -178.921510 816.757659
33 6880.775800 -1215.839224
34 -3881.318686 862.709417
35 2540.408512 3174.528485
36 -3048.006254 -1403.772191
37 -1713.936730 -4435.507330
38 -7416.631060 -2710.850656
39 -4055.725739 2004.587426
40 2863.314725 1420.932872
41 -5951.277743 -1192.719749
42 985.125156 1043.370718
43 1250.406537 2473.238437
44 826.488729 -3965.251059
45 -3084.761864 2316.414533
46 350.993129 308.048946
47 345.005668 310.016937
48 -3761.612940 4810.538531
49 -3931.401456 -1704.612674
50 -7731.797614 -3469.774995
51 -699.643625 1318.943576
52 -5530.231716 -1504.932063
53 -19.553827 426.239937
54 1348.288159 3588.895085
55 -7903.387524 4819.795894
56 5576.422923 -3860.563977
57 -5309.594776 -1703.427879
58 2763.884527 -137.785227
59 1691.162412 2646.070891
60 3718.898802 -2994.632577
61 -3464.561024 -1070.398174
62 5574.261769 2794.302961
63 4037.949760 -1541.874541
64 6026.457817 1211.212863
65 118.726978 -1076.198033
66 -4032.170074 2565.967668
67 -4582.846471 -3188.713113
68 -1547.836071 -2944.356578
69 3300.778292 469.185335
70 -5174.530455 -2805.479115
71 -484.341085 505.206823
72 -7001.297045 4752.544281
73 -6566.014684 -3081.499276
74 4723.860469 -2341.335181
75 2702.663009 1196.670088
76 2923.523157 -2535.722469
77 7925.169555 402.951751
78 3100.668251 -1482.755604
79 -4331.622805 466.286947
80 -555.248893 3586.413316
81 4433.303764 -1282.674141
82 3999.135866 -4053.991300
83 925.254780 1293.943670
84 -7941.588572 4330.268567
85 364.263267 -3130.518605
86 -6600.894780 -3130.199986
87 1460.543491 2832.678627
88 3710.960486 -1499.920690
89 -4277.290313 -2925.651841
90 -5016.586314 -2439.052954
91 5638.397644 -4560.056124
92 -3070.434479 2134.460203
93 1551.658887 -2751.334396
94 2507.330326 3296.241321
95 2153.465210 1800.030869
96 -6973.630771 3237.470661
97 3343.406506 -1367.394210
98 344.859075 3748.859561
99 4193.614312 -2951.148220
100 3830.699658 578.651378
101 -7470.685778 3960.408146
DEMAND_SECTION
1 0
2 93
3 3
4 3
5 10
6 8
7 7
8 8
9 5
10 9
11 5
12 10
13 9
14 2
15 4
16 5
17 2
18 94
19 2
20 2
21 5
22 7
23 3
24 3
25 6
26 3
27 10
28 1
29 8
30 4
31 63
32 77
33 95
34 10
35 9
36 9
37 4
38 10
39 6
40 3
41 9
42 8
43 4
44 3
45 1
46 3
47 1
48 8
49 9
50 5
51 2
52 2
53 3
54 3
55 1
56 3
57 8
58 7
59 6
60 4
61 6
62 8
63 1
64 5
65 3
66 10
67 6
68 1
69 10
70 8
71 4
72 10
73 4
74 2
75 10
76 4
77 6
78 90
79 1
80 1
81 2
82 4
83 2
84 5
85 62
86 10
87 9
88 77
89 8
90 9
91 2
92 9
93 5
94 87
95 50
96 9
97 4
98 6
99 3
100 7
101 5
DEPOT_SECTION
1
-1
EOF
