NAME : mamut-paris-n100-hyb
COMMENT : Mamut2026 fastest metric; city paris; 3-decimal seconds/meters; ENU ref in mamut-paris-n100-hyb.vrp.json
TYPE : CVRP
DIMENSION : 101
EDGE_WEIGHT_TYPE : EXPLICIT
EDGE_WEIGHT_FORMAT : FULL_MATRIX
CAPACITY : 184
EDGE_WEIGHT_SECTION
0.000 135.058 307.566 305.943 314.560 150.601 113.936 289.435 182.256 120.376 422.152 170.043 146.041 88.776 248.813 219.438 136.224 320.792 107.311 220.788 297.900 403.968 313.230 222.624 139.024 216.048 176.985 201.789 364.970 192.423 219.035 81.061 351.033 215.478 278.337 222.923 306.518 385.350 243.314 313.205 356.431 119.333 186.296 231.839 200.894 141.032 132.720 321.424 294.224 453.990 114.002 285.909 155.049 285.477 455.397 360.655 285.640 197.881 200.242 259.878 245.962 434.858 217.715 437.851 92.816 276.076 354.490 233.844 318.770 342.090 32.390 472.096 359.293 310.436 294.850 201.210 429.491 217.388 227.976 289.743 224.901 302.350 164.969 429.132 208.200 362.155 207.391 219.305 337.290 336.623 323.935 215.153 189.110 275.022 262.944 363.127 230.035 240.643 290.028 244.436 424.088
199.127 0.000 226.534 224.911 246.339 127.118 254.499 208.403 286.366 222.685 526.263 353.150 146.484 195.169 261.484 168.030 266.541 386.115 213.851 275.626 402.011 435.065 350.637 284.994 95.452 228.719 231.336 267.112 419.321 133.129 323.146 264.169 270.001 319.588 332.688 288.246 319.189 489.460 347.425 305.074 460.542 159.429 242.428 151.250 341.456 243.342 235.029 461.987 359.547 556.752 254.565 390.020 257.359 347.847 559.507 299.460 389.751 146.473 254.592 181.475 315.340 400.187 136.683 356.819 146.179 380.187 371.805 246.515 267.362 396.823 215.498 576.207 462.055 214.997 286.720 148.390 348.459 102.993 332.087 357.482 143.869 244.924 216.424 533.243 127.611 464.917 261.741 138.273 349.962 391.486 271.609 355.715 120.889 329.372 256.848 467.237 143.901 303.013 201.142 220.201 528.199
414.638 271.594 0.000 24.939 386.854 287.656 382.836 95.127 500.579 383.450 715.732 514.754 364.778 323.506 451.107 199.265 433.537 561.004 368.914 485.233 620.304 608.775 546.578 363.342 313.745 424.661 359.673 485.406 336.368 208.017 541.439 425.772 152.423 537.882 361.556 506.540 455.039 670.716 530.495 301.522 678.836 287.766 367.851 319.082 469.793 383.729 385.997 590.324 577.841 730.462 382.902 608.313 451.809 426.196 748.977 216.224 608.044 222.636 309.410 174.910 533.634 286.745 133.750 236.597 364.473 545.597 545.515 442.457 288.100 570.533 403.671 753.733 635.765 192.453 307.458 219.995 220.894 198.625 550.380 485.819 107.544 253.139 344.761 722.713 323.553 638.627 321.364 157.487 523.672 565.196 279.837 484.052 275.396 343.960 277.586 656.707 183.378 431.350 178.599 182.637 717.669
394.983 251.939 1.623 0.000 367.199 268.001 363.181 70.189 480.924 363.795 696.077 495.099 345.123 303.851 431.452 179.610 413.882 541.350 349.259 465.578 600.649 589.120 526.924 343.687 294.091 405.006 340.018 465.751 327.350 188.362 521.785 406.117 127.485 518.227 352.538 486.885 435.384 651.061 510.840 292.504 659.181 268.111 348.196 299.427 450.138 364.074 366.343 570.669 558.186 710.807 363.247 588.659 432.154 406.541 729.322 196.569 588.390 202.981 289.755 155.255 513.979 277.727 114.095 227.579 344.818 525.942 525.860 422.802 268.446 550.878 384.016 734.078 616.110 172.798 287.803 200.340 211.876 178.970 530.725 466.164 87.889 233.484 325.106 703.058 303.898 618.972 301.709 137.832 504.017 545.541 260.182 464.397 255.741 334.942 257.931 637.052 163.723 411.695 158.944 173.619 698.014
320.304 177.259 324.596 322.973 0.000 257.598 384.979 306.465 397.248 343.862 637.145 474.327 257.366 325.649 332.724 310.975 377.423 458.534 335.028 360.531 512.892 506.305 421.876 415.474 206.334 299.959 361.816 369.727 549.801 281.315 434.028 385.346 368.063 430.470 463.168 390.861 366.458 568.245 458.307 437.523 571.424 289.909 372.908 197.168 453.303 364.519 356.207 573.834 462.162 627.992 380.704 500.902 378.536 478.327 670.389 283.108 500.633 297.486 385.072 184.828 417.954 503.665 220.062 456.533 257.061 491.069 443.044 317.754 399.811 468.063 336.675 687.089 533.294 261.279 419.168 122.550 448.407 251.179 442.969 487.962 254.451 212.191 346.904 644.125 198.851 536.156 392.222 243.799 421.201 462.725 246.388 467.562 150.693 459.852 389.297 578.119 281.122 433.494 214.978 352.650 639.081
235.384 121.817 249.094 247.471 301.319 0.000 209.744 230.963 327.487 210.359 542.641 341.662 201.666 150.414 316.666 152.686 260.445 441.297 195.823 330.807 452.991 490.246 405.818 240.239 150.633 283.901 186.581 322.294 374.566 133.951 378.327 252.681 292.561 372.521 287.933 343.427 374.370 544.641 357.404 270.622 515.723 114.674 197.673 206.432 296.701 210.637 212.906 417.232 414.729 611.933 209.810 445.201 278.717 303.092 575.886 343.912 444.932 131.128 209.838 246.637 370.521 392.276 159.243 379.379 201.361 372.506 426.986 301.696 252.018 452.004 230.579 580.641 517.236 280.112 252.268 187.969 371.019 166.051 387.268 312.727 166.429 289.109 171.669 549.621 182.793 520.098 216.987 160.833 405.143 446.667 310.694 310.961 175.869 284.617 222.396 483.615 171.562 258.259 266.257 201.854 544.577
176.916 221.398 341.350 339.727 400.901 182.378 0.000 323.219 207.523 157.853 422.677 274.814 257.243 35.310 360.015 214.421 140.482 416.550 126.308 316.546 333.028 460.154 408.988 152.559 250.215 327.250 112.607 267.651 305.234 210.269 275.221 185.833 384.817 252.557 218.601 313.555 417.720 427.199 237.440 264.923 397.990 71.051 116.232 306.013 176.738 158.131 160.400 297.269 374.843 510.176 89.846 327.758 214.087 215.413 455.922 436.168 341.826 194.418 140.506 346.219 302.148 386.576 251.498 426.640 204.018 252.542 431.109 344.690 271.865 398.276 165.949 460.677 415.479 372.367 246.568 287.551 455.535 265.633 279.810 225.048 258.684 388.691 116.686 429.657 282.374 418.341 147.655 260.415 423.093 392.809 410.276 190.997 275.451 215.286 203.209 363.652 271.144 170.579 358.513 196.154 424.613
418.368 275.324 93.841 92.218 390.584 291.386 386.566 0.000 504.309 387.180 719.462 518.484 368.508 327.236 454.837 202.995 437.267 564.734 372.644 488.963 624.034 612.505 550.308 367.072 317.475 428.391 363.403 489.136 369.381 211.747 545.170 429.502 101.292 541.612 394.569 510.270 458.769 674.446 534.225 326.930 682.566 291.496 371.581 322.812 473.523 387.459 389.727 594.054 581.571 734.192 386.632 612.043 455.539 429.926 752.707 219.954 611.774 226.366 313.140 178.640 537.364 319.758 137.480 269.610 368.203 549.327 549.245 446.187 291.831 574.263 407.401 757.463 639.495 196.183 311.188 223.725 226.675 202.355 554.110 489.549 111.274 256.869 348.491 726.443 327.283 642.357 325.094 161.217 527.402 568.926 283.567 487.782 279.126 376.973 281.316 660.437 187.108 435.080 182.329 207.610 721.399
134.764 263.621 436.130 434.507 441.499 279.164 184.064 417.999 0.000 248.939 265.987 304.807 254.849 158.904 293.487 338.014 167.713 276.189 211.164 207.838 185.451 311.482 274.064 275.805 247.832 289.251 245.411 154.493 438.038 320.987 126.550 215.825 479.597 80.622 351.406 179.717 351.191 279.623 87.150 388.516 250.414 194.644 249.036 340.647 89.286 269.596 261.283 233.988 226.172 361.505 144.108 180.182 283.613 338.658 299.232 489.219 193.155 318.012 273.310 388.442 168.310 510.169 346.278 550.233 201.624 119.912 282.437 239.198 395.459 249.604 167.154 315.932 266.807 438.999 370.161 329.773 558.054 345.951 109.004 257.371 353.464 430.913 240.280 272.967 317.008 269.669 278.181 347.868 274.422 244.138 452.499 96.461 316.049 348.090 336.013 206.962 358.598 293.824 418.592 319.747 267.923
189.115 264.773 425.245 423.622 444.276 265.989 213.067 407.114 330.810 0.000 545.964 289.230 275.756 153.737 378.529 298.316 263.769 490.449 147.154 379.959 456.314 552.109 467.681 258.236 268.739 345.764 212.598 371.446 400.582 294.164 393.506 200.249 468.712 375.844 313.950 392.580 436.233 550.486 360.727 348.818 521.277 154.946 221.909 361.555 300.025 62.257 51.637 420.555 463.881 628.461 213.133 451.045 190.662 321.089 579.209 490.371 460.111 278.313 235.854 389.594 419.673 470.471 335.393 510.535 222.532 375.829 488.849 363.559 355.760 513.867 178.147 583.964 533.764 440.151 330.463 330.925 539.430 347.103 402.447 330.724 342.579 432.065 200.581 552.944 337.916 536.625 243.003 344.025 467.006 508.530 453.651 314.284 318.826 310.634 298.557 486.938 354.755 276.255 419.744 280.049 547.900
406.977 535.835 708.343 706.720 713.712 551.378 455.224 690.212 298.304 521.153 0.000 577.020 527.062 430.064 549.612 609.174 438.873 505.611 482.324 463.963 407.846 519.539 512.262 486.800 520.045 549.454 496.961 410.618 638.573 593.200 382.675 488.039 751.810 289.553 571.485 435.842 607.316 440.237 292.057 659.676 406.847 465.804 500.586 612.861 300.282 541.809 533.497 333.440 470.021 484.175 415.268 402.577 555.826 546.981 120.294 761.432 431.353 589.172 500.079 660.655 424.435 751.356 618.492 805.155 473.838 261.684 490.429 495.323 666.619 457.596 439.367 118.495 455.207 711.213 641.321 601.987 830.268 618.165 327.142 468.367 625.678 703.127 511.440 94.029 587.403 456.071 489.177 620.082 482.413 452.129 724.713 307.457 588.262 568.169 562.782 210.617 630.812 489.092 690.805 590.907 27.931
138.502 236.503 368.335 366.712 416.006 209.079 156.157 350.204 273.900 148.096 489.054 0.000 247.486 96.827 350.258 241.406 206.859 459.294 90.244 351.689 399.405 523.839 439.411 201.326 240.469 317.493 155.688 334.028 343.672 237.254 341.598 98.202 411.802 318.934 257.040 361.425 407.963 493.576 303.817 291.908 464.367 98.036 164.999 332.714 243.115 148.374 150.643 363.645 432.726 576.553 156.223 394.135 196.205 264.179 522.299 462.101 408.203 221.404 178.944 361.324 368.525 413.561 278.483 453.625 194.262 318.919 460.579 335.289 298.850 464.653 127.535 527.054 481.856 399.352 273.553 302.655 482.520 292.334 346.186 273.814 285.669 403.795 143.671 496.034 309.075 484.718 186.093 287.115 438.736 459.186 425.381 257.374 290.556 253.724 241.647 430.028 297.845 219.346 385.498 223.139 490.990
168.869 119.227 291.736 290.112 278.640 134.770 249.506 273.605 245.813 192.427 485.709 322.892 0.000 190.176 236.622 203.607 225.987 357.560 183.593 247.070 361.457 410.203 325.775 289.587 84.973 203.857 235.929 238.557 423.913 176.593 282.592 233.911 335.203 279.035 337.281 259.691 294.327 448.907 306.872 326.771 419.988 164.022 247.021 156.678 301.868 213.084 204.771 422.398 330.992 517.547 229.269 349.466 227.101 352.440 518.954 340.629 349.197 182.050 259.185 239.812 286.784 446.200 201.884 422.020 65.829 339.634 346.943 221.653 302.940 371.961 185.239 535.653 422.850 290.370 308.416 181.184 413.660 201.557 291.533 362.075 209.070 277.225 221.017 492.689 133.039 425.712 266.334 203.474 325.100 366.624 303.909 316.127 153.190 333.965 278.545 426.684 214.204 307.606 269.962 255.778 487.645
141.606 186.088 306.039 304.416 365.591 147.068 59.330 287.908 177.073 122.542 392.226 241.721 221.932 0.000 324.705 179.110 110.031 386.099 90.998 286.095 302.577 429.703 378.537 139.031 214.904 291.940 93.392 237.201 281.377 174.958 244.771 152.740 349.506 222.107 194.744 283.105 382.409 396.748 206.989 229.612 367.539 35.740 102.703 270.703 146.287 122.820 125.089 266.818 344.393 479.726 59.396 297.308 178.776 201.884 425.471 400.857 311.376 159.108 116.649 310.909 271.697 351.265 216.188 391.330 168.708 222.091 400.658 309.735 236.555 367.825 130.639 430.227 385.028 337.057 211.257 252.240 420.224 230.322 249.359 211.519 223.374 353.380 81.376 399.207 247.064 387.890 123.798 225.104 392.643 362.359 374.966 160.546 240.141 191.428 179.351 333.201 235.834 157.050 323.203 160.843 394.163
224.487 229.104 399.633 398.009 334.216 253.665 305.124 381.502 258.425 248.045 493.083 378.510 204.763 245.794 0.000 322.502 281.605 179.206 239.211 118.203 317.069 226.977 142.603 350.293 203.868 58.036 304.655 135.304 492.639 295.487 204.247 289.529 443.099 258.799 406.007 152.763 111.100 288.917 314.245 440.875 308.640 247.003 313.966 138.345 316.382 268.702 260.389 461.084 214.733 348.664 284.887 252.799 282.719 413.146 526.328 396.205 252.530 300.945 327.911 287.155 179.856 562.528 289.683 529.917 157.660 347.007 163.716 41.124 421.834 188.735 240.857 543.027 253.967 345.945 422.520 236.759 521.557 300.041 271.298 422.781 324.072 332.801 292.638 500.063 116.616 256.828 335.060 313.420 141.873 183.397 359.485 323.557 161.058 402.691 390.614 434.058 333.099 368.313 317.305 372.106 495.019
271.188 143.390 185.185 183.562 336.429 124.649 239.385 167.054 357.128 240.000 572.282 371.303 236.574 180.056 351.574 0.000 290.087 476.205 225.464 365.715 482.633 525.155 440.726 219.892 185.541 318.809 216.223 357.202 327.640 45.940 413.235 282.322 228.652 402.162 248.860 378.336 409.278 576.804 387.045 182.362 547.595 144.315 224.401 241.340 326.343 240.278 242.547 446.873 449.637 646.842 239.451 477.363 308.358 282.745 605.527 280.003 479.840 44.805 165.960 198.659 405.429 287.911 95.334 315.470 236.269 402.147 461.894 336.604 144.650 486.913 260.221 610.282 552.145 216.203 164.007 181.578 307.110 125.435 422.176 342.369 102.520 276.888 201.311 579.262 217.701 555.006 177.914 99.459 440.051 481.575 314.434 340.602 210.978 245.544 134.136 513.256 110.188 287.900 202.349 97.489 574.218
129.601 264.659 413.906 412.283 444.161 254.935 133.027 395.775 177.414 220.581 417.310 263.439 275.642 107.867 368.869 286.977 0.000 386.440 152.842 286.436 302.918 430.044 378.878 234.327 268.625 339.704 194.374 237.542 387.001 282.825 245.112 174.458 457.373 237.292 300.369 283.446 426.573 397.089 233.003 337.479 367.881 143.607 197.999 361.441 172.301 220.859 223.128 292.831 344.734 480.067 85.787 297.649 268.690 297.180 450.555 490.256 311.717 266.975 222.273 389.479 272.039 459.132 324.055 499.196 222.417 248.105 400.999 314.580 344.422 368.166 122.590 456.240 385.370 440.037 319.124 330.811 528.091 338.189 249.700 268.639 331.241 431.951 189.243 424.290 337.802 388.231 229.422 332.971 392.984 362.700 453.537 186.560 318.711 297.053 284.976 358.284 343.701 252.346 419.629 268.710 419.246
290.850 362.522 535.031 533.408 511.854 378.065 395.210 516.900 282.886 372.445 478.403 460.892 335.285 370.050 214.990 446.903 344.688 0.000 363.611 122.350 223.434 127.172 61.324 474.693 328.268 241.019 429.055 175.869 617.040 419.888 243.815 371.911 578.498 255.074 530.407 148.893 216.056 185.675 310.520 565.275 202.334 371.403 438.366 296.868 312.656 393.102 384.789 457.358 103.640 248.859 347.970 141.705 407.119 537.547 511.648 528.499 141.437 425.345 452.312 406.545 158.688 686.928 445.179 665.315 282.061 343.282 63.912 202.175 546.235 85.124 323.240 528.347 154.162 482.996 546.920 414.398 656.955 440.865 253.224 480.741 452.365 465.151 417.039 485.383 294.255 157.024 459.461 446.769 55.896 77.091 491.780 319.831 338.697 527.091 515.014 419.377 457.499 492.713 436.695 496.506 480.339
132.575 177.057 297.009 295.386 356.560 138.038 74.418 278.878 192.161 113.512 407.315 224.804 212.902 15.088 315.674 170.080 125.119 401.187 0.000 301.184 317.665 444.791 393.625 130.000 205.874 282.909 84.362 252.289 272.346 165.928 259.859 135.823 340.476 237.195 185.714 298.193 373.379 411.837 222.078 220.582 382.628 26.710 93.673 261.672 161.375 113.790 116.059 281.906 359.481 494.814 74.484 312.396 169.746 192.853 440.560 391.827 326.464 150.078 107.618 301.878 286.786 342.235 207.157 382.299 159.677 237.180 415.746 300.705 227.524 382.913 121.608 445.315 400.117 328.026 202.227 243.210 411.194 221.292 264.447 202.488 214.343 344.350 72.345 414.295 238.033 402.979 114.767 216.074 404.152 377.447 365.935 175.635 231.110 182.398 170.321 348.289 226.803 148.020 314.172 151.813 409.251
168.499 240.172 412.681 411.057 393.180 255.715 272.860 394.550 187.136 250.095 421.794 338.542 212.935 247.700 142.239 324.553 222.338 183.018 241.261 0.000 249.455 279.976 175.456 352.343 205.918 142.082 306.705 64.015 494.690 297.538 132.958 249.561 456.148 187.510 408.057 85.149 199.944 310.396 242.956 442.925 298.168 249.053 316.016 210.053 245.093 270.752 262.439 389.795 156.450 374.734 225.620 227.646 284.769 415.196 455.039 455.169 227.377 302.995 329.961 354.352 112.242 564.578 322.829 542.965 159.710 275.718 216.716 87.951 423.885 209.845 200.889 471.738 280.037 404.909 424.570 295.723 534.605 318.514 200.009 400.814 330.015 391.765 294.688 428.774 180.031 282.899 337.111 324.419 206.608 201.812 418.449 252.268 220.022 404.741 392.664 362.769 335.149 370.363 384.502 374.156 423.730
246.829 375.686 548.195 546.571 552.737 391.229 306.859 530.064 186.335 361.004 375.456 416.871 366.087 281.699 345.093 460.066 290.508 216.301 333.959 210.980 0.000 251.594 214.175 385.273 359.070 344.936 368.207 214.871 560.834 433.051 193.351 327.890 591.661 141.172 469.958 173.328 373.294 203.931 196.618 511.311 138.896 317.439 371.832 417.358 198.755 381.660 373.348 343.457 171.934 295.933 266.904 104.490 395.678 448.126 408.701 601.283 133.266 438.509 396.105 500.507 154.532 632.964 458.343 673.029 312.863 229.380 222.549 290.805 518.254 189.716 279.219 425.400 206.919 551.064 492.956 441.838 670.119 458.016 139.322 366.840 465.529 542.978 363.075 382.436 382.885 209.781 387.650 459.933 214.533 184.249 564.564 205.930 427.287 466.642 458.808 316.430 470.663 403.293 530.656 442.542 377.392
371.381 474.616 621.823 620.200 579.728 493.588 432.509 603.692 309.770 485.556 480.516 541.424 450.275 407.348 277.520 562.425 416.158 141.625 459.608 237.872 250.317 0.000 176.846 526.058 443.790 303.549 493.856 291.391 686.483 535.410 299.803 452.442 665.290 281.957 599.850 258.036 276.295 150.171 337.403 636.960 204.447 443.088 497.481 359.398 339.539 506.213 497.900 484.242 217.422 133.611 392.553 151.962 520.230 588.911 513.761 591.029 168.320 540.867 521.755 469.075 252.658 758.614 535.196 752.108 397.583 359.516 107.680 286.637 643.903 106.465 403.771 530.461 72.739 545.526 618.606 482.272 743.748 545.553 280.107 507.625 567.887 527.681 488.724 487.496 362.129 75.601 528.435 558.933 118.426 122.919 554.310 346.714 406.571 596.534 584.457 421.491 573.021 544.077 499.225 568.192 482.452
254.457 326.129 498.638 497.015 475.461 341.672 358.817 480.507 261.600 336.052 470.726 424.499 298.892 333.657 204.821 410.510 308.295 73.864 327.218 85.957 204.803 168.008 0.000 438.300 291.875 219.913 392.662 139.475 580.647 383.495 207.422 335.518 542.105 236.442 494.014 112.500 205.888 201.243 291.888 528.882 193.596 335.010 401.973 286.700 294.025 356.709 348.396 438.727 85.009 265.581 311.577 123.074 370.726 501.154 503.971 518.331 122.805 388.952 415.919 396.377 122.295 650.535 408.786 628.922 245.668 324.650 104.748 165.782 509.842 100.692 286.847 520.670 170.883 472.828 510.527 378.005 620.562 404.471 234.592 462.110 415.972 454.983 380.646 477.706 257.862 173.745 423.068 410.376 82.905 92.658 481.611 301.200 302.304 490.698 478.621 411.700 421.106 456.320 426.527 460.113 472.662
287.153 311.647 410.905 409.281 491.150 272.627 212.273 392.774 321.345 268.090 461.127 387.269 367.480 186.765 470.252 283.976 268.932 537.428 236.545 442.107 430.887 572.721 534.549 0.000 340.463 437.487 149.058 393.212 216.925 300.517 400.782 298.287 454.371 312.594 140.162 439.116 527.957 525.058 285.562 280.220 495.850 173.272 152.683 396.262 224.860 268.368 270.637 307.085 493.062 617.061 219.452 425.618 324.324 67.906 506.295 505.722 454.394 277.302 119.594 424.379 427.709 351.741 321.053 405.540 314.255 291.368 543.676 455.283 341.420 510.843 276.186 479.048 528.046 441.922 287.188 377.799 498.577 355.881 350.183 142.791 328.239 478.939 169.651 480.030 372.623 530.908 109.623 341.655 535.661 505.377 500.525 239.119 365.699 136.846 182.297 414.025 352.385 83.498 428.068 265.708 463.063
166.910 99.218 281.365 279.742 246.607 124.400 247.548 263.234 243.855 190.469 483.751 320.934 103.973 188.218 261.752 193.237 224.029 377.577 181.635 267.088 359.499 435.333 350.905 279.216 0.000 228.987 225.558 258.574 413.543 166.222 280.634 231.952 324.832 277.076 326.910 279.708 319.457 446.948 304.913 316.401 418.030 153.651 236.650 151.518 299.909 211.125 202.813 420.440 351.009 515.589 227.310 347.508 225.142 342.069 516.996 308.596 347.239 171.679 248.814 207.779 306.801 435.830 191.513 411.649 103.667 337.675 372.073 246.783 292.569 397.091 183.281 533.695 420.892 258.337 298.046 149.151 403.290 170.155 289.575 351.704 198.699 245.192 210.646 490.731 127.879 423.754 255.964 193.104 350.230 391.754 271.877 314.169 121.157 323.594 268.174 424.725 203.833 297.235 237.929 245.408 485.687
261.206 238.112 408.641 407.018 337.515 290.385 341.844 390.510 321.837 284.765 556.496 415.230 231.461 282.514 146.135 359.222 318.325 256.033 275.931 184.742 383.608 303.804 246.087 387.013 240.253 0.000 341.375 198.716 529.359 332.207 267.660 326.248 452.108 322.212 442.726 219.302 150.067 365.744 377.658 477.594 385.467 283.722 350.685 122.990 379.795 305.421 297.109 514.736 289.691 425.491 321.606 332.982 319.438 449.866 589.741 393.754 349.340 337.664 364.631 271.800 246.395 582.293 298.691 538.925 194.380 410.420 240.543 141.965 458.554 265.562 277.577 606.440 330.794 348.251 459.239 239.152 530.565 309.049 334.711 459.501 333.080 330.406 329.358 563.476 125.625 333.655 371.780 322.428 218.700 260.224 357.034 386.970 170.067 439.411 427.333 497.470 349.957 405.032 301.949 408.825 558.432
198.137 222.631 326.677 325.053 402.133 183.611 157.078 308.546 274.821 179.073 489.975 298.252 278.463 97.748 381.236 199.748 207.780 483.847 147.529 382.667 400.325 527.452 470.388 84.493 251.447 348.471 0.000 334.949 200.094 211.501 342.519 209.271 370.143 319.855 113.461 380.853 438.940 494.497 294.250 195.992 465.288 84.256 11.092 307.246 233.548 179.352 181.620 354.079 442.141 577.474 157.144 395.056 235.307 147.347 523.220 421.494 409.124 193.074 35.366 340.151 369.446 286.643 236.825 340.442 225.239 309.352 491.556 366.266 257.192 465.574 187.170 517.487 482.777 357.694 202.960 288.783 433.479 266.865 347.107 215.305 244.011 389.923 80.634 496.955 283.607 485.639 42.515 257.427 469.713 460.107 411.509 247.807 276.683 110.146 98.069 430.949 268.157 160.837 343.840 181.480 491.911
164.777 254.758 427.267 425.644 409.907 270.301 241.571 409.136 150.065 264.681 384.724 334.819 227.521 216.410 159.978 339.139 218.615 174.333 255.847 74.329 230.846 271.291 166.771 342.870 220.504 159.820 302.918 0.000 495.545 312.124 95.888 245.838 470.734 150.440 408.912 76.464 217.682 301.711 205.886 446.023 284.063 252.151 306.543 226.781 208.023 285.338 277.025 352.725 147.765 366.049 201.615 213.540 299.355 405.723 417.969 471.896 213.271 317.581 330.817 371.079 98.137 567.676 337.415 557.551 174.297 238.648 208.031 105.689 438.471 201.160 197.167 434.668 271.352 421.637 427.668 312.451 549.191 335.242 162.939 363.744 344.601 408.492 297.786 391.704 197.769 274.214 337.966 339.005 200.015 193.127 435.176 215.198 236.750 405.596 393.519 325.698 349.735 360.890 401.229 377.254 386.660
389.351 413.845 342.052 340.429 593.347 374.825 348.292 345.438 458.983 370.288 581.722 489.467 469.678 288.963 572.450 336.818 398.994 675.062 338.743 573.881 568.525 710.359 661.602 213.443 442.661 539.685 218.225 526.163 0.000 369.945 533.733 400.485 407.036 450.232 170.317 572.067 630.155 662.696 423.200 308.778 632.248 275.470 224.868 498.460 362.497 370.566 372.835 420.300 630.700 754.699 348.358 563.256 426.521 236.961 626.634 458.387 592.032 330.144 172.436 385.212 560.660 260.063 344.051 313.863 416.453 415.905 681.314 557.481 369.226 648.481 378.384 599.643 665.684 402.755 340.031 430.296 406.900 408.926 487.821 326.577 317.845 463.440 271.848 600.369 474.821 668.546 171.465 367.788 660.928 643.015 500.986 376.757 467.897 167.002 235.139 534.364 393.679 273.074 388.901 257.014 583.658
242.185 97.450 191.504 189.881 290.489 114.915 235.607 173.373 330.516 236.222 568.504 367.525 190.634 176.277 305.634 45.940 286.308 430.265 221.686 319.775 446.160 479.215 394.786 253.019 139.601 272.869 212.444 311.262 360.766 0.000 367.295 278.544 234.971 363.738 281.987 332.396 363.338 533.610 383.267 215.489 504.692 140.537 223.536 195.400 322.564 236.500 238.769 443.095 403.697 600.902 235.673 434.169 300.417 315.872 601.748 286.322 433.900 55.866 199.086 204.978 359.489 321.038 101.652 321.788 190.329 398.369 415.954 290.664 177.777 440.973 256.442 606.504 506.205 222.521 197.134 187.897 313.428 108.461 376.236 338.590 108.838 283.206 197.532 575.484 171.761 509.066 211.041 103.242 394.111 435.635 315.758 336.824 165.038 278.671 167.263 509.478 113.972 284.122 208.667 130.616 570.440
177.846 306.703 479.212 477.589 467.256 322.247 238.974 461.081 116.235 292.021 350.894 347.889 280.606 213.814 245.944 391.084 222.623 247.243 266.074 160.296 199.032 305.100 239.681 340.273 273.589 245.787 300.321 106.951 492.948 364.069 0.000 258.907 522.679 116.610 406.315 132.175 303.649 286.482 172.056 443.426 257.564 249.554 303.946 312.747 174.193 312.678 304.366 318.895 200.869 355.122 199.018 187.041 326.695 403.126 384.138 529.245 186.772 369.527 328.220 428.428 120.768 565.079 389.361 605.143 227.381 204.818 276.055 191.656 450.368 243.222 210.236 400.838 260.425 478.986 425.071 369.800 601.137 389.034 129.108 342.278 396.547 465.841 295.189 357.874 283.736 263.287 335.369 390.951 268.039 237.755 492.525 181.368 322.716 403.000 390.923 291.868 401.680 358.293 458.578 374.657 352.830
95.984 231.041 403.550 401.927 410.544 246.584 139.993 385.419 257.735 147.039 472.889 88.981 242.024 114.832 344.797 289.367 182.871 416.775 133.368 316.772 383.240 499.951 409.214 249.287 235.007 312.032 203.649 297.773 391.634 285.215 315.019 0.000 447.017 302.769 305.001 318.906 402.501 477.411 287.652 339.869 448.202 145.997 212.960 327.823 226.950 167.696 159.383 347.481 390.208 549.974 140.058 377.971 186.125 312.140 506.134 456.639 381.624 269.365 226.905 355.862 341.946 461.522 313.698 501.586 188.800 302.754 450.474 329.827 346.812 438.073 85.016 510.889 455.277 406.419 321.514 297.193 525.474 313.371 323.960 315.799 320.884 398.333 191.632 479.869 304.184 458.138 234.055 315.288 433.274 432.607 419.919 241.209 285.094 301.685 289.608 413.864 326.018 267.307 386.012 271.100 474.825
441.941 298.897 99.729 98.106 414.157 314.958 410.138 116.375 527.881 410.753 743.035 542.056 392.081 350.808 478.409 226.567 460.839 588.307 396.217 512.536 647.607 636.078 573.881 390.645 341.048 451.963 386.975 512.708 392.953 235.319 568.742 453.075 0.000 565.184 418.141 533.842 482.341 698.018 557.798 350.502 706.138 315.068 395.153 346.385 497.096 411.031 413.300 617.626 605.143 757.765 410.204 635.616 479.111 453.498 776.280 243.526 635.347 249.938 336.712 202.212 560.936 332.346 161.052 248.719 391.775 572.900 572.817 469.759 315.403 597.836 430.973 781.035 663.067 219.756 334.760 247.297 144.283 225.927 577.683 513.121 134.846 280.441 372.063 750.015 350.855 665.929 348.666 184.789 550.974 592.498 307.139 511.355 302.698 400.545 304.889 684.009 210.680 458.653 205.902 231.182 744.971
182.688 311.546 484.054 482.431 472.632 327.089 242.719 465.923 103.303 296.864 290.252 352.731 285.982 217.559 288.985 395.926 226.368 246.290 269.819 203.337 139.749 281.583 244.165 300.070 278.965 288.828 304.066 149.992 478.077 368.911 122.048 263.750 527.521 0.000 384.754 175.216 346.690 233.920 111.415 447.171 204.711 253.299 307.691 355.788 113.551 317.520 309.208 258.254 201.924 325.923 202.763 134.480 331.537 362.923 323.497 534.621 163.256 374.369 313.348 433.805 163.809 564.625 394.203 608.888 232.758 144.177 252.538 234.697 454.114 219.705 215.078 340.197 236.908 484.362 428.816 375.176 605.979 393.876 63.302 281.636 401.389 471.218 298.935 297.233 326.777 239.770 302.447 395.793 244.523 214.239 497.902 120.726 347.182 381.439 376.051 231.227 406.523 318.089 463.954 378.402 292.189
313.307 337.800 323.285 321.662 517.303 298.780 272.248 326.671 382.939 294.243 544.307 413.422 393.633 212.918 496.406 247.848 322.949 599.017 262.699 497.836 492.481 634.315 585.558 137.398 366.617 463.641 142.181 450.119 154.748 280.975 457.689 324.441 388.268 374.187 0.000 496.023 554.110 586.652 347.155 244.092 557.443 199.426 148.824 422.415 286.453 294.521 296.790 406.984 554.655 678.655 272.314 487.211 350.477 200.251 577.552 439.619 515.987 241.174 83.466 366.444 484.616 241.296 284.925 295.096 340.409 362.257 605.270 481.436 305.292 572.437 302.340 570.392 589.640 383.987 251.061 371.170 388.132 331.503 411.776 268.210 292.111 444.673 195.804 551.287 398.776 592.502 95.420 305.527 584.883 566.970 482.218 300.712 391.853 20.050 146.169 485.281 316.257 213.742 370.133 229.581 546.243
212.259 288.188 460.697 459.074 437.520 303.731 290.703 442.566 173.219 298.111 407.877 382.301 260.951 265.542 182.130 372.569 266.097 136.156 289.277 48.016 179.314 233.114 128.594 392.002 253.934 181.972 352.050 74.024 542.706 345.554 119.041 293.320 504.164 173.593 456.073 0.000 239.834 256.946 229.039 490.941 228.028 297.069 355.675 254.394 231.176 318.768 310.455 375.878 100.603 325.587 250.747 157.506 332.785 454.855 441.122 499.509 157.237 351.011 377.978 398.692 42.102 612.594 370.845 590.981 207.727 261.802 169.854 127.841 471.901 162.983 244.649 457.821 230.890 449.250 472.586 340.064 582.622 366.531 176.873 399.261 378.031 436.105 342.705 414.857 219.921 233.752 385.127 372.435 161.838 154.950 462.790 238.351 264.363 452.757 440.680 348.852 383.165 410.022 428.842 422.172 409.813
295.733 300.350 444.259 442.636 390.445 324.911 376.370 426.128 329.670 319.291 564.329 449.756 276.008 317.040 103.253 393.748 352.851 213.150 310.457 189.449 388.315 256.111 213.848 421.539 275.113 129.282 375.901 206.550 563.885 366.733 275.493 360.774 487.726 330.045 477.252 224.009 0.000 307.931 385.491 512.121 342.585 318.248 385.212 185.131 387.628 339.947 331.635 532.330 285.979 372.269 356.132 290.099 353.965 484.392 597.574 404.246 306.457 372.191 399.157 294.808 251.102 621.209 360.929 576.196 228.906 418.253 197.661 112.370 493.080 207.749 312.103 614.273 277.572 371.259 493.766 308.005 568.070 371.287 342.544 494.027 395.318 340.056 363.884 571.309 187.862 280.434 406.306 384.666 175.818 217.342 367.526 394.803 232.304 473.937 461.860 505.303 404.345 439.558 324.958 443.352 566.265
371.046 499.903 664.056 662.433 615.093 515.447 431.077 645.925 310.552 485.221 421.556 541.089 490.305 405.917 319.753 584.284 414.726 189.703 458.177 285.950 236.277 136.013 224.924 509.491 483.288 345.782 492.424 339.104 685.051 557.269 317.585 452.107 707.523 265.390 594.175 283.618 300.328 0.000 320.836 635.529 156.803 441.657 496.049 401.631 322.972 505.878 497.565 435.581 232.853 92.003 391.121 140.279 519.895 572.344 462.537 628.894 191.660 562.726 520.323 511.308 278.239 757.182 577.428 794.341 437.080 308.292 165.242 328.870 642.471 114.630 403.436 462.685 64.576 587.759 617.174 524.505 785.981 582.233 250.890 491.057 589.747 564.704 487.292 436.272 404.362 65.440 511.868 584.151 166.504 136.220 592.174 330.147 448.804 590.860 583.026 370.267 594.880 527.510 541.458 566.760 423.492
199.554 328.411 500.919 499.296 506.288 343.954 247.800 482.789 90.881 313.729 218.351 369.596 319.638 222.640 342.188 401.750 231.449 306.964 274.900 256.539 200.422 342.257 304.838 276.759 312.621 342.030 289.489 203.194 454.766 385.776 175.251 280.615 544.386 82.129 361.444 228.418 399.892 293.143 0.000 450.664 259.753 258.380 293.114 405.437 90.241 334.385 326.073 221.104 262.597 385.145 207.844 195.153 348.403 339.613 251.596 554.008 223.929 381.748 290.038 453.232 217.011 541.315 411.068 595.114 266.414 68.500 313.212 287.899 459.195 280.378 231.944 268.295 297.582 503.789 433.897 394.563 622.844 410.741 119.718 258.326 418.254 495.703 304.016 225.331 379.979 300.444 279.136 412.658 305.196 274.912 517.289 97.416 380.838 358.129 352.741 159.325 423.388 294.779 483.381 383.483 220.287
482.163 459.571 438.669 437.046 641.984 427.709 450.361 438.289 568.103 450.975 757.689 582.278 550.365 391.031 653.137 351.802 501.062 765.058 436.439 654.568 693.608 820.734 742.290 350.781 501.722 620.373 348.646 628.231 458.528 384.929 635.801 493.297 499.886 587.570 379.749 667.189 710.842 787.779 560.538 0.000 758.570 355.291 355.289 557.521 499.835 451.253 453.522 620.366 735.423 870.756 450.426 688.339 519.333 413.634 790.934 551.237 702.406 345.129 296.848 469.894 662.728 434.535 388.880 482.408 497.141 575.640 763.458 638.168 380.560 758.856 471.196 783.775 776.059 487.437 352.201 475.124 527.729 435.458 625.159 481.593 373.754 548.122 402.269 764.670 533.881 778.921 308.803 409.482 741.615 753.389 585.668 514.095 527.159 376.433 265.025 698.664 420.212 427.124 473.583 268.348 759.626
326.775 455.632 628.140 626.517 627.159 471.175 386.805 610.009 266.280 440.950 376.857 496.817 440.508 361.645 339.025 540.012 370.454 203.130 413.905 262.057 162.992 217.057 212.484 463.223 433.491 365.054 448.153 285.137 635.974 512.997 266.171 407.836 671.607 219.122 547.908 224.404 338.692 145.428 274.568 591.257 0.000 397.385 451.778 420.903 276.705 461.606 453.294 383.146 187.001 237.431 346.849 80.194 475.623 526.076 410.101 652.534 131.575 518.455 476.051 530.580 219.026 712.910 538.289 752.975 387.284 255.856 187.947 341.881 598.200 155.114 359.165 426.801 158.034 607.031 572.902 521.784 750.065 537.962 164.244 444.790 545.475 589.186 443.021 383.837 423.634 158.898 465.600 539.879 179.931 149.647 615.815 283.880 468.076 544.592 538.754 317.831 550.609 481.242 560.730 522.488 378.793
134.998 150.348 270.299 268.676 329.850 111.328 95.070 252.168 212.813 115.217 427.967 235.113 214.607 35.740 317.380 143.370 145.771 421.839 84.390 318.811 338.317 465.443 406.532 137.538 179.164 284.615 83.880 272.941 271.865 139.218 280.511 146.132 313.766 257.847 185.232 318.845 375.084 432.488 242.730 193.872 403.280 0.000 94.973 234.963 182.027 115.496 117.764 302.558 380.133 515.466 95.136 333.048 172.168 200.391 461.211 365.117 347.116 123.368 107.137 275.169 307.438 315.525 180.448 355.589 161.383 257.831 427.700 302.410 200.815 403.565 124.031 465.967 420.769 301.317 175.517 216.500 384.484 194.582 285.099 210.026 187.634 317.640 68.968 434.947 211.324 423.630 114.286 189.364 405.857 398.099 339.226 196.287 204.400 181.916 145.646 368.941 200.094 155.558 287.462 125.103 429.903
211.875 236.368 315.584 313.961 415.871 197.348 170.816 297.453 288.559 192.811 480.310 311.990 292.201 111.486 394.974 188.655 221.517 497.585 161.267 396.404 414.063 541.189 484.126 73.401 265.185 362.209 40.749 348.687 189.002 221.782 356.257 223.009 359.051 310.190 102.369 394.591 452.678 508.235 283.158 184.900 479.026 97.994 0.000 320.983 222.456 193.090 195.358 342.986 455.879 591.212 170.882 408.794 249.045 136.254 513.555 410.402 422.862 181.982 24.274 329.058 383.184 275.550 225.733 329.350 238.977 298.260 505.294 380.004 246.100 479.311 200.908 506.395 496.515 346.602 191.868 302.521 422.386 272.311 347.779 204.213 232.919 403.661 94.372 487.290 297.344 499.376 31.423 246.335 483.451 473.845 425.246 236.715 290.421 99.054 86.976 421.284 257.065 149.745 332.748 170.388 482.246
264.131 148.019 301.757 300.134 241.552 221.620 344.768 283.626 341.075 287.689 580.971 418.154 155.679 285.439 168.936 285.648 321.249 278.833 278.855 220.190 414.825 326.604 279.532 376.436 150.160 159.618 322.778 229.386 510.763 249.093 298.329 329.173 345.224 352.881 424.130 250.520 172.867 388.545 402.134 413.621 408.268 250.871 333.871 0.000 397.130 308.346 300.033 517.660 321.821 448.291 324.531 355.782 322.363 439.289 614.216 270.963 372.140 265.263 346.035 149.009 277.613 475.410 207.944 432.042 166.201 434.896 263.344 177.413 386.152 288.362 280.501 630.916 353.594 225.460 395.266 143.189 423.682 218.956 365.380 448.924 242.333 207.615 307.867 587.951 58.510 356.456 353.184 231.681 241.501 283.025 234.244 411.389 79.319 420.815 365.394 521.946 259.865 394.456 179.159 338.991 582.907
204.070 332.927 492.703 491.079 508.718 333.731 211.823 474.572 146.764 306.662 308.132 349.520 322.068 186.663 385.635 365.774 195.472 362.847 238.923 303.203 256.306 398.140 360.721 214.481 315.051 356.470 227.211 254.308 392.488 361.621 231.134 260.539 536.169 138.013 299.166 284.302 443.340 350.477 110.980 388.386 321.268 222.403 230.836 407.867 0.000 306.940 309.209 194.503 318.480 442.480 171.868 251.037 352.919 277.334 341.377 558.525 279.812 345.771 227.760 457.748 272.895 479.037 402.851 532.836 268.844 126.082 369.095 331.347 423.218 336.262 227.146 335.732 353.465 508.306 395.355 399.080 606.887 415.257 175.602 196.048 410.037 500.220 247.804 315.112 384.228 356.327 216.858 411.767 361.079 330.795 521.805 64.537 383.268 295.850 290.463 249.107 422.497 232.501 487.898 347.506 310.068
139.746 215.405 375.877 374.253 394.908 216.621 163.699 357.746 281.442 106.620 496.596 239.862 226.388 104.369 329.160 248.948 214.400 441.080 97.786 330.591 406.946 502.741 418.313 208.868 219.371 296.395 163.230 322.078 351.214 244.795 344.137 150.880 419.343 326.476 264.581 343.211 386.865 501.117 311.359 299.449 471.909 105.577 172.541 312.187 250.656 0.000 2.269 371.187 414.513 579.092 163.765 401.677 141.293 271.721 529.840 441.003 410.742 228.945 186.486 340.226 370.305 421.103 286.025 461.167 173.164 326.460 439.481 314.191 306.392 464.499 128.779 534.596 484.395 390.783 281.094 281.557 490.061 297.735 353.078 281.356 293.211 382.697 151.213 503.576 288.548 487.257 193.635 294.657 417.638 459.162 404.283 264.915 269.457 261.266 249.189 437.570 305.387 226.887 370.375 230.680 498.532
137.478 213.136 373.608 371.985 392.639 214.352 161.430 355.477 279.173 104.351 494.327 237.593 224.119 102.100 326.892 246.679 212.132 438.812 95.517 328.322 404.677 500.472 416.044 206.599 217.102 294.127 160.961 319.809 348.945 242.527 341.869 148.612 417.075 324.207 262.313 340.943 384.596 498.849 309.090 297.181 469.640 103.309 170.272 309.918 248.388 125.007 0.000 368.918 412.244 576.824 161.496 399.408 139.025 269.452 527.572 438.734 408.474 226.676 184.217 337.957 368.036 418.834 283.756 458.898 170.895 324.192 437.212 311.922 304.123 462.230 126.511 532.327 482.127 388.514 278.826 279.288 487.793 295.466 350.810 279.087 290.942 380.428 148.944 501.307 286.279 484.988 191.366 292.388 415.369 456.893 402.014 262.647 267.189 258.997 246.920 435.301 303.118 224.618 368.107 228.412 496.263
371.478 500.335 660.111 658.487 676.126 501.139 379.232 641.980 313.310 474.070 327.326 516.928 489.476 354.071 553.043 533.182 362.881 529.393 406.331 470.611 422.852 563.404 527.267 365.575 482.459 523.878 378.304 421.716 455.507 529.029 397.680 427.947 703.578 304.558 418.971 450.848 610.748 484.102 275.005 539.480 450.711 389.811 381.929 575.275 241.590 474.348 476.617 0.000 485.026 576.104 339.276 417.582 520.327 369.621 388.205 725.933 446.358 513.179 378.853 625.156 439.440 596.030 570.259 649.829 436.252 245.593 534.293 498.755 590.626 501.460 394.554 345.247 499.072 675.714 546.448 566.488 742.866 582.665 342.147 309.846 577.445 667.628 398.897 361.940 551.636 499.936 367.951 579.175 526.278 495.994 689.213 253.448 550.676 415.655 441.556 301.165 589.905 311.733 655.306 514.915 329.262
276.836 364.378 536.887 535.264 513.710 379.922 337.964 518.756 220.480 374.302 432.807 446.879 337.141 312.804 258.320 448.759 321.613 89.925 365.064 124.207 171.778 186.884 87.800 439.263 330.124 258.162 399.311 147.287 591.938 421.744 166.302 357.897 580.354 198.523 505.305 86.554 275.768 213.344 253.969 542.416 184.426 348.544 402.936 330.584 256.106 394.958 386.646 400.808 0.000 281.642 298.008 113.903 408.976 502.116 466.052 575.700 113.634 427.202 427.210 466.257 81.176 664.069 447.036 667.172 283.917 286.731 123.624 204.031 548.091 116.753 309.226 482.751 186.945 525.440 524.061 416.254 658.812 442.721 196.673 424.191 454.222 512.296 394.179 439.787 296.111 189.806 434.359 448.626 115.608 98.390 538.980 263.281 340.553 501.990 489.913 373.781 459.355 457.283 496.407 473.647 434.743
455.922 584.779 748.932 747.308 699.969 600.322 515.953 730.801 395.428 570.097 473.830 625.964 575.180 490.792 404.628 669.160 499.602 274.578 543.052 370.826 321.153 205.350 309.800 594.366 568.163 430.657 577.300 423.980 769.927 642.145 402.460 536.983 792.399 350.265 679.051 368.802 385.203 126.931 405.711 720.405 241.679 526.532 580.925 486.507 407.848 590.754 582.441 520.457 317.728 0.000 475.997 225.155 604.771 657.219 520.549 713.769 276.536 647.602 605.199 596.183 363.423 842.058 662.304 879.216 521.956 393.167 250.118 413.745 727.347 199.506 488.312 514.960 149.760 672.634 702.050 609.381 870.856 667.109 335.766 575.933 674.622 649.580 572.168 494.285 489.238 150.624 596.743 669.026 251.380 221.096 677.049 415.023 533.680 675.735 667.901 431.412 679.756 612.386 626.333 651.636 475.766
123.913 228.087 348.038 346.415 407.590 189.067 67.159 329.907 152.269 164.541 378.017 226.515 263.931 41.999 343.724 221.109 85.228 361.296 115.918 261.292 277.774 404.900 353.734 178.581 256.903 314.559 135.391 212.398 323.376 216.957 219.967 137.533 391.505 207.898 236.743 258.302 401.429 371.945 192.780 271.611 342.736 77.739 142.254 312.702 132.078 164.819 167.088 252.609 319.589 454.922 0.000 272.505 220.775 241.435 411.262 442.856 286.572 201.107 158.648 352.908 246.894 393.264 258.187 433.328 210.707 207.882 375.855 289.436 278.554 343.022 110.990 416.017 360.225 379.056 253.256 294.239 462.223 272.321 224.556 228.416 265.373 395.379 123.375 384.998 289.063 363.087 165.797 267.103 367.839 337.555 416.965 146.337 282.139 233.427 221.350 318.992 277.833 196.601 365.202 202.842 379.953
246.581 375.438 547.947 546.324 546.965 390.981 306.612 529.816 186.087 360.756 375.208 416.624 360.315 281.451 278.745 459.819 290.261 134.416 333.711 181.863 104.334 156.777 132.290 385.025 353.298 304.774 367.959 204.944 560.586 432.804 185.977 327.642 591.414 140.924 469.710 144.211 278.412 99.440 196.371 511.064 93.128 317.192 371.584 360.623 198.507 381.413 373.100 343.209 106.807 191.443 266.656 0.000 395.430 447.879 408.453 592.254 51.381 438.261 395.858 470.300 138.832 632.717 458.095 672.781 307.090 229.133 127.667 261.688 518.006 94.834 278.971 425.153 112.046 546.751 492.709 441.590 669.871 457.768 139.075 366.592 465.281 528.906 362.827 382.188 353.768 112.910 387.402 459.685 119.651 89.367 555.535 205.682 398.210 466.395 458.560 316.183 470.415 403.045 500.450 442.295 377.144
140.376 262.389 422.861 421.238 441.892 263.606 199.528 404.730 317.271 153.604 532.425 255.634 273.372 151.354 376.145 295.932 242.407 461.168 144.770 361.165 438.276 544.344 453.606 255.852 266.355 343.380 210.214 342.165 398.199 291.780 359.411 166.653 466.328 355.854 311.566 363.299 433.849 525.726 347.188 346.434 496.808 152.562 219.525 359.171 286.485 174.261 165.948 407.016 434.600 594.366 199.594 426.285 0.000 318.705 565.669 487.987 426.016 275.930 233.470 387.210 386.338 468.087 333.009 508.151 220.148 362.289 486.465 361.175 353.376 482.466 137.598 570.425 499.669 437.767 328.079 328.542 537.046 344.719 368.352 328.340 340.195 429.682 198.197 539.405 335.532 502.531 240.619 341.642 464.622 476.999 451.267 300.745 316.442 308.250 296.173 473.399 352.371 273.872 417.360 277.665 534.361
350.928 375.421 428.055 426.432 554.924 336.401 289.315 409.924 398.387 331.864 506.440 451.043 431.254 250.539 534.026 301.126 345.974 614.470 300.319 519.148 507.929 649.763 611.590 152.847 404.238 501.262 179.802 470.254 245.446 334.253 477.824 362.062 471.522 389.636 157.312 516.158 591.731 588.779 362.604 297.371 553.024 237.047 186.445 460.036 301.901 332.142 334.411 352.398 570.104 680.782 296.494 502.660 388.098 0.000 551.608 522.873 531.435 294.453 136.745 441.529 504.751 377.015 338.204 430.814 378.030 336.681 620.718 519.057 358.571 587.885 339.960 524.361 601.384 459.073 304.339 424.448 523.851 384.782 427.225 247.353 345.390 519.758 233.425 525.343 436.397 602.249 126.773 358.806 612.703 582.419 557.303 316.161 429.474 153.997 199.447 459.338 369.535 193.851 445.218 282.859 508.376
402.911 531.768 704.277 702.654 709.646 547.312 451.158 686.146 294.238 517.086 147.581 572.954 522.996 425.998 545.545 605.108 434.807 501.545 478.258 459.897 403.780 515.473 508.196 482.734 515.979 545.388 492.895 406.552 634.507 589.134 378.608 483.972 747.744 285.487 567.419 431.776 603.250 436.171 287.991 655.610 402.781 461.738 496.520 608.795 296.216 537.743 529.430 373.832 465.955 486.498 411.202 398.511 551.760 542.914 0.000 757.366 427.286 585.106 496.013 656.589 420.369 747.289 614.426 801.089 469.771 257.617 486.363 491.257 662.552 453.530 435.301 108.611 451.141 707.147 637.255 597.921 826.202 614.098 323.076 464.301 621.612 699.061 507.373 53.095 583.337 452.005 485.111 616.016 478.347 448.063 720.646 303.391 584.196 564.103 558.715 206.550 626.745 485.026 686.739 586.841 149.517
411.111 258.762 231.589 229.966 309.084 339.101 466.482 213.458 498.127 434.669 738.023 565.134 358.245 407.153 388.422 295.847 478.301 498.320 425.835 461.410 613.771 546.090 499.018 459.925 307.212 400.837 443.320 470.605 463.296 304.599 534.906 476.153 255.215 531.349 488.484 491.739 392.354 608.031 559.186 420.746 627.754 371.412 454.412 256.397 553.440 455.326 447.013 673.971 563.040 667.777 466.548 575.269 469.343 522.778 771.268 0.000 591.627 319.218 405.992 112.225 518.833 413.673 204.934 363.526 357.940 591.948 482.830 397.539 384.683 507.848 427.481 787.968 573.080 178.781 404.040 200.704 355.400 295.207 543.847 569.466 205.091 114.267 428.408 745.003 299.729 575.942 417.947 228.671 460.987 502.511 68.942 567.699 251.572 470.888 374.169 678.998 269.859 514.997 141.435 301.426 739.959
278.910 407.768 580.276 578.653 568.320 423.311 340.038 562.145 217.299 393.086 423.770 448.953 381.670 314.878 272.132 492.148 323.687 136.237 367.138 203.218 157.847 184.314 152.374 433.587 374.653 298.161 401.385 226.299 594.012 465.133 207.332 359.972 623.743 189.486 507.379 165.566 271.799 175.559 244.932 544.490 146.641 350.618 405.010 354.010 247.069 413.742 405.430 391.771 128.162 244.199 300.082 76.118 427.759 496.440 457.015 585.641 0.000 470.591 429.284 463.687 160.187 666.143 490.425 706.207 328.445 277.694 121.054 281.249 551.432 88.221 311.300 473.714 149.502 540.138 526.135 470.864 702.201 490.098 187.636 415.154 497.611 522.293 396.253 430.750 356.741 152.364 435.964 492.015 113.038 67.233 548.922 254.244 401.183 504.064 491.987 364.744 502.745 451.607 493.837 475.721 425.706
250.814 134.269 211.108 209.484 327.308 102.407 219.011 192.977 336.754 219.626 551.908 350.929 227.453 159.681 342.453 83.541 269.713 467.084 205.090 356.595 462.258 516.034 431.605 216.865 176.420 309.688 195.848 348.081 324.612 77.833 404.114 261.948 254.574 381.788 245.833 369.215 400.158 556.430 366.671 179.335 527.221 123.941 206.941 232.219 305.969 219.904 222.173 426.499 440.516 637.721 219.077 456.989 287.984 279.718 585.153 305.925 470.719 0.000 162.932 224.582 396.308 284.884 121.256 324.948 227.148 381.773 452.774 327.484 141.623 477.792 239.847 589.908 543.024 242.125 160.980 207.501 333.032 167.834 409.040 321.994 128.442 302.810 180.937 558.888 208.580 545.886 174.887 141.858 430.930 472.455 340.356 320.228 201.858 242.517 131.109 492.882 152.588 267.526 228.271 94.462 553.844
232.889 257.382 294.359 292.736 436.885 218.363 191.830 276.228 302.521 213.825 463.889 333.004 313.215 132.500 415.988 167.430 242.531 518.599 182.281 417.419 412.063 553.897 505.140 56.981 286.199 383.223 61.763 369.701 164.728 200.557 377.271 244.023 337.826 293.770 85.949 415.605 473.692 506.234 266.737 163.674 477.025 119.008 68.406 341.998 206.035 214.104 216.372 326.566 474.237 598.237 191.896 406.794 270.059 119.834 497.134 389.177 435.569 160.756 0.000 307.833 404.198 251.277 204.507 305.076 259.991 281.839 524.852 401.018 224.874 492.019 221.922 489.975 509.222 325.376 170.643 290.752 398.113 251.086 331.359 187.793 211.693 386.062 115.386 470.869 318.359 512.084 15.002 225.109 504.465 486.552 423.607 220.294 311.435 82.633 65.751 404.864 235.839 133.324 311.522 149.163 465.825
305.241 152.892 161.481 159.858 219.745 233.232 360.613 143.350 392.257 328.799 632.153 459.264 252.375 301.283 282.552 202.250 372.431 392.450 319.965 355.540 507.901 440.220 393.148 366.327 201.342 294.968 337.450 364.736 382.548 211.002 429.036 370.283 204.948 425.479 395.295 385.869 286.484 502.161 453.316 327.149 521.884 265.543 348.542 150.527 447.570 349.456 341.143 568.101 457.171 561.908 360.678 469.399 363.473 429.180 665.398 130.902 485.757 225.620 312.395 0.000 412.963 335.133 111.337 291.765 252.070 486.078 376.960 291.669 291.085 401.979 321.612 682.098 467.210 85.184 310.443 94.834 283.405 201.609 437.977 463.596 111.493 84.584 322.538 639.134 193.859 470.072 324.349 135.074 355.117 396.641 122.129 461.829 145.702 390.140 280.571 573.128 176.262 409.127 38.883 207.829 634.089
207.928 329.978 502.487 500.864 479.310 345.521 269.055 484.356 151.571 322.103 382.136 377.970 302.741 243.895 223.919 414.359 252.704 159.833 296.155 89.806 148.444 254.512 152.272 370.355 295.724 223.762 330.403 99.889 523.030 387.344 97.394 288.989 545.954 147.852 436.397 52.154 281.624 235.894 203.299 473.507 206.976 279.635 334.028 296.184 205.435 342.760 334.447 350.137 113.460 304.535 229.099 136.453 356.777 433.208 415.381 541.299 136.184 392.801 358.301 440.482 0.000 595.160 412.635 632.771 249.517 236.061 193.532 169.631 480.450 186.661 240.318 432.081 209.837 491.040 455.152 381.854 624.411 408.320 146.003 373.520 419.821 477.895 325.271 389.116 261.711 212.699 365.451 414.225 185.516 178.628 504.579 212.610 306.153 433.081 421.004 323.111 424.955 388.374 470.632 404.738 384.072
452.094 406.886 296.673 295.049 552.096 375.024 420.292 300.058 538.034 420.906 723.821 552.210 500.070 360.962 615.070 299.118 470.993 726.246 406.370 624.499 663.539 774.017 704.222 316.913 449.037 582.305 321.695 598.163 257.081 332.245 605.732 463.228 341.092 553.702 282.270 637.120 620.280 757.710 526.670 274.362 728.501 325.222 328.338 484.324 465.967 421.185 423.453 578.948 705.354 840.687 420.358 658.270 489.265 379.766 757.066 413.007 672.337 292.444 262.980 340.152 632.659 0.000 298.991 190.298 467.072 541.772 710.757 600.101 324.166 728.787 441.127 749.907 745.990 357.695 344.914 385.236 317.249 363.866 591.291 447.725 272.786 418.380 375.318 730.802 481.197 748.852 274.935 322.728 688.914 723.320 455.926 480.227 440.637 264.674 273.523 664.796 348.620 393.256 343.841 211.954 725.758
301.464 149.115 115.295 113.672 253.104 184.650 279.829 97.164 388.201 280.444 612.726 411.747 248.319 220.500 323.676 96.259 330.531 449.486 265.908 351.483 503.845 497.257 412.829 260.336 197.286 290.911 256.667 360.679 336.362 105.010 424.980 322.766 158.762 421.423 289.304 381.813 381.381 559.198 427.489 222.806 562.376 184.759 264.845 213.442 366.787 280.722 282.991 487.317 453.114 618.944 279.895 491.854 348.802 323.189 645.971 190.645 491.585 119.629 206.404 104.298 408.907 288.948 0.000 245.580 248.014 442.591 433.997 308.707 185.094 459.015 300.665 650.726 524.247 121.842 204.451 86.245 237.220 95.618 433.921 382.813 39.735 182.527 241.755 619.706 189.803 527.109 218.358 23.737 412.154 453.678 220.072 381.046 141.646 285.988 174.580 553.700 64.925 328.344 107.987 137.933 614.662
377.956 332.747 206.423 204.799 476.527 300.885 346.153 218.530 463.896 346.767 679.050 478.071 425.931 286.823 540.780 224.979 396.854 650.678 332.232 550.361 589.400 698.448 630.084 326.660 374.899 508.166 322.990 524.024 281.854 258.106 531.594 389.090 214.503 508.930 307.043 562.981 544.712 683.571 493.813 256.700 654.363 251.083 331.168 408.755 433.110 347.046 349.315 553.641 631.216 766.549 346.219 584.131 415.126 389.513 712.294 331.479 598.199 218.306 272.727 264.583 558.521 165.642 223.423 0.000 392.933 508.914 635.188 525.962 250.027 654.648 366.988 717.050 671.852 282.126 270.775 309.668 190.660 288.298 536.182 449.136 197.217 342.812 308.078 686.030 407.058 674.713 284.681 247.160 613.345 649.182 380.357 447.370 365.069 289.447 240.903 620.024 273.051 394.668 268.272 137.815 680.986
142.486 120.540 293.049 291.426 279.953 136.083 223.123 274.918 219.430 166.044 459.326 296.509 93.303 163.793 234.892 204.921 199.604 346.812 157.210 236.323 335.074 408.473 324.045 268.292 86.286 202.127 222.654 227.810 410.638 177.906 256.209 207.527 336.516 252.652 324.006 248.943 292.597 422.523 280.488 328.085 393.605 165.002 231.965 179.102 275.485 186.700 178.388 396.015 320.245 491.164 202.885 323.083 200.718 331.145 492.571 341.942 322.814 183.363 245.910 241.126 276.037 447.513 203.197 423.333 0.000 313.250 345.213 219.923 304.253 370.231 158.856 509.270 396.467 291.683 309.730 182.497 414.973 202.870 265.150 340.780 210.383 278.539 210.637 466.306 155.463 399.329 253.059 204.787 323.370 364.894 305.223 289.744 154.503 320.690 279.858 400.300 215.517 286.311 271.275 257.091 461.262
232.524 361.381 530.946 529.323 539.259 371.975 250.067 512.815 123.851 344.906 226.830 387.764 352.609 224.907 375.158 404.018 233.716 339.934 277.167 289.510 233.393 372.590 337.809 252.725 345.592 375.001 265.455 236.165 414.280 399.865 208.221 298.783 574.413 115.100 337.410 261.389 432.863 295.652 68.954 426.630 259.898 260.647 269.080 438.408 83.601 345.184 347.453 168.966 295.568 387.655 210.111 228.124 381.373 315.578 260.075 586.979 256.900 384.015 266.004 486.202 249.982 517.281 441.095 571.080 299.384 0.000 343.479 320.870 461.462 310.646 264.914 263.194 308.258 536.760 433.598 427.534 645.131 443.711 152.689 234.292 448.281 528.674 286.047 233.810 412.950 309.122 255.102 445.629 335.464 305.180 550.259 90.776 413.809 334.094 328.707 167.804 456.358 264.799 516.352 385.750 228.766
356.419 424.663 571.870 570.247 524.770 443.634 426.395 553.739 303.657 438.014 474.403 526.461 400.322 401.235 227.567 512.472 410.044 91.671 429.180 187.919 244.204 63.260 126.893 519.945 393.837 253.596 487.743 241.437 680.370 485.457 293.690 437.480 615.337 275.844 593.737 214.462 210.004 163.225 331.290 630.844 198.334 436.972 491.368 309.445 333.426 458.671 450.358 478.129 167.469 184.947 386.440 145.849 472.688 582.798 507.648 538.570 162.207 490.914 515.641 419.122 223.850 745.523 485.242 702.155 347.630 353.403 0.000 236.684 611.804 57.747 388.809 524.348 90.250 495.573 612.489 432.319 693.795 495.600 273.994 501.512 517.934 474.381 482.608 481.383 312.176 93.112 522.322 508.979 68.473 73.844 501.850 340.601 356.618 590.421 578.344 415.378 523.068 537.964 449.272 562.075 476.339
231.433 250.143 420.672 419.049 355.255 274.705 326.164 402.541 257.150 269.085 491.809 399.550 225.802 266.834 87.007 343.542 285.271 212.817 260.251 116.929 315.795 260.588 169.931 371.333 224.907 84.219 325.695 134.030 513.679 316.527 202.973 310.568 464.139 257.525 427.046 151.489 144.712 322.529 312.971 461.914 342.252 268.042 335.005 172.129 315.108 289.741 281.429 459.810 221.878 382.275 288.553 280.127 303.758 434.186 525.054 417.244 279.858 321.984 348.951 316.428 178.582 583.568 310.722 550.957 178.700 345.733 197.328 0.000 442.874 222.346 261.897 541.753 287.578 366.985 443.559 257.799 542.597 321.080 270.024 443.821 345.112 353.841 313.678 498.789 137.656 290.440 356.100 334.459 175.485 217.009 380.525 322.283 182.098 423.731 411.653 432.783 354.138 389.352 346.577 393.145 493.745
327.208 253.789 272.949 271.326 436.202 221.927 295.405 254.818 413.148 296.020 628.302 427.323 346.973 236.076 461.973 146.021 346.107 586.604 281.484 476.114 538.653 635.553 551.125 275.912 295.940 429.208 272.243 467.601 383.660 179.147 480.846 338.342 316.416 458.182 304.880 488.734 519.677 632.824 443.065 238.382 603.615 200.335 280.421 351.739 382.363 296.298 298.567 502.894 560.036 715.801 295.471 533.383 364.378 338.765 661.547 367.767 547.451 139.347 221.980 286.424 507.773 336.606 183.098 371.687 342.186 458.167 572.293 447.003 0.000 597.311 316.241 666.302 621.104 303.967 220.028 269.343 394.874 229.676 485.435 398.389 190.284 364.652 257.331 635.282 328.100 623.966 233.934 203.700 550.450 591.974 402.198 396.622 321.377 301.564 190.156 569.277 214.430 343.920 290.113 146.184 630.238
313.014 402.759 549.966 548.343 501.003 427.035 374.141 531.835 251.403 421.415 422.149 483.056 378.418 348.981 205.662 495.872 357.790 75.072 401.241 171.320 191.950 113.872 110.294 467.691 377.238 231.692 435.489 224.838 628.116 468.857 241.436 394.075 593.433 223.590 541.483 197.862 186.238 110.971 279.036 578.593 146.080 384.721 439.114 287.541 281.172 442.072 433.759 425.875 118.222 175.309 334.185 93.595 456.089 530.544 455.394 514.803 109.953 474.315 463.387 397.218 194.290 700.246 463.338 680.250 331.030 301.149 50.612 214.779 585.536 0.000 345.404 472.093 80.612 473.669 560.238 410.415 671.890 473.696 221.740 449.257 497.727 450.614 430.357 429.129 290.272 83.474 470.068 487.075 51.874 21.590 478.084 288.347 334.714 538.167 526.090 363.124 506.469 485.710 427.368 509.824 424.085
32.390 167.447 339.956 338.333 346.950 182.991 103.539 321.825 213.561 124.483 436.436 159.646 178.431 78.379 281.203 251.828 140.718 353.182 96.914 253.178 330.290 436.358 345.620 217.409 171.414 248.438 171.771 234.179 359.756 224.813 251.425 70.664 383.423 247.868 273.123 255.313 338.908 417.740 251.199 307.991 388.821 114.119 181.082 264.229 190.497 145.140 136.828 311.027 326.614 486.380 103.605 318.299 160.678 280.263 469.681 393.045 318.030 230.271 195.028 292.268 278.352 429.644 250.105 469.708 125.206 266.301 386.880 266.234 314.934 374.480 0.000 474.436 391.683 342.826 289.636 233.600 461.881 249.778 260.366 279.346 257.291 334.740 159.755 443.416 240.590 394.545 202.177 251.695 369.680 369.013 356.325 204.756 221.500 269.807 257.730 377.410 262.424 235.429 322.418 239.222 438.372
430.050 558.907 731.416 729.793 736.785 574.451 478.297 713.285 321.377 544.225 107.040 600.093 550.135 453.137 572.684 632.247 461.946 528.684 505.397 487.036 430.919 542.612 535.335 493.583 543.118 572.527 506.313 433.691 628.256 616.273 405.747 511.111 774.883 312.626 578.268 458.915 630.389 463.310 299.389 667.488 429.920 488.877 509.938 635.934 314.036 564.882 556.569 312.454 493.094 511.239 438.341 425.650 578.899 536.663 113.597 784.505 454.425 612.245 506.862 683.728 447.508 758.139 641.565 811.938 496.910 269.015 513.502 518.396 689.691 480.669 462.440 0.000 478.280 734.286 664.394 625.060 853.341 641.237 350.215 475.150 648.751 726.200 526.905 87.381 610.476 479.144 495.960 643.155 505.486 475.202 747.785 321.211 611.335 574.952 569.565 227.107 653.884 478.775 713.878 613.980 108.976
325.212 454.069 624.666 623.043 575.703 469.612 385.242 606.535 264.718 439.387 422.861 495.254 437.144 360.082 280.363 538.449 368.891 150.313 412.342 246.561 190.443 73.435 185.535 463.656 430.127 306.392 446.590 281.772 639.217 511.435 262.806 406.273 668.133 219.555 548.341 221.040 260.938 77.432 275.001 589.694 150.372 395.822 450.215 362.241 277.138 460.043 451.731 421.840 183.636 94.697 345.287 101.970 474.061 526.509 456.106 589.504 131.323 516.892 474.488 471.918 215.661 711.347 536.726 751.412 383.919 301.861 116.631 289.480 596.637 75.241 357.602 472.805 0.000 548.369 571.339 485.115 746.591 536.399 217.705 445.223 543.912 525.314 441.458 429.841 364.972 2.862 466.033 538.316 127.115 96.831 552.784 284.313 409.414 545.025 537.191 363.835 549.046 481.676 502.068 520.925 424.797
367.365 215.016 144.673 143.049 300.689 273.833 369.013 126.542 454.101 369.627 693.997 500.930 314.219 309.683 363.496 185.442 419.714 473.393 355.091 417.384 569.745 521.164 474.092 349.519 263.186 356.812 345.850 426.580 365.740 194.194 490.881 411.949 188.140 487.323 378.487 447.713 367.427 583.105 515.160 310.341 602.828 273.943 354.028 231.471 455.970 369.905 372.174 576.501 519.015 642.851 369.078 550.342 425.597 412.372 727.242 189.306 557.485 208.812 295.587 87.299 474.807 318.325 94.529 274.957 313.914 531.774 457.904 372.613 274.277 482.922 383.735 739.909 548.154 0.000 293.635 152.145 266.597 184.801 499.821 471.996 94.685 165.527 330.938 700.978 255.704 551.016 307.541 118.265 436.061 477.585 203.073 470.229 207.546 373.332 263.763 634.972 159.454 417.527 90.988 191.021 695.934
282.887 249.120 268.281 266.658 431.534 217.258 251.084 250.150 368.827 251.698 581.467 383.002 342.304 191.754 453.861 141.352 301.785 565.781 237.162 455.292 494.331 621.457 543.013 174.558 291.272 421.096 172.424 428.955 282.306 174.479 436.525 294.020 311.748 411.347 203.526 467.912 511.565 588.502 384.315 162.920 559.294 156.014 179.067 347.070 323.613 251.977 254.246 444.144 536.147 671.480 251.150 489.062 320.057 237.411 614.712 363.099 503.130 134.679 120.626 281.755 463.452 313.507 178.429 353.571 297.864 399.417 564.182 438.892 198.796 559.579 271.919 607.552 576.783 299.299 0.000 264.674 382.466 225.008 441.113 305.370 185.615 359.984 213.009 588.447 323.431 579.644 132.580 199.032 542.338 554.113 397.529 337.872 316.709 200.211 88.802 522.441 209.761 250.902 285.444 123.085 583.403
252.508 100.159 207.462 205.838 166.860 180.498 307.879 189.331 339.524 276.066 579.420 406.531 199.642 248.549 274.999 188.425 319.698 400.809 267.232 302.806 455.168 448.580 364.152 338.374 148.609 242.234 284.716 312.002 428.528 197.177 376.303 317.549 250.929 372.745 381.471 333.136 315.203 510.521 400.582 314.973 513.699 212.809 295.809 143.114 394.837 296.722 288.410 515.367 404.437 570.267 307.945 443.177 310.740 401.227 612.665 184.447 442.908 211.796 298.570 62.278 360.230 381.114 97.512 337.746 199.337 433.344 385.320 260.030 277.261 410.338 268.878 629.364 475.570 138.729 296.618 0.000 329.386 175.622 385.244 410.862 131.901 138.129 269.804 586.400 141.126 478.432 310.524 121.249 363.477 405.001 169.514 409.096 92.969 378.155 266.746 520.394 158.572 356.394 92.428 230.099 581.356
490.404 374.972 180.095 178.471 490.232 391.034 458.602 230.152 576.344 459.216 791.498 590.519 468.156 399.272 554.485 294.686 509.303 664.383 444.680 588.612 701.849 712.153 649.957 439.108 417.124 528.039 435.439 588.784 391.349 311.395 644.042 501.538 164.062 621.378 416.538 609.918 558.417 774.094 606.261 369.149 766.811 363.532 443.617 422.460 545.559 459.494 461.763 666.090 681.219 833.840 458.667 696.580 527.574 501.961 824.743 343.101 710.647 317.402 385.176 278.288 637.012 288.551 237.128 216.685 467.851 621.363 648.893 545.835 362.476 673.911 479.437 829.498 739.143 295.832 383.224 323.373 0.000 302.003 648.631 561.585 210.922 356.517 420.527 798.478 426.931 742.005 397.130 260.865 627.050 668.574 394.062 559.818 378.774 398.942 353.352 732.473 286.756 507.116 281.977 250.264 793.434
274.026 129.291 181.719 180.096 292.686 163.582 290.963 163.588 362.357 291.577 602.253 422.881 222.475 231.633 337.475 128.268 341.664 462.106 277.041 351.617 478.001 511.056 426.628 314.691 171.442 304.710 267.800 343.103 402.786 91.712 399.136 333.899 225.186 395.579 343.659 364.237 395.180 565.451 423.416 277.161 536.533 195.893 278.892 227.241 377.920 291.856 294.124 498.451 435.538 632.743 291.029 466.010 332.258 377.544 635.498 276.537 465.741 138.194 260.759 158.910 391.331 355.372 91.867 312.004 222.170 453.724 447.796 322.506 239.449 472.814 290.397 652.198 538.046 192.432 258.806 125.826 303.644 0.000 408.077 393.946 99.053 234.761 252.888 609.234 203.602 540.908 272.713 93.458 425.953 467.477 272.307 392.179 168.983 340.343 228.935 543.228 78.839 339.477 178.578 192.288 604.189
181.598 310.455 482.964 481.340 471.542 325.998 241.628 464.833 102.212 295.773 289.162 351.640 284.891 216.468 287.895 394.835 225.277 232.732 268.728 202.246 126.191 268.025 230.607 298.979 277.874 287.737 302.976 148.901 476.986 367.821 120.958 262.659 526.431 54.878 383.664 174.125 345.599 220.362 110.324 446.080 191.154 252.208 306.601 354.697 112.461 316.429 308.117 257.163 188.366 312.365 201.673 120.922 330.447 361.832 322.407 533.531 149.698 373.278 312.258 432.714 162.718 563.534 393.112 607.798 231.667 143.086 238.980 233.606 453.023 206.147 213.988 339.106 223.351 483.271 427.725 374.085 604.888 392.785 0.000 280.546 400.298 470.127 297.844 296.142 325.686 226.212 301.356 394.702 230.965 200.681 496.811 119.636 346.091 380.348 374.960 230.136 405.432 316.999 462.864 377.311 291.098
290.788 315.282 435.233 433.610 494.784 276.262 215.908 417.102 295.059 271.724 435.459 390.903 371.114 190.399 473.887 308.304 272.567 511.142 240.180 419.508 404.601 546.435 509.017 139.963 344.098 441.122 152.693 370.613 293.214 304.152 378.183 301.922 478.700 286.308 223.915 416.517 531.591 498.772 259.276 313.868 469.564 176.907 156.318 399.897 198.574 272.003 274.271 281.416 466.776 590.775 223.086 399.332 327.958 151.660 480.627 530.051 428.108 288.302 153.242 440.102 405.110 404.518 345.381 458.318 317.890 252.259 517.390 447.651 365.748 484.557 279.821 453.380 501.761 466.250 320.836 381.434 549.418 359.516 323.897 0.000 352.567 482.574 173.285 454.362 376.258 504.622 142.340 354.298 509.375 479.091 504.160 212.833 369.334 220.599 215.944 388.356 365.027 87.132 452.396 290.037 437.395
339.772 196.728 82.666 81.042 308.084 212.790 307.970 64.535 425.713 308.584 640.866 439.888 289.912 248.640 372.337 124.399 358.671 482.234 294.048 406.463 545.438 530.005 467.808 288.476 238.879 345.891 284.807 410.540 303.732 133.151 466.574 350.906 126.132 463.016 317.444 431.674 376.268 591.946 455.629 248.334 603.970 212.900 292.985 240.312 394.927 308.863 311.131 515.458 502.975 651.692 308.036 533.447 376.943 351.330 674.111 177.483 533.178 147.770 234.544 96.140 458.768 256.318 54.979 212.950 289.607 470.731 466.745 363.686 213.234 491.763 328.805 678.867 556.995 113.683 232.592 141.224 204.590 123.759 475.514 410.953 0.000 174.368 269.895 647.847 244.783 559.857 246.498 78.716 444.902 486.426 211.914 409.186 196.625 311.325 202.720 581.841 108.512 356.484 99.829 129.014 642.803
340.403 190.046 252.417 250.794 210.973 270.386 397.767 234.286 417.347 363.961 657.243 494.426 277.465 338.437 318.355 293.186 397.521 428.253 355.127 380.630 532.991 476.023 428.951 428.262 226.432 320.057 374.604 389.825 473.484 295.646 454.126 405.445 295.884 450.569 475.956 410.959 322.287 537.964 478.406 418.085 557.687 302.697 385.696 186.330 473.402 384.618 376.305 593.932 482.260 597.710 397.833 505.202 398.635 491.115 690.488 148.029 520.731 311.816 397.860 99.669 438.053 426.070 202.273 382.701 277.160 511.168 412.763 327.472 382.021 437.781 356.773 707.188 503.013 176.120 401.379 131.988 374.341 265.510 463.067 500.750 202.429 0.000 359.692 664.223 218.949 505.875 405.009 226.010 390.920 432.444 112.995 487.661 170.792 472.640 371.507 598.218 267.198 446.281 128.879 298.765 659.179
171.445 175.388 295.339 293.716 354.890 136.368 132.083 277.208 249.826 140.257 464.980 271.561 239.647 72.753 342.420 168.410 182.784 454.340 121.403 343.850 375.330 502.457 431.572 135.246 204.204 309.655 81.588 309.954 269.572 164.258 317.524 182.579 338.806 294.860 182.940 355.858 400.124 469.502 279.743 218.912 440.293 37.013 92.680 260.003 219.041 140.536 142.804 339.571 417.146 552.479 132.149 370.061 208.616 198.099 498.225 390.157 384.129 148.408 104.844 300.209 344.451 340.565 205.488 380.629 186.423 294.845 452.740 327.450 225.855 440.578 160.478 502.980 457.782 326.357 200.557 241.540 409.524 219.622 322.112 207.734 212.674 342.680 0.000 471.960 236.364 460.644 111.993 214.404 430.897 435.112 364.266 233.300 229.440 179.624 156.287 405.954 225.134 153.265 312.502 150.143 466.916
384.150 513.007 685.516 683.893 690.885 528.551 432.397 667.385 275.477 498.325 128.820 554.193 504.235 407.237 526.784 586.347 416.046 482.784 459.497 441.135 385.019 496.712 489.435 463.973 497.218 526.626 474.134 387.791 615.746 570.373 359.847 465.211 728.983 266.726 548.658 413.015 584.489 417.410 269.230 636.849 384.020 442.977 477.759 590.034 277.454 518.982 510.669 355.071 447.193 467.737 392.441 379.750 532.999 524.153 70.450 738.605 408.525 566.345 477.252 637.828 401.608 728.528 595.664 782.328 451.010 238.856 467.602 472.496 643.791 434.768 416.540 89.850 432.380 688.385 618.494 579.160 807.441 595.337 304.315 445.540 602.850 680.300 488.612 0.000 564.576 433.244 466.350 597.255 459.586 429.302 701.885 284.629 565.435 545.342 539.954 187.789 607.984 466.265 667.978 568.080 130.756
250.030 148.510 319.039 317.415 253.622 222.110 330.667 300.908 310.661 273.588 545.319 404.053 148.692 271.338 145.758 286.139 307.148 271.568 264.754 173.565 372.431 319.339 234.910 375.836 150.651 112.993 323.269 187.540 511.253 249.583 256.483 315.072 362.505 311.036 424.621 208.125 203.462 381.280 366.482 414.111 401.002 251.362 334.361 70.495 368.618 294.245 285.932 503.559 278.514 441.026 310.430 345.106 308.262 438.689 578.564 315.611 344.837 265.753 346.525 214.794 235.219 492.691 209.089 449.323 157.998 399.244 256.079 130.789 386.643 281.097 266.400 595.264 346.329 265.351 395.757 156.165 440.963 219.447 323.534 448.324 243.478 252.207 308.357 552.299 0.000 349.191 353.674 232.826 234.235 275.759 278.891 375.793 80.464 421.305 365.885 486.294 260.355 393.856 244.944 339.481 547.255
330.591 459.448 631.957 630.334 583.655 474.991 390.622 613.826 270.097 444.766 436.941 500.633 445.095 365.461 288.314 543.829 374.271 158.264 417.721 254.512 195.822 81.387 193.486 469.035 438.078 314.343 451.969 289.724 644.596 516.814 270.758 411.652 675.424 224.934 553.720 228.991 268.889 91.511 280.380 595.074 164.452 401.202 455.594 370.193 282.517 465.423 457.110 427.219 191.588 91.835 350.666 107.349 479.440 531.889 470.185 597.455 139.275 522.271 479.868 479.870 223.612 716.727 542.105 756.791 391.871 313.142 124.582 297.431 602.016 83.192 362.981 486.885 14.080 556.320 576.719 493.067 753.881 541.778 223.085 450.602 549.291 533.266 446.837 443.921 372.924 0.000 471.412 543.695 135.066 104.782 560.735 289.692 417.366 550.404 542.570 377.915 554.425 487.055 510.019 526.305 438.877
240.990 265.483 318.117 316.494 444.986 226.463 178.446 299.986 287.519 221.926 448.887 341.105 321.316 140.601 424.088 191.188 235.106 503.602 190.381 408.280 397.060 538.895 500.722 41.978 294.300 391.324 69.864 359.385 191.535 224.315 366.955 252.124 361.584 278.767 98.213 405.289 481.793 491.232 251.735 187.433 462.023 127.109 76.507 350.098 191.033 222.204 224.473 311.564 459.235 583.234 185.625 391.791 278.160 104.831 482.132 412.935 420.567 184.515 26.807 331.591 393.882 278.083 228.266 331.883 268.092 266.837 509.850 409.119 248.633 477.017 230.022 474.972 494.220 349.135 194.401 314.510 424.919 274.844 316.356 172.790 235.452 409.820 123.487 455.867 326.459 497.082 0.000 248.868 501.834 471.550 447.365 205.292 319.536 94.897 89.509 389.861 259.597 118.322 335.280 172.921 450.823
310.108 165.373 139.032 137.409 276.841 190.602 299.361 120.901 398.439 299.976 632.258 431.279 258.557 240.032 347.413 102.212 350.063 473.223 285.440 375.220 514.083 520.994 436.566 279.868 207.525 314.648 276.199 379.185 360.099 110.963 435.219 342.298 182.499 431.661 308.836 400.319 405.118 582.935 447.021 242.338 572.615 204.291 284.377 237.179 386.319 300.254 302.523 506.849 471.620 642.681 299.427 502.093 368.334 342.721 665.503 214.382 501.824 125.582 225.936 128.035 427.413 312.685 23.737 269.317 258.252 462.123 457.734 332.444 204.626 482.752 320.197 670.258 547.984 145.579 223.983 109.982 260.957 92.404 444.160 402.345 63.472 206.264 261.287 639.238 213.540 550.846 237.890 0.000 435.891 477.415 243.809 400.578 165.383 305.520 194.112 573.232 41.188 347.876 131.724 157.465 634.194
287.945 359.618 517.224 515.601 475.129 375.161 392.306 499.093 272.089 369.541 442.836 457.988 332.381 367.146 172.921 443.998 341.784 37.333 360.707 119.446 212.637 85.103 58.420 471.789 325.364 198.950 426.151 172.964 614.136 416.984 240.911 369.007 560.691 244.277 527.503 145.988 173.987 150.108 299.723 562.371 166.767 368.499 435.462 254.799 301.859 390.198 381.885 446.561 110.759 206.790 345.065 114.282 404.215 534.642 476.081 486.431 130.640 422.441 449.407 364.476 155.784 684.024 430.597 647.509 279.156 321.836 21.843 182.038 543.331 49.557 320.335 492.780 112.093 440.927 544.016 377.673 639.149 437.960 242.427 469.944 449.461 423.082 414.134 449.816 257.530 114.955 456.556 443.865 0.000 41.524 449.711 309.034 301.972 524.187 512.110 383.810 454.595 489.809 394.626 493.602 444.772
305.132 401.996 549.203 547.580 507.108 420.967 366.260 531.072 243.521 415.347 414.267 475.175 377.655 341.099 204.899 489.804 349.909 69.004 393.359 165.252 184.068 117.082 104.226 459.809 371.170 230.928 427.607 218.770 620.234 462.789 233.554 386.193 592.670 215.708 533.601 185.641 204.567 121.540 271.154 570.712 138.198 376.839 431.232 286.778 273.291 436.004 427.691 417.993 101.346 185.877 326.304 85.713 450.021 522.662 447.512 518.409 102.071 468.247 455.506 396.455 180.263 692.365 462.575 679.487 324.962 293.267 53.822 214.016 577.654 20.988 337.522 464.212 91.180 472.906 552.357 409.652 671.127 472.933 213.858 441.376 495.267 455.061 422.475 421.248 289.509 94.042 462.186 486.312 45.806 0.000 481.689 280.466 333.951 530.285 518.208 355.242 500.401 477.828 426.604 501.943 416.203
375.341 222.992 266.901 265.277 268.809 303.331 430.712 248.770 462.357 398.899 702.253 529.364 322.475 371.382 374.327 331.159 442.531 484.225 390.065 425.640 578.001 531.995 484.923 461.207 271.442 365.067 407.549 434.835 498.607 328.591 499.136 440.383 290.527 495.579 508.901 455.969 378.259 589.611 523.415 456.058 613.659 335.642 418.642 242.302 517.670 419.556 411.243 638.200 527.270 653.682 430.778 561.174 433.573 524.060 735.498 66.336 565.741 344.762 430.806 138.488 483.063 448.985 240.246 398.837 322.170 556.177 468.735 382.863 419.995 489.429 391.711 752.197 558.985 214.093 439.352 164.934 390.712 298.455 508.077 533.695 240.402 112.375 392.638 709.233 263.959 561.847 437.955 263.983 446.892 488.416 0.000 531.929 215.802 505.586 409.480 643.228 305.171 479.227 167.698 336.738 704.189
208.092 336.949 496.724 495.101 512.740 337.753 215.845 478.594 116.679 310.684 288.736 353.542 326.090 190.685 372.629 369.796 199.494 343.450 242.945 286.980 236.909 378.743 341.325 227.917 319.073 360.492 240.647 233.635 405.924 365.643 211.737 264.561 540.191 118.616 312.602 264.905 430.333 331.080 93.213 401.822 301.872 226.425 244.272 411.889 41.399 310.962 313.231 208.148 299.084 423.083 175.890 231.640 356.941 290.770 321.980 562.547 260.416 349.793 241.196 461.770 253.498 492.472 406.873 546.272 272.866 108.315 349.698 318.340 427.240 316.865 231.168 338.680 334.068 512.327 401.942 403.102 610.909 419.279 156.205 209.484 414.059 504.242 261.239 295.716 388.250 336.930 230.294 415.789 341.683 311.399 525.827 0.000 387.290 309.286 303.898 229.710 426.519 245.936 491.920 351.528 290.672
257.586 114.540 276.673 275.049 211.256 194.879 322.260 258.542 334.530 281.144 574.426 411.609 192.640 262.930 239.307 255.153 314.704 365.117 272.310 267.115 450.174 412.888 328.460 352.755 143.615 206.542 299.097 276.310 487.082 218.597 345.253 322.627 320.140 367.751 400.449 297.444 297.012 474.829 395.588 384.184 494.552 227.190 310.190 129.073 390.585 301.800 293.488 511.115 368.745 534.575 317.985 438.183 315.818 415.608 607.671 273.245 437.914 234.767 322.354 172.428 324.538 450.325 166.723 406.957 194.343 428.350 349.628 224.338 346.472 374.646 273.956 624.370 439.878 222.985 365.829 113.799 398.597 188.461 380.250 425.243 201.112 209.841 284.186 581.406 105.434 442.740 329.503 190.460 327.785 369.309 236.525 404.844 0.000 397.134 335.957 515.400 227.783 370.775 202.578 299.310 576.362
304.766 329.260 330.797 329.174 508.763 290.240 263.708 334.183 374.398 285.703 535.767 404.882 385.093 204.378 487.865 239.307 314.409 590.477 254.158 489.296 483.940 625.774 577.018 128.858 358.076 455.100 133.640 441.578 162.260 272.434 449.148 315.900 395.781 365.647 29.105 487.482 545.570 578.111 338.615 235.552 548.903 190.885 140.284 413.875 277.913 285.981 288.250 398.443 546.115 670.114 263.773 478.671 341.937 191.711 569.011 447.131 507.447 232.634 74.926 373.956 476.075 248.808 276.385 302.608 331.868 353.717 596.729 472.896 296.752 563.896 293.799 561.852 581.099 391.499 242.520 362.629 395.644 322.963 403.236 259.670 283.571 452.185 187.264 542.747 390.236 583.961 86.880 296.987 576.343 558.430 489.730 292.172 383.312 0.000 137.628 476.741 307.716 205.201 377.645 221.040 537.703
339.302 316.710 304.683 303.059 499.123 284.848 307.500 304.302 425.242 308.114 591.523 439.418 407.504 248.170 510.277 208.942 358.201 622.197 293.578 511.707 539.696 677.873 599.429 184.614 358.861 477.512 182.480 485.371 270.546 242.068 492.940 350.436 365.900 421.403 213.582 524.328 567.981 633.868 394.371 123.003 604.659 212.430 189.123 414.660 333.669 308.393 310.661 454.199 592.562 725.870 307.566 534.427 376.473 247.467 624.768 417.251 559.545 202.268 130.682 335.907 519.867 262.224 246.019 316.023 354.280 409.473 620.597 495.307 246.574 615.995 328.335 617.608 633.198 353.451 212.154 332.264 393.743 292.597 458.992 315.426 239.768 414.136 236.103 598.503 391.021 636.060 142.636 266.621 598.754 610.528 451.681 347.928 384.298 210.266 0.000 532.497 277.351 260.958 339.596 134.362 593.459
399.750 528.607 701.115 699.492 706.484 544.150 447.996 682.984 291.077 513.925 78.200 569.792 519.834 422.836 542.384 601.946 431.645 498.384 475.096 456.735 400.618 512.311 505.034 477.594 512.817 542.226 489.733 403.390 612.266 585.972 375.447 480.811 744.582 282.325 562.278 428.614 600.088 422.256 283.399 651.498 399.619 458.576 493.358 605.633 293.054 534.581 526.269 296.464 462.793 446.555 408.040 395.349 548.598 520.674 126.718 754.204 424.125 581.944 490.872 653.427 417.207 742.149 611.264 795.948 466.610 253.026 483.201 488.095 659.391 450.368 432.140 130.549 445.916 703.985 634.093 594.759 823.040 610.937 319.914 459.160 618.450 695.899 504.212 100.453 580.175 446.780 479.970 612.854 475.185 444.901 717.485 300.229 581.034 558.963 553.575 0.000 623.584 462.785 683.577 583.679 80.137
279.135 134.401 157.734 156.111 320.987 168.691 296.072 139.603 367.466 296.687 607.363 427.990 227.585 236.742 342.584 113.050 346.773 467.215 282.151 356.726 483.111 516.165 431.737 290.706 176.552 309.819 272.909 348.212 378.801 96.822 404.246 339.009 201.201 400.688 319.674 369.346 400.289 570.560 428.525 253.177 541.642 201.002 284.001 232.350 383.029 296.965 299.234 503.560 440.647 637.852 296.138 471.120 337.367 353.559 640.608 252.552 470.851 129.972 236.774 171.208 396.440 331.387 67.883 288.019 227.279 458.834 452.905 327.615 215.464 477.923 295.506 657.307 543.155 188.752 234.822 154.127 279.659 61.431 413.187 399.055 75.069 249.437 257.997 614.343 208.711 546.017 248.728 69.473 431.062 472.586 286.982 397.289 201.989 316.359 204.950 548.337 0.000 344.587 174.898 168.303 609.299
364.084 388.578 488.953 487.329 568.080 349.558 289.204 490.398 383.682 345.021 485.724 464.200 444.411 263.696 547.183 381.600 345.863 599.765 313.476 519.037 493.223 635.058 597.639 213.259 417.394 514.418 225.989 470.143 272.148 377.448 468.052 375.218 551.996 374.930 229.905 516.047 604.888 568.062 345.377 387.164 532.308 250.203 229.614 473.193 301.790 345.299 347.568 331.681 555.398 660.065 296.383 487.954 401.255 180.555 530.892 603.347 516.730 361.598 226.538 513.399 504.640 406.964 418.678 460.763 391.186 315.965 606.013 532.214 439.045 573.180 353.117 503.645 580.668 539.547 394.132 454.730 553.800 432.812 412.519 213.742 425.864 555.870 246.581 504.627 449.554 581.532 215.636 427.594 597.997 567.713 577.456 316.050 442.630 226.589 289.241 438.621 438.324 0.000 525.692 363.333 487.660
321.982 169.633 156.580 154.957 236.486 249.973 377.354 138.449 408.998 345.540 648.894 476.005 269.116 318.024 311.749 197.350 389.172 421.646 336.706 372.281 524.642 469.417 422.345 361.427 218.083 311.709 354.191 381.477 377.647 206.101 445.777 387.024 200.047 442.220 390.395 402.610 315.680 526.622 470.057 322.248 551.081 282.284 365.283 179.724 464.311 366.197 357.884 584.842 473.912 590.960 377.419 498.595 380.214 424.280 682.139 155.698 512.382 220.720 307.495 35.552 429.704 330.233 106.436 286.865 268.811 502.819 406.157 320.866 286.185 426.439 338.353 698.839 496.263 80.283 305.542 111.575 278.505 196.709 454.718 480.337 106.593 109.380 339.279 655.875 210.600 499.124 319.449 130.173 384.314 425.838 146.926 478.570 162.443 385.240 275.671 589.869 171.361 425.868 0.000 202.928 650.830
252.901 207.693 170.321 168.698 390.106 175.831 221.098 169.941 338.841 221.713 553.995 353.016 300.877 161.768 415.877 99.924 271.800 535.795 207.177 425.306 464.345 589.457 505.029 201.605 249.844 383.112 197.935 398.969 247.429 133.051 406.539 264.035 231.538 383.875 230.573 437.926 473.581 558.517 368.758 131.646 529.308 126.028 206.113 305.643 308.056 221.991 224.260 428.586 506.161 641.494 221.164 459.076 290.071 264.458 587.240 282.889 473.144 93.251 147.672 201.546 433.466 200.015 137.002 230.486 267.878 383.860 526.197 400.907 124.973 529.594 241.934 591.995 546.797 219.089 145.720 223.247 259.381 183.580 411.127 324.081 105.406 279.774 183.024 560.975 282.004 549.659 159.627 157.604 504.354 524.127 317.320 322.315 275.281 227.257 115.849 494.969 168.334 269.613 205.235 0.000 555.931
399.972 528.829 701.338 699.715 706.707 544.373 448.219 683.207 291.299 514.147 27.931 570.015 520.057 423.058 542.606 602.169 431.868 498.606 475.318 456.957 400.841 512.534 505.256 479.795 513.040 542.448 489.956 403.612 631.568 586.195 375.669 481.033 744.805 282.548 564.479 428.837 600.311 433.232 285.052 652.671 399.842 458.799 493.581 605.856 293.276 534.804 526.491 323.091 463.015 473.826 408.263 395.572 548.821 539.975 112.657 754.427 424.347 582.166 493.073 653.650 417.430 744.350 611.486 798.150 466.832 254.678 483.423 488.318 659.613 450.590 432.362 99.473 448.202 704.207 634.316 594.981 823.263 611.159 320.137 461.361 618.672 696.122 504.434 86.392 580.398 449.066 482.172 613.077 475.408 445.124 717.707 300.451 581.257 561.164 555.776 203.611 623.806 482.087 683.800 583.902 0.000
NODE_COORD_SECTION
1 -500.874011 70.822412
2 1765.514132 -1516.754975
3 5421.419314 -862.630175
4 5425.632081 -870.388324
5 2368.942260 -2882.148912
6 1942.252716 -259.146961
7 3.726492 1686.028259
8 5492.661943 -1358.443059
9 -3170.335679 1208.181430
10 427.546443 378.470596
11 -7424.593878 3832.980366
12 15.546548 831.634329
13 625.043985 -1443.936259
14 129.284579 1295.992533
15 -1455.370222 -3575.633578
16 3054.903763 -421.166858
17 -1085.502978 890.557320
18 -4247.218823 -2684.223160
19 405.623620 1170.541794
20 -2369.080557 -1702.180044
21 -4855.044263 -426.653053
22 -5801.111622 -3962.533821
23 -3577.675184 -2448.411566
24 936.430485 3287.415951
25 950.298089 -1322.452597
26 -972.765610 -3183.747025
27 1125.327557 2375.983164
28 -2491.325743 -1002.892004
29 3443.146856 4632.544919
30 2540.465435 -560.188648
31 -3018.841262 -24.511177
32 -178.921510 816.757659
33 6880.775800 -1215.839224
34 -3881.318686 862.709417
35 2540.408512 3174.528485
36 -3048.006254 -1403.772191
37 -1713.936730 -4435.507330
38 -7416.631060 -2710.850656
39 -4055.725739 2004.587426
40 2863.314725 1420.932872
41 -5951.277743 -1192.719749
42 985.125156 1043.370718
43 1250.406537 2473.238437
44 826.488729 -3965.251059
45 -3084.761864 2316.414533
46 350.993129 308.048946
47 345.005668 310.016937
48 -3761.612940 4810.538531
49 -3931.401456 -1704.612674
50 -7731.797614 -3469.774995
51 -699.643625 1318.943576
52 -5530.231716 -1504.932063
53 -19.553827 426.239937
54 1348.288159 3588.895085
55 -7903.387524 4819.795894
56 5576.422923 -3860.563977
57 -5309.594776 -1703.427879
58 2763.884527 -137.785227
59 1691.162412 2646.070891
60 3718.898802 -2994.632577
61 -3464.561024 -1070.398174
62 5574.261769 2794.302961
63 4037.949760 -1541.874541
64 6026.457817 1211.212863
65 118.726978 -1076.198033
66 -4032.170074 2565.967668
67 -4582.846471 -3188.713113
68 -1547.836071 -2944.356578
69 3300.778292 469.185335
70 -5174.530455 -2805.479115
71 -484.341085 505.206823
72 -7001.297045 4752.544281
73 -6566.014684 -3081.499276
74 4723.860469 -2341.335181
75 2702.663009 1196.670088
76 2923.523157 -2535.722469
77 7925.169555 402.951751
78 3100.668251 -1482.755604
79 -4331.622805 466.286947
80 -555.248893 3586.413316
81 4433.303764 -1282.674141
82 3999.135866 -4053.991300
83 925.254780 1293.943670
84 -7941.588572 4330.268567
85 364.263267 -3130.518605
86 -6600.894780 -3130.199986
87 1460.543491 2832.678627
88 3710.960486 -1499.920690
89 -4277.290313 -2925.651841
90 -5016.586314 -2439.052954
91 5638.397644 -4560.056124
92 -3070.434479 2134.460203
93 1551.658887 -2751.334396
94 2507.330326 3296.241321
95 2153.465210 1800.030869
96 -6973.630771 3237.470661
97 3343.406506 -1367.394210
98 344.859075 3748.859561
99 4193.614312 -2951.148220
100 3830.699658 578.651378
101 -7470.685778 3960.408146
DEMAND_SECTION
1 0
2 93
3 3
4 3
5 10
6 8
7 7
8 8
9 5
10 9
11 5
12 10
13 9
14 2
15 4
16 5
17 2
18 94
19 2
20 2
21 5
22 7
23 3
24 3
25 6
26 3
27 10
28 1
29 8
30 4
31 63
32 77
33 95
34 10
35 9
36 9
37 4
38 10
39 6
40 3
41 9
42 8
43 4
44 3
45 1
46 3
47 1
48 8
49 9
50 5
51 2
52 2
53 3
54 3
55 1
56 3
57 8
58 7
59 6
60 4
61 6
62 8
63 1
64 5
65 3
66 10
67 6
68 1
69 10
70 8
71 4
72 10
73 4
74 2
75 10
76 4
77 6
78 90
79 1
80 1
81 2
82 4
83 2
84 5
85 62
86 10
87 9
88 77
89 8
90 9
91 2
92 9
93 5
94 87
95 50
96 9
97 4
98 6
99 3
100 7
101 5
DEPOT_SECTION
1
-1
EOF
