NAME : mamut-san_francisco-n100-hyb
COMMENT : Mamut2026 shortest metric; city san_francisco; 3-decimal seconds/meters; ENU ref in mamut-san_francisco-n100-hyb.vrp.json
TYPE : CVRP
DIMENSION : 101
EDGE_WEIGHT_TYPE : EXPLICIT
EDGE_WEIGHT_FORMAT : FULL_MATRIX
CAPACITY : 186
EDGE_WEIGHT_SECTION
0.000 4180.873 12883.233 9551.866 489.227 15048.402 21928.319 2175.107 1907.918 1154.743 2451.482 1187.859 2833.925 6606.066 6052.094 14389.921 9731.091 8283.673 2564.994 3462.034 2856.203 4396.683 21467.888 3260.085 4117.256 3467.641 28951.855 1999.610 3652.907 1924.373 2093.203 14626.351 1506.836 14623.645 18466.108 2802.909 911.368 2127.972 19020.324 1451.186 17845.283 2855.700 1358.464 15623.282 5933.049 12596.667 883.459 2117.523 15845.097 3148.727 24830.761 4058.079 4514.061 26095.663 5148.886 13769.319 17986.617 2064.060 4506.084 5718.452 20455.723 14396.915 4241.622 4069.384 3190.210 17619.958 2968.411 2198.830 15311.726 9608.192 5294.527 24540.573 4896.538 9663.484 2823.817 30883.042 3248.862 3652.041 2768.008 8964.946 14972.123 3912.984 9117.621 1607.771 3108.583 2814.559 5728.191 2310.979 2293.735 2582.640 21291.415 8242.713 22043.660 21010.474 3400.861 20864.477 20688.964 3012.664 4780.454 22937.430 3540.776
4004.565 0.000 14413.431 11258.854 4493.382 17696.963 24576.880 5740.350 4952.815 4935.227 4261.679 5192.424 1347.265 7972.736 5388.176 17038.482 10933.257 10128.357 4834.807 4664.199 5463.821 215.810 24116.449 2538.832 6719.145 7072.354 31600.416 4007.613 527.853 4285.583 3655.073 17274.911 4993.946 16153.842 21114.669 5189.403 4085.651 2139.675 21668.884 5455.751 20493.844 3175.517 4923.707 18271.843 6263.209 13798.833 3878.233 3982.020 18493.658 1676.986 27479.321 3720.039 7677.639 28744.224 5479.046 16834.343 20635.177 5847.876 554.461 8271.386 16338.729 17045.476 5625.366 4745.116 5862.583 20268.519 5823.804 2269.203 16841.924 12664.864 5439.517 20423.579 4154.895 10865.650 5739.703 33531.603 4451.027 7211.980 2459.964 10809.631 16502.320 5115.149 10319.786 5612.336 3423.265 1431.644 7610.468 5355.876 2221.111 2058.073 17174.421 11320.495 24692.220 16893.480 6901.006 16747.483 16571.970 5853.602 5098.618 18820.436 3229.827
12644.774 14527.242 0.000 3506.534 12815.757 26467.104 33347.021 12238.964 11736.295 13170.484 14778.012 12859.540 13308.680 6457.151 11252.916 25808.623 4492.321 6432.630 10435.168 9863.732 10054.457 14458.896 32886.590 15775.563 8793.405 13169.780 40370.557 14326.140 14128.092 14250.903 14419.733 26045.052 13522.576 2825.874 29884.810 14479.761 13287.615 12562.291 30439.025 12596.633 29263.985 11673.817 12165.417 27041.984 9068.442 6047.891 12518.442 14444.052 27263.799 15171.801 36249.462 11349.957 10263.752 37514.365 9562.762 10423.757 29405.318 13071.756 14198.610 8745.363 26691.982 25815.617 9119.376 10074.174 10181.961 29038.660 10570.645 12812.856 4061.488 9210.528 9896.549 30776.832 11198.837 4423.606 10841.508 42301.744 10126.083 11077.746 12383.587 4088.578 2985.658 10049.244 4730.944 12664.692 11553.893 13281.304 7252.975 11502.960 12453.171 12908.117 27527.674 8433.803 33462.361 27246.733 14164.398 27100.737 26925.223 10407.269 10009.780 29173.689 11893.544
9291.437 11422.777 3492.951 0.000 9462.420 23113.767 29993.684 8885.627 8382.958 9817.147 11424.675 9506.203 10119.701 3407.713 9902.278 22455.286 3730.680 3302.951 7098.991 6814.294 6701.120 11409.458 29533.253 12422.226 5440.068 9745.938 37017.220 10972.803 10939.113 10897.566 11066.396 22691.715 10169.239 5233.362 26531.473 11126.424 9934.278 9373.312 27085.688 9243.296 25910.648 8626.858 8812.080 23688.647 7339.473 7431.839 9165.105 11090.716 23910.462 11818.464 32896.125 9620.989 6910.415 34161.028 7833.794 10399.979 26051.981 9718.419 11151.652 5321.522 25390.463 22462.280 6003.553 8198.291 6828.624 25685.323 7217.308 9572.134 5921.444 6100.097 8167.580 29475.313 9469.868 3661.965 7488.171 38948.407 7076.645 7724.409 9378.724 840.327 5581.840 7280.555 3083.269 9311.355 9617.238 10100.156 3829.133 8149.623 9403.733 9803.653 26226.154 5316.011 30109.024 25945.214 10793.145 25799.217 25623.703 7053.932 8280.811 27872.170 9956.890
845.100 4522.701 12840.753 9509.386 0.000 14561.086 21441.003 1956.073 1863.086 673.026 1962.255 901.062 3175.753 6563.585 6393.922 13902.604 9688.611 8241.193 2522.514 3419.553 2813.723 4738.511 20980.572 3162.237 4074.776 3093.824 28464.539 1510.383 3994.734 1435.146 1603.976 14139.034 1019.519 14581.165 17978.791 2315.593 674.288 2469.800 18533.007 1164.390 17357.966 2910.701 1312.151 15135.966 5890.569 12554.187 938.589 1628.295 15357.780 3335.143 24343.444 4399.906 4461.437 25608.347 5106.406 13551.050 17499.300 1585.675 4847.912 5669.676 20797.551 13909.598 4199.142 4026.904 3147.730 17132.642 2919.635 2540.657 15269.246 9389.924 5364.667 24882.401 5238.366 9621.004 2775.041 30395.725 3206.382 3487.375 3109.836 8922.466 14929.643 3870.504 9075.141 1320.975 3450.411 3156.386 5685.710 2259.837 2635.562 2924.467 21633.243 8024.445 21556.343 21352.302 2922.476 21206.305 21030.791 2970.183 4737.973 23279.258 3882.604
15613.669 18451.034 26792.444 23452.586 14912.597 0.000 7551.263 15304.368 15591.503 14433.012 14551.938 14343.489 17452.697 20515.276 21146.778 980.837 24160.043 22184.393 16676.626 17890.986 16784.028 18666.844 7668.774 16735.211 18043.052 15955.195 15152.741 14378.403 17950.637 14303.822 14980.723 1217.267 14721.740 28532.855 5106.610 13911.585 15358.621 17238.369 4643.268 14512.685 3993.238 17809.498 15421.651 999.786 20549.858 27025.619 15837.387 14498.857 5134.511 17024.280 11031.646 19168.475 17724.189 12296.549 20005.204 26855.403 3627.637 14576.125 18803.721 19014.939 34657.494 965.889 18518.073 18677.293 16989.187 3242.902 16264.897 17225.837 29220.937 22694.276 20263.464 38742.344 19991.222 24092.436 16120.304 17083.928 17677.814 16835.670 17878.405 22865.666 28881.334 18341.936 23546.573 14677.105 18218.980 17438.457 19628.910 15605.099 17404.132 17609.648 35493.186 21328.797 7666.604 35212.245 15579.437 35066.248 34890.735 16478.272 19636.771 37139.201 18651.173
22214.628 25051.993 33393.402 30053.544 21513.555 7656.105 0.000 21905.326 22192.462 21033.971 21152.897 20944.447 24053.655 27116.234 27747.736 7997.778 30761.002 28785.351 23277.584 24491.944 23384.986 25267.803 609.974 23336.169 24644.011 22556.153 8598.861 20979.361 24551.595 20904.781 21581.681 8010.693 21322.698 35133.814 5692.563 20512.543 21959.579 23839.328 4952.640 21113.643 4291.378 24410.457 22022.609 6745.307 27150.816 33626.578 22438.345 21099.816 12446.575 23625.239 4247.411 25769.434 24325.147 5930.175 26606.162 33456.361 4209.279 21177.083 25404.679 25615.897 41258.452 8541.672 25119.031 25278.252 23590.145 4448.735 22865.856 23826.796 35821.895 29295.235 26864.423 45343.302 26592.180 30693.395 22721.262 10530.048 24278.772 23436.629 24479.363 29466.624 35482.292 24942.894 30147.531 21278.063 24819.938 24039.415 26229.869 22206.058 24005.090 24210.606 42094.144 27929.756 499.560 41813.203 22180.395 41667.207 41491.693 23079.230 26237.729 43740.159 25252.131
2198.285 5778.950 12166.336 8826.478 1954.380 14783.495 21663.412 0.000 1213.169 1829.552 3873.588 1482.006 4432.002 5889.168 7641.474 14125.014 9662.265 7558.285 2057.517 3393.207 2157.920 5994.760 21202.981 4914.186 3416.945 1688.175 28686.948 3426.892 5250.983 3351.655 3521.470 14361.443 2439.424 13906.748 18201.200 3075.007 2426.238 3717.353 18755.416 870.888 17580.375 3620.128 1212.672 15358.375 6052.079 12527.841 2071.953 3544.804 15580.190 4877.044 24565.853 5646.804 2763.505 25830.756 5508.907 12018.764 17721.709 832.792 6104.161 4243.966 22053.800 14132.008 3891.965 4179.515 2363.079 17355.051 1638.790 3796.907 14594.829 7857.637 6164.272 26138.650 6485.918 9594.658 1494.196 30618.135 3180.035 1654.092 4357.388 8239.558 14255.226 3844.157 9048.794 981.679 4697.308 4412.636 5002.803 770.864 3883.115 4180.717 22889.492 6492.158 21778.752 22608.551 2173.755 22462.554 22287.041 1852.164 5270.123 24535.507 5129.501
2106.267 5488.030 11893.889 8554.031 2276.854 15193.911 22073.828 1069.736 0.000 2163.739 4212.951 1816.193 4141.082 5616.721 7350.554 14535.430 9261.488 7285.838 1778.071 2992.431 1885.473 5703.840 21613.397 5236.660 3144.497 2666.520 29097.364 3761.079 4960.064 3685.842 3855.658 14771.860 2773.611 13634.300 18611.617 3436.414 2748.711 3426.433 19165.833 1323.440 17990.792 3329.208 1122.070 15768.791 5651.303 12127.064 1979.935 3878.992 15990.606 4785.026 24976.269 5355.884 2932.001 26241.172 5108.130 12187.259 18132.126 1902.528 5813.241 4116.384 21762.880 14542.424 3619.518 3778.738 2090.632 17765.467 1366.342 3505.987 14322.382 8026.133 5763.496 25847.730 6194.998 9193.882 1221.749 31028.551 2779.259 2466.342 4066.469 7967.111 13982.779 3443.381 8648.018 1391.500 4406.388 4121.716 4730.355 706.544 3592.195 3889.797 22598.572 6660.654 22189.169 22317.631 3186.284 22171.635 21996.121 1579.717 4869.347 24244.587 4838.581
1311.732 4968.432 12766.790 9426.932 669.063 14225.484 21105.401 1640.278 1548.865 0.000 2242.776 585.267 3621.484 6489.622 6860.554 13567.003 9984.636 8158.739 2590.697 3715.578 2750.464 5184.242 20644.970 3554.690 4011.517 2751.601 28128.937 1790.904 4440.466 1715.667 1885.482 13803.433 803.436 14507.201 17643.190 1979.991 1119.172 2936.432 18197.405 848.595 17022.365 3377.333 997.806 14800.364 6357.201 12850.212 1405.221 1908.816 15022.179 3780.028 24007.842 4866.538 4145.642 25272.745 5573.038 13235.255 17163.698 1243.452 5293.643 5353.881 21243.283 13573.997 4481.934 4493.536 2963.349 16797.040 2603.840 2986.389 15195.283 9074.129 5831.299 25328.133 5704.998 9917.029 2459.246 30060.124 3502.406 3171.580 3576.468 8840.012 14855.680 4166.528 9371.165 1005.180 3917.043 3602.118 5603.257 1944.042 3102.194 3370.199 22078.974 7708.650 21220.742 21798.034 2580.253 21652.037 21476.523 2657.543 5204.605 23724.990 4349.236
2870.169 4351.156 15009.849 11678.482 2169.096 14242.888 21122.805 4021.459 4014.996 2466.131 0.000 2895.391 3745.474 8732.681 7932.194 13584.407 11857.707 10410.289 4691.610 5588.649 4982.819 4566.966 20662.374 2621.311 6243.872 3887.417 28146.341 1054.131 3850.759 979.550 1269.315 13820.837 2264.024 16750.260 17660.594 1296.326 2500.144 4186.252 18214.809 3306.410 17039.769 5079.797 3463.937 14817.768 8059.665 14723.283 3107.685 1174.585 15039.583 2924.402 24025.246 6130.661 6568.746 25290.149 7275.502 15411.494 17181.102 3284.331 4703.842 7819.531 20557.616 13591.401 6368.238 6196.000 5316.826 16814.444 5069.490 4011.253 17438.342 11242.015 7533.763 24642.466 6776.638 11790.100 4924.896 30077.528 5375.478 5552.762 4796.954 11091.562 17098.739 6039.600 11244.237 3470.830 5475.479 3932.036 7854.806 4409.692 4548.968 4395.063 21393.307 10173.355 21238.146 21112.367 3511.659 20966.370 20790.856 5123.674 6907.069 23039.323 5630.512
1528.203 5122.414 13096.386 9756.528 827.130 13865.714 20745.631 1604.444 1895.445 347.546 2396.758 0.000 3775.466 6819.218 7061.312 13207.233 10331.335 8488.334 2937.396 4062.277 3087.969 5338.224 20285.200 3708.672 4346.994 2384.350 27769.167 1944.886 4594.448 1869.648 2039.464 13443.662 957.418 14836.797 17283.420 1620.221 1273.154 3152.903 17837.635 812.761 16662.595 3724.032 1344.505 14440.594 6703.900 13196.911 1751.920 2062.798 14662.409 3934.009 23648.072 5083.009 4110.641 24912.975 5919.737 13200.255 16803.928 876.201 5447.625 5318.881 21397.265 13214.227 4822.015 4840.235 3293.129 16437.270 2568.839 3140.371 15524.879 9039.128 6177.998 25482.114 5905.755 10263.728 2424.246 29700.354 3849.105 3135.746 3792.938 9169.608 15185.275 4513.227 9717.864 970.179 4133.513 3756.100 5932.852 1909.041 3318.665 3524.181 22232.956 7673.649 20860.971 21952.015 2213.002 21806.019 21630.505 2782.214 5551.304 23878.972 4565.706
2657.624 1347.378 13327.628 10145.568 3146.441 16787.915 23667.832 4393.409 3605.875 3588.287 3551.421 3845.483 0.000 6886.933 4398.853 16129.434 9847.454 8877.375 3515.022 3578.397 4119.666 1563.188 23207.401 3592.943 5380.719 5822.668 30691.368 3100.397 819.412 3376.535 2673.729 16365.863 3744.260 15068.040 20205.620 4285.341 2738.710 792.735 20759.836 4108.810 19584.796 2120.897 3576.766 17362.795 5214.144 12713.030 2531.292 3074.804 17584.610 2731.097 26570.273 2670.974 6330.698 27835.176 4429.981 15536.182 19726.129 4500.936 1674.931 6973.225 17624.570 16136.428 4539.564 3696.051 4518.579 19359.471 4476.864 922.263 15756.121 11366.703 4390.452 21709.420 3165.572 9779.847 4392.763 32622.555 3365.225 5865.040 1405.343 9558.648 15416.518 4029.347 9233.984 4265.396 2368.644 256.471 6321.893 4008.935 1166.490 1003.452 18460.262 10022.333 23783.172 18179.321 5651.320 18033.324 17857.811 4506.662 4049.553 20106.277 2180.762
6356.851 8070.090 6440.695 3384.905 6527.834 20179.181 27059.098 5951.041 5448.372 6882.561 8490.089 6571.617 6851.529 0.000 8351.473 19520.700 4388.545 2449.970 4147.245 3406.580 3766.535 8001.745 26598.667 9487.640 2505.482 7064.116 34082.634 8038.217 7670.940 7962.980 8131.810 19757.130 7234.654 8181.106 23596.887 8191.838 6999.692 6105.139 24151.103 6308.710 22976.062 5219.145 5877.494 20754.061 5788.859 7888.474 6230.519 8156.130 20975.876 8883.878 29961.539 6745.509 3975.829 31226.442 5923.521 10339.685 23117.395 6783.833 7743.939 2514.931 23693.578 19527.694 2662.224 4790.578 3894.038 22750.737 4282.722 6355.705 8869.188 5955.313 6616.775 27778.428 7527.698 4319.830 4553.585 36013.821 3668.932 4789.823 5971.011 2940.080 8529.585 3872.842 3496.933 6376.769 6209.525 6824.153 1110.103 5215.037 5996.020 6450.966 24529.269 4201.073 27174.439 24248.329 7876.475 24102.332 23926.818 4119.346 5684.737 26175.285 6549.177
5971.471 5476.072 11679.369 10029.804 6460.698 20483.859 27363.776 7704.184 6915.807 6910.334 7881.805 7159.330 4455.921 8416.429 0.000 19825.377 7048.456 10486.654 6616.138 5754.927 7144.697 5262.343 26903.345 7997.835 8393.261 9147.581 34387.312 7291.070 5243.342 7246.279 6970.355 20061.807 7069.173 13565.421 23901.564 8238.161 6063.623 4108.633 24455.780 7422.657 23280.739 4164.270 6887.542 21058.739 2767.729 9207.563 5845.139 7265.477 21280.553 7135.989 30266.217 2126.936 9641.473 31531.120 3264.297 18333.757 23422.073 7822.983 4921.619 9941.277 16377.737 19832.371 7097.399 4148.206 7543.459 23055.415 7579.448 4298.355 14939.130 14172.630 1971.708 20462.587 1346.530 6980.849 7506.323 36318.498 5492.576 9175.815 3383.123 10083.889 13612.989 5507.797 7113.643 7579.242 3135.320 4274.601 9027.963 7318.867 3832.129 4070.522 17213.429 12529.734 27479.116 16932.488 8976.233 16786.491 16610.978 7609.246 3411.637 18859.444 2942.665
14907.630 17744.995 26086.404 22746.547 14206.557 1008.259 7859.022 14598.328 14885.464 13726.973 13845.899 13637.450 16746.657 19809.237 20440.739 0.000 23454.004 21478.353 15970.586 17184.946 16077.988 17960.805 7600.358 16029.171 17337.013 15249.155 15084.325 13672.364 17244.597 13597.783 14274.683 326.233 14015.700 27826.816 4586.610 13205.545 14652.581 16532.330 4951.026 13806.645 3977.752 17103.459 14715.611 1323.165 19843.818 26319.580 15131.347 13792.818 5485.268 16318.241 10963.230 18462.436 17018.149 12228.133 19299.164 26149.364 3935.395 13870.085 18097.681 18308.899 33951.455 1446.353 17812.033 17971.254 16283.147 3550.661 15558.858 16519.798 28514.897 21988.237 19557.425 38036.304 19285.183 23386.397 15414.264 17015.512 16971.774 16129.631 17172.366 22159.626 28175.294 17635.896 22840.533 13971.065 17512.940 16732.417 18922.871 14899.060 16698.092 16903.608 34787.146 20622.758 7974.362 34506.206 14873.397 34360.209 34184.695 15772.232 18930.731 36433.162 17945.133
9366.038 10786.645 4980.726 3814.491 9537.022 23720.960 30600.877 9492.819 8834.883 10174.039 11499.276 9958.128 9731.719 4377.223 7101.752 23062.478 0.000 5165.638 7546.965 6181.694 7622.737 10666.057 30140.446 12496.828 6583.092 10778.521 37624.413 11047.405 10551.131 10972.167 11140.997 23298.908 10526.132 6866.778 27138.665 11578.349 10008.879 8985.868 27692.881 9850.489 26517.840 7824.208 9264.005 24295.840 5218.833 4322.457 9239.706 11165.317 24517.655 11893.065 33503.318 7500.349 7941.141 34768.221 5713.154 12960.811 26659.174 10325.612 10349.002 6837.166 22540.818 23069.472 5982.859 6224.566 7750.240 26292.516 8073.987 9261.011 8240.487 8660.929 5878.359 26625.668 7180.647 91.912 8327.996 39555.599 6380.863 8796.687 8533.979 4052.204 6914.346 6199.636 1188.595 9918.548 7704.285 9540.708 5384.097 8820.546 8679.396 9167.521 23376.510 7262.580 30716.217 23095.569 11549.954 22949.572 22774.058 7978.389 6160.172 25022.525 8043.936
8033.936 10165.276 6432.392 3297.494 8204.919 21856.266 28736.183 7531.960 7125.457 8559.646 10167.174 8248.702 8862.200 2674.962 10412.195 21197.785 5125.327 0.000 5841.491 5842.379 5443.620 10277.646 28275.752 11164.725 4182.567 8040.284 35759.719 9715.302 9681.612 9640.065 9808.895 21434.215 8911.738 8172.803 25273.972 9868.923 8676.777 8115.811 25828.187 7985.795 24653.147 7652.429 7554.579 22431.146 7849.581 8909.202 7907.604 9833.215 22652.961 10560.963 31638.624 9272.708 5652.914 32903.527 8094.486 8792.444 24794.480 8364.753 10177.222 4017.657 25900.379 21204.779 4746.052 7317.776 5571.123 24427.822 5959.807 8314.633 8860.885 4134.761 8677.497 29985.229 9979.785 5056.612 6230.670 37690.906 6104.730 6245.705 8404.295 2637.268 8521.281 6400.040 4292.084 8053.854 8645.324 8842.655 2571.632 6892.122 8236.250 8546.152 26736.071 2704.857 28851.524 26455.130 9061.346 26309.133 26133.620 5796.431 8211.936 28382.086 8984.975
2344.778 4835.806 10411.168 7093.534 2515.761 16300.961 23180.878 2072.821 1522.071 2955.744 4478.016 2645.316 3502.673 4134.000 6570.228 15642.480 7705.250 5825.340 0.000 1436.192 638.074 5051.616 22720.447 5475.567 1898.483 3231.556 30204.414 4026.144 4321.655 3950.907 4119.737 15878.910 3307.837 12151.579 19718.667 4265.537 2987.619 2764.422 20272.883 2430.490 19097.842 2556.632 1951.193 16875.841 4370.229 10570.826 2218.446 4144.056 17097.656 4871.805 26083.319 4518.990 3235.715 27348.222 3850.149 12216.865 19239.176 2905.613 5081.425 3653.908 21031.064 15649.474 1894.559 2497.664 1036.987 18872.517 1069.835 2858.743 12839.661 8047.386 4782.873 25115.914 5414.672 7637.643 989.496 32135.601 1223.021 2833.868 3308.497 6506.614 12500.058 1887.143 7091.780 2498.549 3570.733 3483.307 3269.858 1340.996 2906.779 3216.681 21866.756 6703.016 23296.219 21585.815 4002.988 21439.818 21264.305 1099.633 3611.365 23512.771 4002.097
3247.526 4668.134 9850.031 6794.241 3418.510 17602.448 24482.365 3374.308 2716.371 4055.527 5380.765 3839.616 3613.207 3409.336 5704.933 16943.967 6332.623 5756.423 1428.453 0.000 1460.180 4595.164 24021.934 6378.316 2638.334 4660.009 31505.901 4928.893 4432.619 4853.655 5022.486 17180.396 4407.620 11590.442 21020.153 5459.837 3890.367 2867.357 21574.369 3731.977 20399.328 1812.565 3145.493 18177.328 3475.803 9198.199 3121.194 5046.805 18399.143 5774.553 27384.806 3659.490 3996.177 28649.709 2955.724 12678.024 20540.662 4207.100 4337.358 4186.349 20286.998 16950.961 1342.472 1603.239 1858.942 20174.004 1894.931 3142.499 12278.524 8516.898 3910.801 24371.847 4551.112 6265.017 2165.674 33437.088 262.351 4034.437 2564.431 6349.416 11938.921 798.546 5719.153 3800.036 2802.945 3422.196 3372.230 2702.035 2589.440 3049.009 21122.689 7098.676 24597.705 20841.749 5431.442 20695.752 20520.238 1924.729 2716.940 22768.705 3142.597
2590.316 5465.863 10035.521 6695.663 2761.300 16415.589 23295.506 2187.449 1681.837 3116.027 4723.555 2805.083 4133.546 3758.353 7094.702 15757.108 7774.162 5427.469 639.369 1460.180 0.000 5681.673 22835.075 5721.106 1261.053 3319.052 30319.042 4271.683 4952.527 4196.445 4365.276 15993.537 3468.119 11775.932 19833.295 4425.304 3233.157 3395.038 20387.510 2545.118 19212.470 3183.509 2110.959 16990.469 4865.573 10639.738 2463.984 4389.595 17212.284 5117.343 26197.947 5049.260 2605.069 27462.850 4345.493 11677.577 19353.803 3020.241 5708.303 3245.200 21657.942 15764.102 1738.938 2993.009 398.913 18987.145 519.130 3489.616 12464.014 7508.098 5300.571 25742.792 5940.882 7706.555 789.993 32250.229 1652.121 2658.636 3935.375 6108.743 12124.410 2188.315 7160.691 2613.177 4192.715 4114.180 2871.987 1451.445 3536.836 3846.739 22493.634 6163.728 23410.846 22212.693 4113.437 22066.696 21891.183 548.928 4106.710 24139.649 4532.366
4220.375 215.810 14513.478 11457.688 4709.192 17912.773 24792.690 5956.160 5168.625 5151.037 4477.489 5408.234 1563.075 8072.783 5174.458 17254.292 10826.491 10344.167 5050.617 4663.447 5679.631 0.000 24332.259 2740.841 6934.955 7288.164 31816.226 4223.423 743.663 4501.393 3870.883 17490.721 5209.756 16253.889 21330.479 5405.213 4301.461 2355.485 21884.694 5671.561 20709.654 2969.834 5139.517 18487.653 6049.491 13641.881 4094.043 4197.830 18709.468 1878.995 27695.131 3506.320 7893.449 28960.034 5265.328 17050.153 20850.987 6063.686 340.743 8487.196 16122.919 17261.286 5841.176 4531.397 6078.393 20484.329 6039.614 2485.013 16941.971 12880.674 5225.798 20207.769 3941.177 10758.884 5955.513 33747.413 4401.096 7427.790 2254.280 11012.863 16602.368 5114.397 10213.020 5828.146 3217.582 1647.455 7826.278 5571.686 2294.330 2273.883 16958.611 11536.305 24908.030 16677.670 7116.816 16531.673 16356.160 6069.412 4884.899 18604.626 3016.109
21749.544 24586.910 32928.319 29588.461 21048.472 7793.537 669.583 21440.243 21727.379 20568.887 20687.814 20479.364 23588.572 26651.151 27282.653 7933.002 30295.919 28320.268 22812.501 24026.861 22919.903 24802.720 0.000 22871.086 24178.927 22091.070 8520.225 20514.278 24086.512 20439.697 21116.598 8148.124 20857.615 34668.730 5184.805 20047.460 21494.496 23374.245 5149.746 20648.560 4165.790 23945.373 21557.526 6942.413 26685.733 33161.494 21973.262 20634.732 12584.007 23160.156 4214.004 25304.351 23860.064 5679.631 26141.079 32991.278 4234.631 20712.000 24939.596 25150.814 40793.369 8679.103 24653.948 24813.168 23125.062 4645.841 22400.773 23361.713 35356.812 28830.151 26399.339 44878.219 26127.097 30228.312 22256.179 10451.412 23813.689 22971.545 24014.280 29001.541 35017.209 24477.811 29682.448 20812.980 24354.855 23574.332 25764.786 21740.975 23540.007 23745.523 41629.061 27464.672 784.924 41348.120 21715.312 41202.123 41026.610 22614.147 25772.646 43275.076 24787.048
3405.843 2551.631 15750.476 12419.109 3149.845 16068.508 22948.425 5042.349 4775.161 3554.435 2611.126 3984.752 3600.798 9473.308 7908.010 15410.027 12598.334 11150.916 5432.237 6329.276 5723.446 2738.901 22487.994 0.000 6984.499 5443.899 29971.961 2379.158 2785.604 2657.128 2026.618 15646.456 3365.491 17490.887 19486.214 3364.179 2948.290 4393.472 20040.429 4314.235 18865.389 5703.386 4225.707 16643.388 8783.043 15463.910 3786.029 2353.565 16865.203 859.522 25850.866 6239.872 7381.303 27115.769 7998.880 16636.562 19006.722 4467.084 3074.295 8585.695 18645.965 15417.021 7108.865 6936.627 6057.452 18640.064 5835.653 4229.993 18178.969 12475.435 7959.350 22730.815 6674.729 12530.727 5691.060 31903.148 6116.104 6519.283 4987.832 11832.189 17839.366 6780.227 11984.864 4470.820 5951.134 3857.270 8595.433 5178.221 4767.289 4604.250 19481.656 11109.956 23063.765 19200.716 5272.551 19054.719 18879.205 5879.906 7618.451 21127.672 5749.661
3851.369 6717.715 8774.468 5434.610 4022.352 17674.076 24553.993 3445.936 2942.890 4377.079 5984.607 4066.135 5392.051 2497.300 8249.002 17015.595 6667.921 4166.417 1898.429 2642.283 1261.053 6933.525 24093.562 6982.158 0.000 4577.539 31577.529 5532.735 6211.033 5457.498 5626.328 17252.024 4729.172 10514.879 21091.781 5686.356 4494.210 4653.543 21645.997 3803.605 20470.956 4435.362 3372.012 18248.956 6014.945 9533.497 3725.037 5650.648 18470.771 6378.396 27456.434 6300.315 1472.387 28721.337 5494.865 10417.104 20612.290 4278.728 6960.155 1984.728 22909.794 17022.589 1304.022 4244.065 1388.556 20245.632 1777.617 4748.121 11202.961 6247.626 6454.871 26994.644 7099.042 6600.314 2048.480 33508.716 2903.177 2327.932 5187.227 4847.690 10863.358 3435.178 5921.907 3871.664 5443.770 5372.685 1610.934 2709.931 4788.688 5098.591 23745.486 4903.256 24669.333 23464.545 5371.924 23318.548 23143.035 1614.593 5256.082 25391.501 5783.422
3564.820 7057.762 13235.335 9806.476 3108.796 14737.131 21617.048 1778.486 2942.551 2629.212 3679.988 2539.689 5895.473 7050.999 9113.360 14078.650 10936.409 8026.074 3231.159 4667.352 3325.562 7273.572 21156.617 5341.938 4584.587 0.000 28640.584 3397.338 6557.364 3322.101 3491.917 14315.079 2695.713 14975.746 18154.836 2881.407 3554.821 5189.238 18709.052 2185.972 17534.011 5349.510 2942.054 15312.011 7601.388 13801.985 3525.000 3515.251 15533.826 5631.008 24519.489 7119.180 3853.350 25784.392 7081.308 11701.545 17675.345 1618.785 7410.448 5212.529 23264.222 14085.644 5059.608 5728.823 3530.721 17308.687 2806.432 5260.378 15663.828 7532.066 7893.654 27349.071 7957.804 10868.803 2661.839 30571.771 4454.180 2302.644 5829.274 9219.556 15324.225 5118.302 10322.939 2296.762 6169.684 5876.107 6164.634 2371.531 5355.001 5644.188 24099.913 6637.783 21732.388 23818.973 1108.938 23672.976 23497.462 3013.177 6842.524 25745.929 6601.877
29132.314 31969.679 40311.088 36971.231 28431.241 15695.912 8823.141 28823.012 29110.148 27951.657 28070.583 27862.133 30971.341 34033.921 34665.423 15315.771 37678.688 35703.037 30195.270 31409.630 30302.672 32185.489 8524.491 30253.855 31561.697 29473.839 0.000 27897.048 31469.281 27822.467 28499.367 15552.201 28240.384 42051.500 12610.250 27430.229 28877.265 30757.014 13348.567 28031.329 11832.332 31328.143 28940.295 14953.795 34068.502 40544.264 29356.031 28017.502 19973.405 30542.925 5110.640 32687.120 31242.833 4194.104 33523.848 40374.048 12292.720 28094.769 32322.365 32533.583 48176.139 16412.346 32036.717 32195.938 30507.831 12844.662 29783.542 30744.482 42739.581 36212.921 33782.109 52260.988 33509.867 37611.081 29638.948 3479.457 31196.458 30354.315 31397.049 36384.310 42399.978 31860.580 37065.217 28195.749 31737.624 30957.101 33147.555 29123.744 30922.776 31128.292 49011.830 34847.442 8938.481 48730.889 29098.081 48584.893 48409.379 29996.916 33155.415 50657.846 32169.817
2050.725 4168.435 14190.406 10859.039 1349.653 13837.807 20717.724 3285.038 3195.553 1646.688 1141.481 2075.948 3074.378 7913.238 7021.403 13179.326 11038.264 9590.845 3872.167 4769.206 4163.376 4384.245 20257.293 2452.611 5424.429 3420.621 27741.260 0.000 3668.038 426.428 602.590 13415.756 1444.581 15930.817 17255.513 1499.364 1680.700 3366.809 17809.729 2493.355 16634.688 4260.354 2644.494 14412.687 7240.222 13903.840 2288.242 120.454 14634.502 2741.681 23620.166 5272.308 5755.691 24885.069 6456.059 14881.943 16776.022 2550.590 4521.121 7000.569 20374.895 13186.320 5548.795 5376.557 4497.382 16409.363 4250.528 3191.810 16618.899 10720.817 6714.320 24459.745 5786.669 10970.657 4105.934 29672.447 4556.034 4816.341 3977.511 10272.119 16279.296 5220.156 10424.793 2651.868 4656.036 3060.053 7035.363 3590.730 3729.525 3575.620 21210.586 9355.338 20833.065 20929.646 3044.863 20783.649 20608.135 4304.231 6087.626 22856.602 4782.097
3476.801 528.078 14147.040 10964.980 3965.618 17279.875 24159.792 5212.586 4425.052 4407.464 3844.591 4664.660 819.412 7706.345 5155.438 16621.394 10666.866 9696.786 4334.434 4397.808 4939.078 743.888 23699.361 2773.531 6200.131 6641.845 31183.328 3590.525 0.000 3868.495 3237.985 16857.823 4563.437 15887.451 20697.581 4772.315 3557.887 1612.146 21251.796 4927.987 20076.756 2940.256 4395.943 17854.755 6030.471 13532.442 3350.469 3564.932 18076.570 1911.685 27062.233 3487.301 7149.875 28327.136 5246.309 16355.593 20218.089 5320.113 855.631 7792.637 16805.271 16628.388 5358.975 4512.378 5337.991 19851.431 5296.275 1741.440 16575.533 12186.115 5206.779 20890.121 3922.157 10599.259 5212.174 33114.515 4184.636 6684.216 2224.702 10378.060 16235.930 4848.758 10053.395 5084.572 3188.003 1075.883 7141.304 4828.112 1985.850 1822.812 17640.962 10841.745 24275.132 17360.022 6470.496 17214.025 17038.511 5326.073 4865.880 19286.978 2997.089
2034.054 4568.409 14173.735 10842.368 1332.981 13411.380 20291.297 3266.585 3178.881 1630.016 715.054 2059.276 3559.260 7896.567 7096.079 12752.899 11021.592 9574.174 3855.495 4752.535 4146.705 4784.219 19830.866 2852.586 5407.757 3242.333 27314.833 495.420 4068.012 0.000 1097.740 12989.328 1427.909 15914.146 16829.085 1072.937 1664.029 3350.137 17383.301 2474.902 16208.261 4243.682 2627.822 13986.260 7223.550 13887.168 2271.571 615.874 14208.075 3141.655 23193.738 5294.546 5737.238 24458.641 6439.388 14766.409 16349.594 2532.136 4921.096 6983.898 20774.869 12759.893 5532.123 5359.885 4480.711 15982.936 4233.856 3175.139 16602.228 10596.931 6697.648 24859.719 5940.523 10953.986 4089.263 29246.020 4539.363 4797.887 3960.839 10255.447 16262.624 5203.485 10408.122 2635.196 4639.365 3544.456 7018.692 3574.058 3712.854 3558.949 21610.561 9338.666 20406.637 21329.620 2866.575 21183.623 21008.110 4287.559 6070.955 23256.576 4794.398
2112.964 3742.267 14252.644 10921.277 1411.891 14650.186 21530.103 3359.469 3267.196 1719.192 1266.947 2149.508 2476.159 7975.476 6807.707 13991.704 11100.502 9653.084 3934.405 4831.445 4225.614 3958.077 21069.672 2026.443 5486.667 3608.655 28553.639 960.797 3241.870 1238.806 0.000 14228.134 1530.248 15993.056 18067.891 2145.741 1543.588 3195.253 18622.107 2567.786 17447.066 4322.592 2716.137 15225.066 7302.460 13966.078 2350.480 935.204 15446.880 2315.513 24432.544 5079.352 5841.358 25697.447 6518.297 14954.447 17588.400 2631.841 4094.953 7073.073 19948.727 13998.698 5611.033 5438.795 4559.621 17221.742 4323.031 3031.759 16681.137 10793.320 6776.558 24033.577 5574.426 11032.895 4178.438 30484.825 4618.273 4890.772 3808.426 10334.357 16341.534 5282.395 10487.032 2724.371 4718.274 2662.721 7097.602 3663.233 3569.474 3406.535 20784.418 9427.841 21645.443 20503.478 3437.307 20357.481 20181.967 4375.874 6149.865 22430.434 4589.140
15531.127 18368.492 26709.901 23370.044 14830.054 1476.322 7558.081 15221.825 15508.961 14350.470 14469.396 14260.946 17370.154 20432.734 21064.236 642.501 24077.501 22101.850 16594.083 17808.443 16701.485 18584.302 7418.657 16652.668 17960.510 15872.652 14902.624 14295.861 17868.094 14221.280 14898.180 0.000 14639.197 28450.313 5113.428 13829.042 15276.078 17155.827 4650.085 14430.142 3796.052 17726.956 15339.108 1022.224 20467.315 26943.077 15754.844 14416.315 5870.724 16941.738 10781.529 19085.933 17641.646 12046.432 19922.661 26772.861 3634.454 14493.582 18721.178 18932.396 34574.952 1999.050 18435.530 18594.751 16906.644 3249.720 16182.355 17143.295 29138.394 22611.734 20180.922 38659.801 19908.680 24009.894 16037.761 16833.811 17595.271 16753.128 17795.862 22783.123 28798.791 18259.393 23464.030 14594.562 18136.437 17355.914 19546.368 15522.557 17321.589 17527.105 35410.643 21246.255 7673.421 35129.702 15496.894 34983.706 34808.192 16395.729 19554.228 37056.659 18568.630
1371.797 4966.009 12968.898 9629.040 670.724 14096.789 20976.706 1842.385 1750.972 202.107 2240.352 632.424 3619.061 6691.730 6904.906 13438.308 10186.743 8360.846 2792.805 3917.685 2952.571 5181.819 20516.275 3552.266 4213.624 2622.906 28000.242 1788.480 4438.042 1713.243 1883.059 13674.737 0.000 14709.309 17514.494 1851.296 1116.749 2996.497 18068.710 1050.702 16893.670 3574.615 1199.913 14671.669 6554.483 13052.319 1602.503 1906.393 14893.484 3777.604 23879.147 4926.603 4347.749 25144.050 5770.320 13437.363 17035.003 1114.756 5291.220 5555.989 21240.859 13445.302 4684.041 4690.818 3165.456 16668.345 2805.947 2983.965 15397.391 9276.236 6028.581 25325.709 5749.350 10119.136 2661.354 29931.429 3704.514 3373.688 3636.533 9042.120 15057.787 4368.636 9573.273 1207.287 3977.108 3599.694 5805.364 2146.149 3162.259 3367.775 22076.551 7910.757 21092.046 21795.610 2451.557 21649.613 21474.099 2859.650 5401.887 23722.566 4409.301
14362.015 16244.483 2804.952 5223.776 14532.999 28184.346 35064.263 13956.206 13453.537 14887.726 16495.254 14576.782 15025.922 8174.393 13305.917 27525.865 6545.322 8149.872 12152.410 11580.974 11771.699 16176.138 34603.832 17492.805 10510.647 14887.021 42087.799 16043.382 15845.334 15968.144 16136.975 27762.294 15239.818 0.000 31602.051 16197.003 15004.857 14279.533 32156.267 14313.875 30981.226 13393.538 13882.659 28759.226 11121.443 8738.993 14235.684 16161.294 28981.041 16889.043 37966.704 13402.958 11980.994 39231.607 11615.763 9045.548 31122.560 14788.998 15918.332 10462.605 28744.984 27532.859 10836.618 12127.175 11899.202 30755.902 12287.887 14530.098 2120.998 10927.770 11949.550 32829.833 13251.838 6476.607 12558.750 44018.986 11843.325 12794.988 14145.404 5805.820 1155.355 12047.235 6783.945 14381.934 13606.894 14998.546 8970.217 13220.201 14170.413 14625.359 29580.675 10151.044 35179.603 29299.735 15881.640 29153.738 28978.224 12124.511 12062.781 31226.691 13946.546
18626.592 21463.957 29805.366 26465.508 17925.519 5124.849 5803.329 18317.290 18604.426 17445.935 17564.861 17356.411 20465.619 23528.198 24159.701 4766.519 27172.966 25197.315 19689.548 20903.908 19796.950 21679.767 5329.648 19748.133 21055.975 18968.117 12813.615 17391.326 20963.559 17316.745 17993.645 5002.949 17734.662 31545.778 0.000 16924.507 18371.543 20251.292 3257.094 17525.607 2239.682 20822.421 18434.573 4382.732 23562.780 30038.542 18850.309 17511.780 9467.683 20037.203 8692.520 22181.398 20737.111 9957.423 23018.126 29868.325 1874.648 17589.047 21816.643 22027.861 37670.416 5863.094 21530.995 21690.216 20002.109 2678.625 19277.820 20238.760 32233.859 25707.199 23276.387 41755.266 23004.144 27105.359 19133.226 14744.802 20690.736 19848.593 20891.327 25878.588 31894.256 21354.858 26559.495 17690.027 21231.902 20451.379 22641.833 18618.022 20417.054 20622.570 38506.108 24341.720 5918.670 38225.167 18592.359 38079.171 37903.657 19491.194 22649.693 40152.123 21664.095
2773.581 4997.053 14372.105 11032.248 2072.509 13375.142 20255.059 3230.347 3154.180 1605.315 798.581 2034.575 4000.554 8094.938 7838.437 12716.661 11589.951 9764.054 4196.013 5320.893 4355.779 5212.863 19794.628 3275.766 5616.832 3201.760 27278.595 1000.054 4496.656 925.473 1527.454 12953.090 1403.208 16112.517 16792.848 0.000 2406.387 4092.495 17347.063 2438.664 16172.023 4977.822 2603.121 13950.022 7957.691 14455.527 3005.711 1120.508 14171.837 3570.299 23157.500 6036.904 5701.000 24422.403 7173.528 14725.837 16313.356 2495.898 5349.739 6951.785 21203.513 12723.655 6087.249 6094.026 4568.664 15946.698 4201.744 3917.496 16800.598 10556.358 7431.788 25288.363 6682.881 11522.344 4057.150 29209.782 5107.721 4761.649 4703.197 10445.327 16460.995 5771.843 10976.480 2603.084 5378.892 3988.302 7208.572 3541.946 4455.211 4301.306 22039.204 9305.608 20370.399 21758.264 2826.003 21612.267 21436.753 4262.858 6805.095 23685.220 5536.755
1091.482 4352.539 13248.485 9917.118 407.731 14420.235 21300.152 2363.804 2270.818 849.577 1818.182 1279.893 3005.591 6971.317 6291.436 13761.754 10096.343 8648.924 2930.245 3827.285 3221.455 4568.349 20839.721 2868.268 4482.507 3083.958 28323.688 1366.310 3824.572 1291.073 1224.977 13998.184 1005.550 14988.896 17837.941 2174.538 0.000 2505.003 18392.157 1572.121 17217.116 3318.432 1719.882 14995.115 6298.301 12961.918 1346.321 1484.223 15216.930 3157.338 24202.593 4489.903 4869.168 25467.496 5514.138 13958.782 17358.450 1762.226 4677.750 6077.408 20627.389 13768.748 4606.873 4434.635 3555.461 16991.791 3327.366 2370.495 15676.978 9797.655 5772.398 24712.239 5135.880 10028.736 3182.773 30254.875 3614.113 3895.106 3145.039 9330.197 15337.374 4278.235 9482.872 1728.706 3694.076 2986.225 6093.442 2667.568 2670.765 2754.306 21463.081 8432.176 21415.493 21182.140 2912.610 21036.143 20860.630 3377.915 5145.705 23109.096 3989.754
1973.113 2139.806 12581.239 9399.179 2462.340 16631.140 23511.056 3705.826 2918.292 2911.976 4029.086 3160.972 792.735 6140.544 4058.628 15972.658 9101.065 8130.985 2768.633 2832.007 3373.277 2355.616 23050.626 4385.677 4634.330 5294.862 30534.593 3540.488 1612.146 3465.251 3285.246 16209.088 3216.454 14321.650 20048.845 4385.442 2210.904 0.000 20603.061 3424.299 19428.020 1403.418 2889.184 17206.019 4599.464 11966.641 1846.781 3580.369 17427.834 3523.832 26413.498 2257.095 5643.115 27678.401 3815.301 14789.792 19569.354 3824.625 2464.033 6226.836 18413.673 15979.652 3793.174 3012.326 3772.190 19202.696 3730.474 455.525 15009.732 10620.314 3838.184 22498.523 2903.072 9033.458 3646.373 32465.779 2618.835 5177.457 894.905 8812.259 14670.129 3282.957 8487.594 3580.885 1652.241 773.189 5575.503 3321.353 420.632 521.497 19249.364 9275.944 23626.397 18968.424 5123.514 18822.427 18646.913 3760.272 3434.873 20895.380 1756.946
19374.731 22212.096 30553.506 27213.648 18673.658 4386.743 4532.747 19065.430 19352.565 18194.074 18313.000 18104.551 21213.759 24276.338 24907.840 4728.417 27921.105 25945.454 20437.688 21652.048 20545.089 22427.906 4893.083 20496.272 21804.114 19716.257 13067.847 18139.465 21711.699 18064.884 18741.785 4741.331 18482.802 32293.917 2933.187 17672.647 19119.683 20999.431 0.000 18273.747 1819.815 21570.560 19182.713 3467.231 24310.920 30786.681 19598.449 18259.919 9174.803 20785.342 8780.158 22929.537 21485.251 10211.655 23766.266 30616.465 1263.218 18337.187 22564.782 22776.001 38418.556 5269.900 22279.135 22438.355 20750.249 1263.802 20025.959 20986.899 32981.999 26455.338 24024.526 42503.406 23752.284 27853.498 19881.366 14999.034 21438.876 20596.732 21639.467 26626.728 32642.396 22102.998 27307.635 18438.167 21980.042 21199.519 23389.972 19366.161 21165.193 21370.709 39254.248 25089.859 4534.071 38973.307 19340.499 38827.310 38651.796 20239.334 23397.833 40900.263 22412.235
1809.077 5486.678 12782.144 9442.286 1166.408 13984.936 20864.853 868.479 1588.842 1030.993 3080.205 683.448 4139.730 6504.976 7357.899 13326.455 10157.382 8174.093 2673.325 3888.324 2773.728 5702.488 20404.422 4126.214 4032.753 2093.251 27888.389 2628.333 4958.712 2553.096 2722.912 13562.885 1640.865 14522.556 17402.642 2303.668 1638.266 3433.777 17956.857 0.000 16781.817 3806.611 1417.769 14559.816 6547.196 13022.958 1891.814 2746.246 14781.631 4299.121 23767.294 5363.884 3379.313 25032.197 6002.316 12634.572 16923.150 733.564 5811.889 4859.774 21761.528 13333.449 4507.773 4674.632 2978.887 16556.492 2254.598 3504.635 15210.637 8473.445 6317.892 25846.378 6202.343 10089.775 2110.004 29819.576 3675.152 2399.781 4073.813 8855.366 14871.034 4339.275 9543.912 663.576 4414.388 4120.364 5618.611 1386.672 3599.540 3888.445 22597.220 7107.966 20980.194 22316.279 2072.921 22170.282 21994.769 2467.972 5633.883 24243.235 4846.581
18900.958 21738.323 30079.733 26739.875 18199.885 3966.891 4143.720 18591.656 18878.792 17720.301 17839.227 17630.778 20739.985 23802.565 24434.067 4308.565 27447.332 25471.681 19963.915 21178.274 20071.316 21954.133 4104.528 20022.499 21330.341 19242.483 11667.881 17665.692 21237.926 17591.111 18268.012 4321.479 18009.029 31820.144 2172.261 17198.873 18645.910 20525.658 2096.733 17799.974 0.000 21096.787 18708.939 3224.775 23837.146 30312.908 19124.676 17786.146 8757.361 20311.569 7546.786 22455.764 21011.477 8811.689 23292.493 30142.692 587.370 17863.413 22091.009 22302.228 37944.783 4852.458 21805.362 21964.582 20276.475 1520.667 19552.186 20513.126 32508.226 25981.565 23550.753 42029.633 23278.511 27379.725 19407.593 13599.068 20965.102 20122.959 21165.694 26152.955 32168.622 21629.225 26833.862 17964.393 21506.269 20725.745 22916.199 18892.388 20691.420 20896.936 38780.474 24616.086 4259.060 38499.534 18866.726 38353.537 38178.023 19765.560 22924.060 40426.490 21938.462
2494.936 3180.475 11655.483 8599.693 2950.010 17509.185 24389.102 3696.063 2821.996 3615.526 4912.265 3648.642 2126.210 5214.788 4096.656 16850.704 7968.496 7559.360 2548.519 1805.452 3177.534 2970.195 23928.671 5705.687 4432.858 5292.847 31412.638 4460.393 2945.214 4385.156 4553.986 17087.134 3967.619 13395.894 20926.891 5263.692 3406.303 1404.166 21481.107 3888.272 20306.066 0.000 3000.153 18084.065 3263.352 10824.314 2368.604 4578.306 18305.880 4843.841 27291.543 2095.011 5558.328 28556.446 2479.189 14480.961 20447.400 4524.843 2653.140 5985.099 18602.779 16857.698 3145.408 1668.312 3576.296 20080.741 3612.285 1791.811 14083.976 10319.834 2717.779 22687.629 2941.100 7900.889 3536.178 33343.825 1543.100 5092.669 880.212 8154.868 13744.372 2256.402 7355.025 3772.522 1145.515 1934.538 5175.167 3225.056 983.534 1563.977 19438.471 8901.613 24504.443 19157.530 5812.611 19011.533 18836.020 3642.083 2098.761 21084.486 1577.708
1450.907 5128.507 12428.617 9088.759 1155.550 14559.837 21439.754 1476.275 1210.692 1041.669 3090.881 694.123 3781.559 6151.449 6999.446 13901.356 9646.463 7820.566 2252.524 3377.405 2412.291 5344.317 20979.323 4115.356 3673.344 2970.488 28463.290 2639.009 4600.541 2563.772 2733.587 14137.786 1651.541 14169.029 17977.543 2314.344 1627.408 3075.325 18531.759 954.033 17356.718 3062.138 0.000 15134.717 6028.421 12512.039 1411.086 2756.922 15356.532 4096.362 24342.195 5005.266 3815.229 25607.098 5244.258 13002.445 17498.052 1568.868 5453.718 5021.226 21403.358 13908.350 4143.761 4163.713 2625.176 17131.393 2271.184 3146.464 14857.110 8841.318 5614.456 25488.207 5843.890 9578.856 2126.591 30394.477 3164.233 2953.209 3715.360 8501.839 14517.507 3828.355 9032.992 772.369 4055.770 3762.193 5265.084 1613.629 3241.087 3530.274 22239.049 7475.839 21555.095 21958.108 2907.125 21812.112 21636.598 2319.370 4889.411 23885.065 4487.963
16216.058 19053.423 27394.832 24054.974 15514.985 966.507 6606.291 15906.756 16193.892 15035.401 15154.327 14945.877 18055.085 21117.664 21749.166 1328.866 24762.432 22786.781 17279.014 18493.374 17386.416 19269.233 6966.627 17337.599 18645.441 16557.583 14658.813 14980.792 18553.025 14906.211 15583.111 1341.781 15324.128 29135.244 4331.214 14513.973 15961.009 17840.758 3684.421 15115.073 3217.842 18411.887 16024.039 0.000 21152.246 27628.008 16439.775 15101.246 5756.977 17626.669 10537.718 19770.864 18326.577 11802.621 20607.592 27457.791 2852.241 15178.513 19406.109 19617.327 35259.882 1852.074 19120.461 19279.682 17591.575 2385.431 16867.286 17828.226 29823.325 23296.665 20865.853 39344.732 20593.610 24694.825 16722.692 16590.000 18280.202 17438.059 18480.793 23468.054 29483.722 18944.324 24148.961 15279.493 18821.368 18040.845 20231.299 16207.488 18006.520 18212.036 36095.574 21931.186 6721.631 35814.633 16181.825 35668.637 35493.123 17080.660 20239.159 37741.589 19253.561
5675.383 6282.282 9520.688 7367.669 5873.191 20195.809 27075.726 5967.669 5309.733 6535.656 7835.446 6432.978 5233.226 5721.022 2824.042 19537.328 5226.822 7791.247 4296.873 3402.448 4792.217 6068.553 26615.295 8804.045 6040.781 7528.428 34099.262 7383.574 6049.553 7308.337 7477.167 19773.758 6887.748 11406.740 23613.515 8053.199 6345.049 4581.124 24167.731 6325.338 22992.690 3249.545 5738.855 20770.689 0.000 8082.640 5549.051 7501.486 20992.504 7942.199 29978.167 2525.546 7392.849 31243.070 738.351 15747.860 23134.024 6800.461 5727.829 7435.941 18312.226 19544.322 4744.919 1792.718 5190.979 22767.365 5226.969 4918.231 12414.145 11586.733 1089.344 22397.076 2391.632 5159.215 5153.843 36030.449 3140.096 7043.107 3866.928 7421.754 11454.308 3130.218 4613.351 6393.398 3003.491 5043.587 6442.066 5295.396 4160.492 4690.398 19147.918 9834.327 27191.067 18866.977 8084.217 18720.980 18545.467 5256.766 1185.368 20793.933 3343.143
12263.185 13683.792 6079.135 7450.946 12434.168 26618.106 33498.023 12389.966 11732.029 13071.186 14396.423 12855.274 12628.866 7878.684 9295.302 25959.625 4305.666 8898.003 10444.112 9078.840 10519.884 13563.203 33037.592 15393.974 9480.238 13675.667 40521.559 13944.551 13448.277 13869.314 14038.144 26196.054 13423.278 8791.159 30035.812 14475.495 12906.026 11883.015 30590.027 12747.635 29414.987 10721.355 12161.151 27192.986 8115.980 0.000 12136.853 14062.463 27414.801 14790.212 36400.464 10397.495 10838.288 37665.367 8610.300 16458.584 29556.320 13222.758 13246.148 10338.626 24629.863 25966.619 8880.005 9121.712 10647.387 29189.662 10971.134 12158.157 10026.773 12393.295 8699.549 28714.713 10001.837 4238.059 11225.143 42452.746 9278.010 11693.833 11431.125 7784.570 8948.482 9096.782 4603.118 12815.694 10601.431 12437.854 8885.557 11717.693 11576.543 12064.668 25465.555 10994.945 33613.363 25184.614 14447.100 25038.617 24863.104 10875.536 9057.318 27111.570 10941.083
126.332 4224.735 12572.103 9240.736 615.559 15174.734 22054.651 1863.977 1596.788 1281.075 2577.814 1314.191 2877.787 6294.935 6094.878 14516.253 9419.961 7972.543 2253.864 3150.904 2545.073 4440.545 21594.220 3386.417 3806.126 3460.761 29078.187 2125.942 3696.768 2050.705 2219.535 14752.683 1633.168 14312.515 18592.440 2929.241 1037.700 2170.756 19146.656 1577.518 17971.615 2480.173 1047.334 15749.614 5621.919 12285.537 0.000 2243.854 15971.429 3275.059 24957.092 4100.698 4202.930 26221.995 4837.756 13458.189 18112.949 2190.391 4549.946 5407.322 20499.585 14523.247 3930.492 3758.254 2879.080 17746.290 2657.281 2242.691 15000.596 9297.062 4932.595 24584.435 4939.322 9352.354 2512.687 31009.374 2937.732 3340.910 2810.792 8653.816 14660.993 3601.854 8806.491 1734.103 3151.202 2858.420 5417.061 1999.849 2336.519 2626.501 21335.276 7931.583 22169.992 21054.336 3527.193 20908.339 20732.825 2701.534 4469.324 22981.292 3583.395
1930.271 4454.200 14069.952 10738.585 1229.199 13717.353 20597.270 3164.584 3075.099 1526.234 1021.027 1955.494 3363.399 7792.784 6992.297 13058.872 10917.810 9470.391 3751.713 4648.752 4042.922 4670.010 20136.839 2738.376 5303.975 3300.167 27620.806 381.211 3953.803 305.973 903.304 13295.302 1324.126 15810.363 17135.059 1378.910 1560.246 3246.355 17689.275 2372.901 16514.234 4139.899 2524.039 14292.233 7119.768 13783.386 2167.788 0.000 14514.048 3027.446 23499.711 5190.764 5635.237 24764.614 6335.605 14761.489 16655.568 2430.135 4806.887 6880.115 20660.660 13065.866 5428.341 5256.103 4376.928 16288.909 4130.074 3071.356 16498.445 10600.362 6593.865 24745.510 5836.741 10850.203 3985.480 29551.993 4435.580 4695.887 3857.057 10151.665 16158.842 5099.702 10304.339 2531.414 4535.582 3348.595 6914.909 3470.276 3609.071 3455.166 21496.352 9234.883 20712.611 21215.411 2924.409 21069.414 20893.901 4183.777 5967.172 23142.367 4690.615
16205.226 19042.592 27384.001 24044.143 15504.154 5222.791 12273.575 15895.925 16183.061 15024.569 15143.496 14935.046 18044.254 21106.833 21738.335 5493.278 24751.601 22775.950 17268.183 18482.543 17375.585 19258.402 12505.318 17326.768 18634.609 16546.752 19989.285 14969.960 18542.194 14895.379 15572.280 5729.708 15313.297 29124.412 9831.735 14503.142 15950.178 17829.927 9351.705 15104.242 8765.630 18401.055 16013.208 5772.178 21141.415 27617.176 16428.944 15090.414 0.000 17615.838 15868.190 19760.033 18315.746 17133.093 20596.761 27446.960 8400.028 15167.682 19395.278 19606.496 35249.051 4253.682 19109.630 19268.850 17580.744 8015.294 16856.455 17817.395 29812.494 23285.833 20855.021 39333.901 20582.779 24683.994 16711.861 21920.472 18269.371 17427.227 18469.962 23457.223 29472.891 18933.493 24138.130 15268.662 18810.537 18030.014 20220.468 16196.657 17995.689 18201.205 36084.743 21920.354 12388.916 35803.802 16170.994 35657.805 35482.292 17069.829 20228.328 37730.758 19242.730
3011.754 1692.766 15150.293 11818.926 3327.819 16355.947 23235.864 4749.399 4175.167 3769.665 2920.663 4124.987 2741.933 8873.126 7049.145 15697.466 11998.151 10550.733 4832.054 5729.094 5123.264 1880.036 22775.433 862.774 6384.316 5731.338 30259.400 2666.597 1926.739 2944.567 2314.057 15933.895 3652.930 16890.705 19773.652 3848.387 3018.176 3534.607 20327.868 4388.314 19152.827 4844.522 3932.756 16930.827 7924.178 14863.727 3004.377 2641.004 17152.642 0.000 26138.305 5381.008 6804.814 27403.208 7140.015 16060.072 19294.161 4682.314 2215.430 7985.701 17787.100 15704.460 6508.682 6336.444 5457.270 18927.503 5235.660 3371.128 17578.786 11898.946 7100.485 21871.950 5815.864 11930.544 5091.066 32190.587 5515.922 6226.333 4128.968 11232.006 17239.183 6180.044 11384.681 4544.899 5092.269 2998.405 7995.251 4578.228 3908.424 3745.386 18622.791 10533.467 23351.204 18341.851 5559.990 18195.854 18020.340 5279.724 6759.586 20268.807 4890.796
25082.305 27919.671 36261.080 32921.222 24381.233 11562.083 4416.142 24773.004 25060.140 23901.648 24020.575 23812.125 26921.333 29983.912 30615.414 11265.763 33628.680 31653.029 26145.262 27359.622 26252.664 28135.481 4168.959 26203.847 27511.689 25423.831 5119.050 23847.039 27419.273 23772.458 24449.359 11502.192 24190.376 38001.491 8560.241 23380.221 24827.257 26707.006 8969.491 23981.321 7782.324 27278.134 24890.287 10762.159 30018.494 36494.255 25306.023 23967.494 15923.397 26492.917 0.000 28637.112 27192.825 3059.000 29473.840 36324.039 8003.176 24044.761 28272.357 28483.575 44126.130 12362.337 27986.709 28145.929 26457.823 8465.586 25733.534 26694.474 38689.573 32162.912 29732.100 48210.980 29459.858 33561.073 25588.940 7050.237 27146.450 26304.306 27347.041 32334.302 38349.970 27810.572 33015.209 24145.741 27687.616 26907.093 29097.547 25073.736 26872.768 27078.284 44961.822 30797.433 4539.446 44680.881 25048.073 44534.884 44359.371 25946.908 29105.407 46607.837 28119.809
3907.395 3756.737 11818.422 9665.403 4396.623 18596.740 25476.657 5640.109 4848.130 4846.258 5994.687 5095.254 2707.680 6929.578 2067.576 17938.259 7453.480 9379.548 4513.041 3652.393 5042.163 3543.008 25016.226 6278.500 6290.727 7236.893 32500.193 5477.753 3524.007 5402.515 5213.795 18174.689 5182.055 13704.474 22014.446 6351.043 4176.505 2189.003 22568.662 5358.582 21393.621 2092.213 4823.466 19171.620 2601.943 10135.560 3781.064 5508.918 19393.435 5416.654 28379.098 0.000 7577.398 29644.001 1817.781 16330.418 21534.954 5758.907 3202.284 7838.743 17555.201 17945.253 4994.865 2173.921 5440.925 21168.296 5476.914 2411.237 14711.879 12169.291 1719.478 21640.051 912.020 7385.873 5403.789 34431.380 3390.042 7111.739 1359.933 9719.488 13752.042 3533.511 6911.085 5515.167 1024.034 2518.042 7024.624 5251.191 1768.371 2183.404 18390.893 10751.069 25591.998 18109.952 7089.114 17963.955 17788.442 5506.712 1437.352 20036.908 820.117
4996.326 8576.990 9984.945 6556.086 5018.265 17912.083 24792.000 3360.255 3835.039 4898.084 6947.296 4550.538 7230.043 3863.221 10324.823 17253.602 8158.137 4893.297 3954.015 4715.536 3320.694 8792.800 24331.569 7978.071 2135.296 4266.325 31815.536 6495.424 8049.024 6420.187 6590.003 17490.031 5507.956 11725.356 21329.788 6170.759 5490.123 6515.393 21884.004 4059.208 20708.963 6418.168 4010.713 18486.963 8090.767 11491.573 4869.994 6613.337 18708.778 7675.085 27694.441 8368.190 0.000 28959.344 7570.687 9291.014 20850.297 4193.047 8902.202 1877.862 24851.841 17260.596 3378.989 6311.940 3255.590 20483.639 2884.180 6594.947 12413.438 5121.536 8530.692 28936.691 9174.864 8089.422 3096.878 33746.723 4971.052 2072.283 7155.429 5969.165 12073.834 5507.246 7272.784 4045.564 7495.349 7210.676 2840.679 3191.603 6681.156 6978.757 25687.532 3777.166 24907.340 25406.592 5158.935 25260.595 25085.081 2854.825 7331.903 27333.548 7851.297
26117.201 28954.566 37295.975 33956.118 25416.128 12680.799 6135.184 25807.899 26095.035 24936.544 25055.470 24847.020 27956.228 31018.808 31650.310 12300.658 34663.575 32687.924 27180.157 28394.517 27287.559 29170.376 5836.535 27238.742 28546.584 26458.726 4332.802 24881.935 28454.168 24807.354 25484.254 12537.088 25225.271 39036.387 9595.137 24415.116 25862.152 27741.901 10384.057 25016.216 8817.219 28313.030 25925.182 11938.682 31053.389 37529.151 26340.918 25002.389 16958.292 27527.812 3142.594 29672.007 28227.720 0.000 30508.735 37358.935 9277.607 25079.656 29307.252 29518.470 45161.026 13397.233 29021.604 29180.825 27492.718 9875.177 26768.429 27729.369 39724.468 33197.808 30766.996 49245.875 30494.754 34595.968 26623.835 6263.989 28181.345 27339.202 28381.936 33369.197 39384.865 28845.467 34050.104 25180.636 28722.511 27941.988 30132.442 26108.631 27907.663 28113.179 45996.717 31832.329 6250.524 45715.777 26082.968 45569.780 45394.266 26981.803 30140.302 47642.733 29154.704
4937.032 5543.932 10119.807 7966.788 5134.840 19690.964 26570.881 5499.590 4790.219 5797.305 7097.095 5829.260 4494.875 6058.206 3293.967 19032.483 5825.940 8210.693 3828.794 2934.368 4324.138 5330.203 26110.450 8065.695 5572.702 7060.349 33594.417 6645.223 5311.202 6569.986 6738.816 19268.913 6149.398 12005.859 23108.670 7445.471 5606.698 3842.774 23662.886 5857.259 22487.845 2511.194 5135.136 20265.844 903.328 8681.759 4810.700 6763.136 20487.659 7203.849 29473.322 1787.195 6924.769 30738.225 0.000 15488.099 22629.179 6332.382 4989.479 7120.718 18781.699 19039.477 4276.840 1324.639 4722.900 22262.520 4758.889 4179.881 13013.264 11326.972 1499.836 22866.549 2569.383 5758.334 4685.764 35525.604 2672.017 6575.028 3128.577 8020.873 12053.427 2662.139 5212.470 5907.506 2265.141 4305.236 6182.305 4827.317 3422.142 3952.047 19617.391 9908.751 26686.222 19336.450 7616.138 19190.453 19014.940 4788.687 447.018 21263.406 2604.793
13474.018 16818.686 12278.058 10522.176 13495.958 26030.190 32910.107 11837.947 12312.732 13375.776 14973.047 13028.231 15509.926 10277.154 18302.778 25371.709 12917.014 8856.038 12115.315 12742.566 11560.211 17034.496 32449.676 16455.764 10299.738 11431.525 39933.643 14690.398 16329.338 14615.160 14784.976 25608.138 13985.648 12775.946 29447.896 14174.466 13967.815 14763.537 30002.111 12536.901 28827.071 14536.333 12488.405 26605.070 15999.659 16700.888 13347.686 14808.310 26826.885 16152.777 35812.548 16370.629 9968.107 37077.451 15548.641 0.000 28968.404 12670.739 17061.126 8875.957 33010.765 25378.703 11400.809 14345.036 11496.015 28601.746 11178.472 14914.162 10949.134 4977.529 16508.647 37095.615 17152.818 12848.299 11391.171 41864.830 13004.148 10549.975 15288.199 9758.017 13286.670 13497.962 12083.770 12523.256 15544.741 15490.381 9609.988 11669.295 14889.659 15199.562 33846.457 6464.051 33025.447 33565.516 12452.587 33419.520 33244.006 11147.080 15309.857 35492.472 15884.393
18528.533 21365.899 29707.308 26367.450 17827.461 3591.247 4054.509 18219.232 18506.367 17347.876 17466.803 17258.353 20367.561 23430.140 24061.642 3932.920 27074.907 25099.257 19591.490 20805.850 19698.892 21581.709 4200.890 19650.075 20957.916 18870.059 12153.656 17293.267 20865.501 17218.686 17895.587 3945.834 17636.604 31447.719 1799.836 16826.449 18273.485 20153.234 1535.956 17427.549 605.211 20724.362 18336.515 2849.130 23464.722 29940.483 18752.251 17413.721 8381.717 19939.145 8031.470 22083.340 20639.053 9297.464 22920.068 29770.267 0.000 17490.989 21718.585 21929.803 37572.358 4476.813 21432.937 21592.157 19904.051 966.389 19179.762 20140.702 32135.801 25609.140 23178.328 41657.208 22906.086 27007.301 19035.168 14084.843 20592.678 19750.534 20793.269 25780.530 31796.198 21256.800 26461.437 17591.969 21133.844 20353.321 22543.774 18519.964 20318.996 20524.512 38408.050 24243.661 4169.849 38127.109 18494.301 37981.112 37805.599 19393.136 22551.635 40054.065 21566.037
2286.747 5880.959 12999.128 9659.271 1585.675 14047.210 20927.127 832.792 2045.962 1106.090 3136.460 1016.567 4534.011 6721.961 7819.856 13388.729 10495.057 8391.077 2890.309 4225.999 2990.712 6096.769 20466.696 4467.216 4249.737 1607.974 27950.663 2703.431 5352.993 2628.193 2798.009 13625.159 1715.962 14739.540 17464.916 2337.879 2031.699 3911.448 18019.132 735.464 16844.091 4452.920 2045.465 14622.090 6884.871 13360.633 2510.465 2821.343 14843.905 4692.554 23829.569 5841.554 3596.297 25094.471 6341.699 12851.556 16985.425 0.000 6206.170 5076.759 22155.809 13395.723 4724.758 5012.307 3195.871 16618.766 2471.582 3898.916 15427.622 8690.429 6936.542 26240.659 6664.300 10427.450 2326.988 29881.850 4012.827 2364.095 4551.483 9072.350 15088.018 4676.949 9881.586 1347.493 4892.058 4514.645 5835.595 1603.656 4077.210 4282.726 22991.501 7324.950 21042.468 22710.560 1436.626 22564.563 22389.050 2684.956 6102.915 24637.516 5324.251
4330.505 554.453 14188.370 11132.580 4819.322 18034.292 24914.209 6066.290 5278.755 5261.167 4599.008 5518.364 1674.880 7747.675 4833.715 17375.811 10501.383 10092.248 5081.407 4338.339 5710.421 340.724 24453.778 3076.216 6965.745 7409.683 31937.745 4344.942 855.468 4622.912 3992.402 17612.241 5331.275 15928.782 21451.998 5526.732 4411.591 2461.681 22006.214 5781.691 20831.173 2644.727 5249.647 18609.172 5708.748 13301.138 4204.173 4319.349 18830.987 2214.370 27816.650 3165.578 8003.579 29081.553 4924.585 17013.849 20972.507 6173.816 0.000 8517.986 15949.639 17382.805 5678.296 4190.654 6109.183 20605.848 6145.173 2595.143 16616.863 12852.722 4885.055 20034.489 3600.434 10433.776 6061.131 33868.932 4075.988 7537.920 1929.173 10687.756 16277.260 4789.290 9887.913 5938.276 2879.283 1757.584 7708.055 5681.816 2249.433 2383.970 16785.331 11434.500 25029.550 16504.390 7238.335 16358.393 16182.880 6174.970 4544.156 18431.346 2675.366
5498.273 8355.440 8748.201 5319.342 5668.860 18539.355 25419.272 4241.663 4084.954 5555.745 7604.957 5208.200 7046.681 2518.208 9882.289 17880.874 6854.093 4019.611 3652.069 4279.320 3227.545 8571.250 24958.841 8628.666 1967.073 5148.468 32442.808 7153.086 7866.092 7077.848 7247.664 18117.303 6165.617 10488.612 21957.060 6828.421 6140.717 6300.291 22511.276 4668.884 21336.235 6073.087 4514.076 19114.235 7623.172 10354.023 5371.941 7270.998 19336.050 8088.974 28321.713 7938.041 2178.614 29586.616 7128.152 8975.668 21477.569 5074.455 8597.880 0.000 24547.520 17887.868 2937.563 5881.790 3163.350 21110.911 2892.879 6450.916 11176.694 4806.189 8088.158 28632.370 8732.329 6785.378 3105.577 34373.995 4540.902 2874.176 6824.953 4732.422 10837.091 5070.261 5962.482 4736.943 7081.496 7027.135 1495.666 3490.708 6426.414 6736.316 25383.211 3461.819 25534.612 25102.271 5960.828 24956.274 24780.760 2840.020 6889.368 27029.227 7421.147
20666.723 16729.756 27438.365 25815.774 21155.540 34370.517 41250.434 22402.508 21614.974 21597.386 20935.233 21854.582 18011.105 24083.894 16624.247 33712.035 22807.452 26272.624 21417.625 20674.558 22046.640 16513.946 40790.003 19095.182 23301.963 23745.908 48273.970 20681.167 17191.693 20959.137 20328.627 33948.465 21667.500 29324.417 37788.222 21862.957 20747.809 18797.899 38342.438 22117.909 37167.397 18980.945 21585.865 34945.397 18553.699 24928.695 20540.391 20655.574 35167.212 18233.336 44152.875 17910.709 24339.797 45417.778 19049.814 33350.067 37308.731 22510.035 16336.224 24854.205 0.000 33719.029 22014.514 19759.233 22445.402 36942.073 22481.391 18931.362 30698.126 29188.940 17757.225 6118.119 16996.671 22739.845 22397.349 50205.157 20412.206 23874.138 18265.391 25869.859 29371.985 21125.508 22872.639 22274.494 18447.862 18093.803 24044.273 22018.034 18585.651 18720.188 1337.223 27770.718 41365.774 757.708 23574.560 896.219 5214.007 22511.189 19195.411 4514.976 18243.945
14719.235 17556.600 25898.009 22558.152 14018.162 1040.563 8355.588 14409.933 14697.069 13538.578 13657.504 13449.054 16558.262 19620.842 20252.344 1575.291 23265.609 21289.958 15782.191 16996.551 15889.593 17772.410 8561.442 15840.776 17148.618 15060.760 16045.409 13483.969 17056.202 13409.388 14086.288 1811.720 13827.305 27638.421 5913.747 13017.150 14464.186 16343.935 5433.718 13618.250 4847.642 16915.064 14527.216 1854.190 19655.423 26131.185 14942.952 13604.423 4240.076 16129.846 11924.314 18274.041 16829.754 13189.217 19110.769 25960.969 4482.040 13681.690 17909.286 18120.504 33763.060 0.000 17623.638 17782.859 16094.752 4097.306 15370.463 16331.403 28326.502 21799.842 19369.030 37847.909 19096.788 23198.002 15225.869 17976.596 16783.379 15941.236 16983.970 21971.231 27986.899 17447.501 22652.138 13782.670 17324.545 16544.022 18734.476 14710.665 16509.697 16715.213 34598.751 20434.363 8470.928 34317.811 14685.002 34171.814 33996.300 15583.837 18742.336 36244.767 17756.738
3918.385 5612.257 9096.886 5888.076 4089.368 18134.061 25013.978 3905.920 3387.230 4726.386 6051.623 4510.475 4309.181 2656.190 6947.067 17475.579 6067.688 4732.078 1887.447 1342.472 1720.499 5777.739 24553.547 7049.174 1300.153 5037.524 32037.514 5599.751 5128.593 5524.514 5693.344 17712.009 5078.478 10837.297 21551.766 6130.696 4561.226 3562.792 22105.982 4263.589 20930.941 3152.522 3816.351 18708.941 4713.010 8933.264 3792.053 5717.664 18930.755 6445.412 27916.419 5001.962 2657.996 29181.322 4192.930 11411.125 21072.275 4738.713 5677.315 2848.168 21626.954 17482.573 0.000 2945.711 1848.003 20705.617 2237.602 3813.358 11525.379 7241.646 5152.936 25711.804 5797.107 6000.082 2508.465 33968.700 1604.823 2877.742 3904.388 5413.352 11185.775 2133.413 5454.218 4331.649 4145.417 4289.636 2176.596 3169.916 3683.231 3993.133 22462.646 5897.277 25129.318 22181.705 5831.909 22035.708 21860.195 2074.774 3954.147 24108.661 4485.068
4024.360 4780.202 10640.653 8244.464 4195.343 18403.092 25283.008 4174.951 3517.015 4856.171 6157.598 4640.260 3727.914 4953.108 4102.331 17744.610 6346.786 7366.153 2504.155 1609.730 2999.499 4566.473 24822.577 7155.149 4248.064 5735.711 32306.544 5705.726 4546.918 5630.489 5799.319 17981.040 5208.263 12526.704 21820.797 6260.481 4667.201 3012.422 22375.013 4532.620 21199.972 1667.896 3946.137 18977.971 1872.564 9202.604 3898.028 5823.639 19199.786 6440.119 28185.450 2170.183 5600.131 29450.353 1352.485 14287.754 21341.306 5007.743 4225.749 5796.079 19580.124 17751.604 2952.201 0.000 3398.261 20974.648 3434.251 3399.949 13290.940 10126.627 2308.200 23664.974 2952.371 6279.179 3361.125 34237.731 1347.378 5250.389 2350.186 7893.188 12574.272 1557.041 5733.316 4600.680 1486.750 3536.242 4981.960 3502.678 2591.790 3172.116 20415.816 8708.406 25398.349 20134.875 6291.500 19988.878 19813.365 3464.048 1113.701 22061.831 1826.402
2961.522 5864.625 10163.024 6823.166 3132.505 16620.748 23500.665 2392.608 1893.749 3364.540 5094.760 3016.995 4532.308 3885.856 7493.464 15962.267 7901.665 5554.973 1038.281 1858.942 398.913 6080.435 23040.234 6092.311 1388.556 3524.211 30524.201 4642.888 5351.289 4567.651 4736.481 16198.697 3839.325 11903.435 20038.454 4637.215 3604.363 3793.800 20592.670 2750.277 19417.629 3582.271 2322.871 17195.628 5264.335 10767.241 2835.190 4760.801 17417.443 5488.549 26403.106 5448.022 2539.965 27668.009 4744.255 11613.381 19558.963 3225.400 6107.065 3181.005 22056.704 15969.261 1866.442 3391.771 0.000 19192.304 724.289 3888.378 12591.517 7443.902 5699.333 26141.554 6339.644 7834.058 995.152 32455.388 2050.883 2740.946 4334.137 6236.246 12251.914 2587.077 7288.194 2818.336 4591.477 4512.942 2999.490 1656.604 3935.598 4245.501 22892.396 6099.533 23616.006 22611.455 4318.596 22465.458 22289.945 562.108 4505.472 24538.411 4931.128
18212.955 21050.321 29391.730 26051.872 17511.883 3224.968 4310.424 17903.654 18190.789 17032.298 17151.225 16942.775 20051.983 23114.562 23746.064 3566.641 26759.329 24783.679 19275.912 20490.272 19383.314 21266.131 4670.760 19334.497 20642.338 18554.481 12845.524 16977.689 20549.923 16903.108 17580.009 3579.555 17321.026 31132.141 2618.530 16510.871 17957.907 19837.655 1507.057 17111.971 1505.158 20408.784 18020.937 2361.905 23149.144 29624.905 18436.673 17098.143 8015.438 19623.567 8557.835 21767.762 20323.475 9989.332 22604.490 29454.689 948.561 17175.411 21403.007 21614.225 37256.780 4110.534 21117.359 21276.579 19588.473 0.000 18864.184 19825.124 31820.223 25293.562 22862.750 41341.630 22590.508 26691.723 18719.590 14776.711 20277.100 19434.956 20477.691 25464.952 31480.620 20941.222 26145.859 17276.391 20818.266 20037.743 22228.196 18204.385 20003.418 20208.934 38092.472 23928.083 4425.764 37811.531 18178.723 37665.534 37490.021 19077.558 22236.057 39738.487 21250.459
2754.333 5880.728 10527.547 7187.689 2925.317 15896.459 22776.376 1668.319 1348.874 2819.664 4868.876 2472.119 4533.780 4250.379 7529.453 15237.978 8224.917 5919.495 1069.835 1894.931 519.130 6096.538 22315.945 5885.123 1778.155 2799.922 29799.912 4417.005 5352.762 4341.767 4511.583 15474.407 3429.536 12267.958 19314.165 4092.340 3397.174 3799.053 19868.380 2025.988 18693.340 3618.261 1777.996 16471.339 5300.324 11090.493 2628.002 4534.917 16693.154 5281.360 25678.817 5484.011 2165.880 26943.720 4780.245 11277.919 18834.673 2501.111 6143.054 2892.615 22092.693 15244.972 2253.176 3427.760 724.289 18468.015 0.000 3889.850 12956.040 7108.441 5735.322 26177.543 6375.633 8157.310 369.497 31731.099 2086.872 2139.506 4370.127 6600.768 12616.436 2623.067 7611.447 2094.047 4627.466 4514.414 3364.013 932.314 3964.815 4273.660 22928.385 5764.071 22891.716 22647.444 3594.307 22501.448 22325.934 213.374 4541.461 24574.400 4967.117
2322.035 2002.934 12730.035 9575.458 2810.853 16818.906 23698.823 4057.820 3270.286 3252.698 4216.853 3509.894 948.008 6289.339 3920.941 16160.425 9249.861 8444.961 3151.411 2980.803 3780.425 2218.744 23238.392 4540.951 5035.749 5487.079 30722.359 3700.572 1767.420 3625.335 3444.216 16396.854 3408.671 14470.446 20236.612 4573.209 2403.121 457.225 20790.827 3773.221 19615.787 1501.254 3241.177 17393.786 4662.578 12115.437 2195.703 3739.339 17615.601 3679.105 26601.264 2119.408 5995.109 27866.167 3878.415 15150.947 19757.120 4165.347 2327.011 6587.990 18276.651 16167.419 3941.970 3109.599 4179.187 19390.462 4140.776 0.000 15158.528 10981.468 3838.885 22361.500 2765.385 9182.254 4056.675 32653.546 2767.631 5529.451 785.701 9126.234 14818.924 3431.753 8636.390 3929.807 1749.002 756.997 5927.072 3673.346 537.715 383.810 19112.342 9637.098 23814.163 18831.401 5315.731 18685.405 18509.891 4170.574 3497.987 20758.358 1619.259
15045.623 16928.091 4067.190 5907.384 15216.607 28867.954 35747.871 14639.814 14137.145 15571.334 17178.862 15260.390 15709.530 8858.001 14512.438 28209.473 7751.843 8833.480 12836.018 12264.582 12455.307 16859.746 35287.440 18176.413 11194.254 15570.629 42771.407 16726.990 16528.942 16651.752 16820.583 28445.902 15923.426 2138.294 32285.659 16880.611 15688.464 14963.141 32839.875 14997.483 31664.834 14077.146 14566.266 29442.834 12327.964 10001.231 14919.292 16844.902 29664.649 17572.650 38650.312 14609.479 12664.602 39915.215 12822.284 7278.043 31806.168 15472.606 16601.940 11146.213 29951.504 28216.467 11520.225 13285.054 12582.810 31439.510 12971.495 15213.706 0.000 10914.030 13156.071 34036.354 14458.359 7683.128 13242.358 44702.594 12526.933 13478.596 14829.012 6489.428 2585.518 12730.843 7990.466 15065.542 14764.773 15682.154 9653.824 13903.809 14854.021 15308.967 30787.196 10834.652 35863.211 30506.255 16565.248 30360.259 30184.745 12808.118 13269.302 32433.211 15104.425
9400.766 12745.434 9232.529 6257.636 9422.706 21975.465 28855.382 7764.695 8239.480 9302.524 10918.321 8954.979 11436.674 5940.876 14225.995 21316.983 8652.474 4149.574 8042.062 8669.314 7486.959 12961.244 28394.951 12382.512 6226.486 7376.800 35878.918 10635.672 12256.086 10560.435 10730.250 21553.413 9912.396 10972.940 25393.170 10119.741 9894.563 10690.285 25947.386 8463.649 24772.345 10463.081 8415.153 22550.345 11663.381 12436.349 9274.434 10753.585 22772.160 12079.525 31757.823 12296.282 5894.855 33022.726 11474.293 4671.525 24913.679 8597.487 12987.874 4802.705 28937.513 21323.977 7327.557 10271.784 7422.763 24547.021 7105.220 10840.909 10561.136 0.000 12434.299 33022.363 13078.470 8583.759 7317.919 37810.104 8930.896 6476.723 11214.947 5493.477 11321.419 9423.614 7819.230 8450.004 11471.489 11417.129 5535.640 7596.043 10816.407 11126.310 29773.205 1757.588 28970.722 29492.264 8397.862 29346.267 29170.754 7073.827 11235.509 31419.220 11811.141
4947.418 5476.214 10364.915 8295.796 5402.493 19961.668 26841.585 6180.164 5245.755 6068.009 7364.748 6101.124 4427.158 6682.420 1915.011 19303.187 5734.002 8752.645 4802.091 3940.880 5330.650 5262.485 26381.154 7997.977 6579.214 7776.949 33865.121 6912.876 5243.485 6837.638 6933.272 19539.616 6420.101 12250.966 23379.374 7716.175 5857.310 3838.803 23933.589 6350.100 22758.549 2717.779 5461.981 20536.548 1033.721 8416.083 4821.086 7030.788 20758.363 7136.132 29744.026 1719.478 7931.281 31008.929 1413.469 16519.710 22899.882 6977.325 4921.761 8127.230 17402.743 19310.181 5283.352 2334.159 5729.412 22533.224 5765.401 4130.714 13342.272 12358.583 0.000 21487.593 1302.288 5666.395 5692.276 35796.308 3678.529 7576.771 3079.411 8349.881 12298.534 3693.750 5541.478 6234.350 2261.170 4237.519 7213.916 5586.315 3418.171 3902.881 18238.435 10795.725 26956.925 17957.494 8296.713 17811.497 17635.984 5795.199 1597.590 19884.450 2539.595
24796.905 20859.938 31568.548 29945.956 25285.723 38500.699 45380.616 26532.690 25745.156 25727.568 25065.415 25984.764 22141.287 28214.076 20754.429 37842.218 26937.635 30402.806 25547.808 24804.740 26176.822 20644.128 44920.185 23225.364 27432.146 27876.090 52404.152 24811.349 21321.875 25089.319 24458.809 38078.647 25797.682 33454.599 41918.405 25993.139 24877.991 22928.082 42472.620 26248.092 41297.580 23111.127 25716.048 39075.579 22683.881 29058.877 24670.573 24785.756 39297.394 22363.518 48283.057 22040.892 28469.979 49547.960 23179.997 37480.249 41438.913 26640.217 20466.407 28984.387 6135.386 37849.212 26144.697 23889.415 26575.584 41072.255 26611.573 23061.544 34828.309 33319.123 21887.408 0.000 21126.853 26870.028 26527.532 54335.339 24542.388 28004.321 22395.573 30000.041 33502.167 25255.690 27002.821 26404.677 22578.044 22223.985 28174.455 26148.216 22715.833 22850.370 6290.568 31900.901 45495.956 6121.368 27704.742 5863.631 10862.129 26641.371 23325.593 1714.641 22374.127
4758.616 4185.722 11667.203 9598.084 5247.843 19271.003 26150.920 6491.329 5702.952 5697.478 6649.688 5946.474 3165.572 7691.008 1262.060 18612.522 7036.290 10054.933 5403.283 4542.072 5931.842 3971.993 25690.489 6707.485 7180.406 7934.726 33174.456 6000.721 3952.993 5934.927 5680.005 18848.952 5856.318 13553.254 22688.709 7007.863 4850.768 2895.778 23242.925 6209.802 22067.884 2951.415 5674.686 19845.883 2336.009 9718.371 4632.284 5975.128 20067.698 5845.639 29053.361 914.080 8428.618 30318.264 2579.211 17120.902 22209.218 6610.127 3631.269 8728.421 16643.276 18619.516 5884.544 2935.351 6330.604 21842.559 6366.593 3085.500 14644.560 12959.775 1302.288 20728.126 0.000 6968.683 6293.467 35105.643 4279.720 7962.959 2170.267 9652.169 13600.822 4294.941 6843.766 6366.387 1922.464 2984.252 7815.108 6106.012 2619.273 2857.667 17478.968 11541.553 26266.261 17198.027 7763.378 17052.030 16876.517 6396.391 2198.782 19124.983 1729.809
9297.418 10718.026 4888.815 3722.579 9468.402 23652.340 30532.257 9424.200 8766.263 10105.419 11430.657 9889.508 9663.099 4285.311 7033.132 22993.859 68.715 5073.726 7478.345 6113.074 7554.117 10597.437 30071.826 12428.208 6514.472 10709.901 37555.793 10978.785 10482.511 10903.547 11072.378 23230.288 10457.512 6774.866 27070.045 11509.729 9940.259 8917.249 27624.261 9781.869 26449.220 7755.589 9195.385 24227.220 5150.214 4244.151 9171.086 11096.697 24449.035 11824.445 33434.698 7431.729 7872.521 34699.601 5644.534 12868.899 26590.554 10256.992 10280.382 6745.254 22472.198 23000.853 5914.239 6155.946 7681.620 26223.896 8005.368 9192.391 8148.576 8569.017 5809.739 26557.048 7112.027 0.000 8259.376 39486.980 6312.243 8728.067 8465.359 3960.292 6822.434 6131.016 1096.683 9849.928 7635.665 9472.088 5292.185 8751.927 8610.776 9098.901 23307.890 7170.668 30647.597 23026.949 11481.334 22880.952 22705.439 7909.770 6091.552 24953.905 7975.316
2516.801 5737.128 10992.228 7652.370 2687.388 15651.068 22530.985 1422.928 1103.483 2574.273 4623.485 2226.728 4390.180 4715.060 7556.804 14992.587 8689.599 6384.177 987.698 2359.613 983.812 5952.938 22070.554 5647.194 2242.836 2581.662 29554.521 4171.614 5209.162 4096.376 4266.192 15229.016 3184.145 12732.639 19068.773 3846.949 3159.245 3675.531 19622.989 1780.597 18447.949 3543.208 1532.604 16225.948 5357.927 11555.175 2390.470 4289.526 16447.763 5107.502 25433.426 5505.566 2487.988 26698.329 4837.847 11600.028 18589.282 2255.720 6062.339 3214.723 22011.979 14999.581 2717.857 3485.362 1188.971 18222.624 464.682 3755.085 13420.721 7430.549 5769.449 26096.828 6401.248 8621.992 0.000 31485.708 2210.719 2090.097 4295.074 7065.450 13081.118 2874.841 8076.128 1848.656 4557.309 4370.814 3828.694 691.102 3841.293 4138.895 22847.670 6086.179 22646.325 22566.730 3353.095 22420.733 22245.219 678.056 4599.063 24493.686 4988.673
30899.321 33736.686 42078.095 38738.238 30198.248 17462.919 10590.148 30590.019 30877.155 29718.664 29837.590 29629.140 32738.348 35800.928 36432.430 17082.778 39445.695 37470.044 31962.277 33176.637 32069.679 33952.496 10291.498 32020.862 33328.704 31240.846 3503.749 29664.055 33236.288 29589.474 30266.374 17319.208 30007.391 43818.507 14377.257 29197.236 30644.272 32524.021 15115.574 29798.336 13599.339 33095.150 30707.302 16720.802 35835.509 42311.271 31123.038 29784.509 21740.412 32309.932 6877.647 34454.127 33009.840 5961.111 35290.855 42141.055 14059.727 29861.776 34089.372 34300.590 49943.146 18179.353 33803.724 33962.945 32274.838 14611.669 31550.549 32511.489 44506.588 37979.928 35549.116 54027.995 35276.874 39378.088 31405.955 0.000 32963.465 32121.322 33164.056 38151.317 44166.985 33627.587 38832.224 29962.756 33504.631 32724.108 34914.562 30890.751 32689.783 32895.299 50778.837 36614.449 10705.488 50497.896 30865.088 50351.900 50176.386 31763.923 34922.422 52424.853 33936.824
3051.789 4472.396 10112.383 7056.593 3222.772 17406.710 24286.627 3178.570 2520.633 3859.790 5185.027 3643.879 3417.470 3671.687 5442.581 16748.229 6531.409 6018.775 1232.716 262.351 1652.121 4332.813 23826.196 6182.578 2900.685 4464.272 31310.163 4733.155 4236.881 4657.918 4826.748 16984.659 4211.882 11852.794 20824.416 5264.099 3694.630 2671.619 21378.631 3536.239 20203.591 1550.213 2949.755 17981.590 3213.452 9396.985 2925.457 4851.068 18203.405 5578.816 27189.068 3397.138 4252.752 28453.971 2693.372 12940.376 20344.924 4011.362 4075.007 4448.701 20024.646 16755.223 1604.823 1340.888 2050.883 19978.266 2086.872 2946.761 12540.876 8779.249 3648.450 24109.496 4288.761 6463.802 2013.747 33241.350 0.000 3903.011 2302.079 6611.768 12201.272 713.302 5917.939 3604.298 2540.593 3226.458 3634.582 2506.297 2327.088 2853.272 20860.338 7361.027 24401.968 20579.397 5235.704 20433.400 20257.887 2116.670 2454.588 22506.353 2880.245
3635.014 7215.678 11052.326 7712.468 3485.683 16314.797 23194.714 1631.343 2649.898 3360.854 5404.890 3013.309 5868.730 4775.158 9078.203 15656.316 8877.711 6444.274 2832.343 4018.688 2642.887 7431.488 22734.283 6445.489 2324.127 2290.329 30218.250 4958.195 6687.712 4882.957 5052.773 15892.746 3970.726 12792.737 19732.503 4606.310 3957.540 5154.081 20286.719 2402.191 19111.678 5056.856 2649.401 16889.677 7202.572 11743.287 3508.682 5076.107 17111.492 6313.773 26097.155 7083.532 1552.908 27362.058 6682.492 10808.166 19253.012 2364.095 7540.889 2936.688 23490.529 15663.310 3164.195 5330.007 2752.643 18886.353 2123.757 5233.635 13480.819 6647.040 7601.000 27575.379 7922.647 8810.104 1979.163 32149.437 4055.364 0.000 5794.117 7125.548 13141.215 4719.486 8199.764 2512.981 6134.037 5849.364 3888.792 2021.391 5319.844 5617.445 24326.220 5281.561 23310.055 24045.280 3213.511 23899.283 23723.769 2330.501 6443.708 25972.236 6566.230
2677.788 2529.292 12471.119 9415.329 3167.015 17326.130 24206.047 4410.501 3622.124 3616.651 4724.077 3865.647 1475.027 6030.423 3398.331 16667.649 8745.593 8374.996 3364.155 2621.087 3993.169 2319.012 23745.616 5054.504 5248.493 5989.853 31229.583 4229.556 2294.031 4154.318 3973.199 16904.079 3911.445 14211.530 20743.836 5080.433 2905.895 950.905 21298.052 4128.974 20123.011 927.475 3593.859 17901.010 4026.825 11601.411 2551.456 4268.322 18122.825 4192.658 27108.489 1596.798 6347.790 28373.391 3242.662 15296.597 20264.345 4529.300 2001.956 6800.735 17951.596 16674.643 3961.044 2440.198 4391.931 19897.686 4427.921 1140.627 14899.612 11135.470 3265.253 22036.446 2242.775 8677.986 4350.199 33160.770 2358.736 5882.132 0.000 8970.504 14560.008 3072.038 8132.122 4285.560 1079.310 1283.354 5990.803 4025.185 538.329 912.794 18787.287 9717.248 24321.388 18506.347 5818.505 18360.350 18184.836 4457.719 2862.233 20433.303 1096.649
8699.059 10830.399 4172.611 840.730 8870.042 22521.389 29401.306 8293.249 7790.580 9224.769 10832.297 8913.825 9527.323 3013.329 10017.524 21862.908 4031.758 2637.268 6506.614 6419.910 6108.743 10942.769 28940.875 11829.848 4847.690 9153.560 36424.842 10380.425 10346.735 10305.188 10474.018 22099.338 9576.862 5913.022 25939.095 10534.046 9341.900 8780.934 26493.311 8650.918 25318.270 8232.474 8219.702 23096.269 7454.719 7815.633 8572.727 10498.338 23318.084 11226.086 32303.747 9736.234 6318.037 33568.650 7949.039 9776.665 25459.604 9126.041 10757.268 4729.144 25505.708 21869.902 5411.175 7803.907 6236.246 25092.945 6624.930 8979.756 6601.104 5476.783 8282.826 29590.558 9585.114 3963.043 6895.793 38356.029 6682.261 7132.031 8984.340 0.000 6261.500 6886.171 3198.515 8718.977 9222.854 9507.778 3236.756 7557.245 8901.373 9211.275 26341.400 4638.441 29516.647 26060.459 10200.767 25914.462 25738.949 6461.554 8396.057 27987.415 9562.506
14746.832 16629.300 3005.394 5608.592 14917.815 28569.162 35449.079 14341.022 13838.353 15272.542 16880.070 14961.598 15410.738 8559.210 13690.734 27910.681 6930.138 8534.688 12537.226 11965.790 12156.516 16560.954 34988.648 17877.621 10895.463 15271.838 42472.615 16428.198 16230.150 16352.961 16521.791 28147.111 15624.634 1175.464 31986.868 16581.819 15389.673 14664.349 32541.083 14698.691 31366.043 13778.355 14267.475 29144.042 11506.259 8904.047 14620.500 16546.111 29365.857 17273.859 38351.520 13787.775 12365.810 39616.423 12000.580 9658.607 31507.376 15173.814 16303.148 10847.421 29129.800 27917.675 11221.434 12511.992 12284.019 31140.718 12672.703 14914.914 2667.674 11312.586 12334.366 33214.650 13636.654 6861.423 12943.566 44403.802 12228.141 13179.804 14530.221 6190.636 0.000 12432.051 7168.762 14766.750 13991.710 15383.362 9355.033 13605.018 14555.229 15010.176 29965.491 10535.861 35564.419 29684.551 16266.456 29538.554 29363.040 12509.327 12447.597 31611.507 14331.362
3922.973 5343.580 10167.371 7432.637 4093.956 18277.894 25157.811 4049.754 3391.818 4730.974 6056.211 4515.063 4288.654 4047.732 5161.811 17619.413 5973.317 6497.702 2103.900 970.680 2360.450 5270.611 24697.380 7053.762 3601.409 5335.456 32181.347 5604.339 5108.065 5529.102 5697.932 17855.843 5083.066 11907.782 21695.600 6135.284 4565.814 3542.803 22249.816 4407.423 21074.775 2488.011 3820.939 18852.774 2927.755 8838.892 3796.641 5722.252 19074.589 6450.000 28060.252 3229.663 4959.253 29325.155 2407.675 13477.625 21216.109 4882.546 5012.805 5149.425 20649.543 17626.407 2305.547 1274.731 2759.212 20849.450 2795.201 3817.946 12595.864 9316.499 3367.680 24734.393 4011.852 5905.710 2884.931 34112.534 937.798 4774.195 3239.877 6987.812 12200.803 0.000 5359.846 4475.482 2622.470 4097.642 4171.831 3377.481 3264.886 3724.456 21485.235 7898.277 25273.152 21204.294 6106.888 21058.298 20882.784 2824.999 2168.891 23131.250 2962.121
8693.486 10114.093 5077.571 3127.367 8864.469 23048.407 29928.324 8820.267 8162.331 9501.487 10826.724 9285.576 9059.167 3488.086 7165.363 22389.926 1128.587 4294.885 6874.413 5509.141 6950.185 10041.124 29467.893 11824.275 5910.539 10105.969 36951.860 10374.852 9878.578 10299.615 10468.445 22626.356 9853.579 7103.969 26466.113 10905.797 9336.327 8313.316 27020.329 9177.936 25845.288 7253.133 8591.452 23623.287 4647.758 4617.118 8567.154 10492.765 23845.102 11220.513 32830.765 6929.274 7268.589 34095.668 5142.079 12090.058 25986.622 9653.059 9777.927 5948.028 22604.429 22396.920 5310.307 5653.491 7077.688 25619.963 7401.435 8588.459 8173.843 7790.177 5475.865 26689.279 6778.153 1059.872 7655.444 38883.047 5708.311 8124.134 7962.904 3181.452 7151.537 5527.083 0.000 9245.995 7133.209 8868.156 4494.960 8147.994 8035.399 8494.969 23440.120 6391.828 30043.665 23159.180 10877.401 23013.183 22837.669 7305.837 5589.096 25086.136 7472.861
1808.645 5389.309 12193.825 8853.967 1977.815 14811.075 21690.992 869.127 992.884 1857.022 3906.235 1509.477 4042.361 5916.657 7251.834 14152.594 9561.424 7585.774 2078.007 3292.367 2185.409 5605.119 21230.561 4937.621 3444.433 2465.911 28714.528 3454.363 4861.343 3379.125 3548.941 14389.024 2466.894 13934.236 18228.781 3129.698 2449.673 3327.712 18782.997 940.604 17607.956 3230.487 823.032 15385.955 5951.239 12427.000 1682.313 3572.275 15607.770 4487.403 24593.433 5257.163 3208.081 25858.336 5408.067 12463.339 17749.290 1620.817 5714.520 4416.320 21664.159 14159.588 3919.454 4078.674 2390.568 17382.631 1666.279 3407.266 14622.318 8302.212 5782.805 25749.009 6096.277 9493.818 1521.685 30645.715 3079.195 2346.061 3967.748 8267.047 14282.715 3743.317 8947.954 0.000 4307.667 4022.995 5030.291 1006.481 3493.474 3791.076 22499.851 6936.733 21806.333 22218.910 2960.174 22072.914 21897.400 1879.653 5057.760 24145.866 4739.861
2962.420 3378.013 12127.288 9610.593 3451.647 17989.692 24869.609 4694.270 3898.704 4101.632 5390.861 4150.279 2323.748 6225.688 3021.561 17331.211 7833.421 8572.775 3569.968 2816.352 4198.982 3167.732 24409.178 5903.225 5454.306 6291.054 31893.145 4938.990 3142.751 4863.752 4821.920 17567.641 4448.126 14013.340 21407.398 5744.199 3670.748 1652.241 21961.614 4413.606 20786.573 1145.749 3877.627 18564.572 3023.721 10676.635 2836.088 5056.902 18786.387 5041.379 27772.050 953.985 6631.559 29036.953 2239.558 15494.376 20927.907 5014.281 2832.066 7002.701 18186.441 17338.205 4158.824 1493.739 4597.744 20561.248 4633.733 1989.348 14777.575 11333.249 2260.552 22271.291 1866.005 7765.814 4557.626 33824.332 2554.000 6165.900 938.044 9165.768 14060.908 2910.943 7219.951 4570.191 0.000 2132.075 6188.582 4301.765 1231.609 1761.515 19022.132 9915.028 24984.950 18741.192 6351.082 18595.195 18419.681 4663.531 1859.129 20668.148 432.718
2638.078 1431.644 13102.339 9947.762 3126.896 16768.691 23648.608 4373.863 3586.329 3568.741 3740.588 3825.937 256.471 6661.643 4175.104 16110.210 9622.165 8817.265 3495.477 3353.107 4100.121 1647.455 23188.177 3849.414 5361.174 5803.122 30672.144 3081.173 1075.883 3357.311 2760.457 16346.639 3724.714 14842.750 20186.397 4266.117 2719.165 773.189 20740.612 4089.265 19565.572 1864.425 3557.221 17343.571 4969.180 12487.740 2511.747 3055.580 17565.386 2987.568 26551.049 2426.009 6311.152 27815.952 4185.017 15516.636 19706.905 4481.390 1757.584 6953.679 17707.224 16117.204 4314.274 3451.086 4499.034 19340.247 4457.318 902.717 15530.832 11347.158 4145.487 21792.074 2940.370 9554.558 4373.217 32603.331 3139.935 5845.494 1148.871 9498.538 15191.228 3804.057 9008.694 4245.850 2112.172 0.000 6299.376 3989.390 910.019 746.981 18542.915 10002.788 23763.948 18261.975 5631.774 18115.978 17940.464 4487.116 3804.588 20188.931 1935.797
5462.303 7593.644 7252.535 3823.676 5633.287 19284.634 26164.551 5056.494 4553.825 5988.014 7595.542 5677.070 6290.568 1110.103 8804.513 18626.153 5445.988 2555.482 3269.858 3380.610 2871.987 7809.454 25704.120 8593.093 1610.934 6169.569 33188.087 7143.670 7109.979 7068.432 7237.263 18862.582 6340.106 8992.946 22702.339 7297.291 6105.144 5544.178 23256.555 5414.163 22081.514 5190.660 4982.946 19859.514 6531.387 8945.917 5335.972 7261.582 20081.329 7989.330 29066.992 6872.364 3081.282 30331.895 6050.376 9459.958 22222.848 5889.286 7715.453 1492.389 23665.093 18633.147 2174.419 4917.433 2999.490 21856.190 3388.175 5743.001 9681.028 5298.831 7010.382 27749.942 7654.553 5377.273 3659.038 35119.274 3642.961 3895.276 5942.526 3236.756 9341.425 3999.697 4554.376 5482.222 6183.555 6271.022 0.000 4320.489 5664.617 5974.520 24500.784 3880.609 26279.891 24219.844 6981.928 24073.847 23898.333 3224.798 5811.592 26146.800 6523.207
2081.192 5449.008 11452.646 8112.788 2250.363 15080.914 21960.831 793.449 677.217 2126.861 4176.073 1779.316 4102.060 5175.478 7311.532 14422.433 9041.111 6844.595 1348.005 2772.053 1444.230 5664.818 21500.400 5210.169 2703.254 2282.639 28984.367 3724.202 4921.041 3648.964 3818.780 14658.862 2736.733 13193.057 18498.620 3399.537 2722.220 3387.411 19052.835 1210.443 17877.795 3290.186 1095.579 15655.794 5516.126 11906.687 1954.860 3842.114 15877.609 4759.951 24863.272 5316.862 2486.840 26128.175 4972.954 11742.099 18019.128 1626.241 5774.219 3498.873 21723.858 14429.427 3178.275 3643.562 1649.389 17652.470 925.100 3466.965 13881.139 7580.972 5628.319 25808.708 6155.976 8973.504 780.506 30915.554 2558.881 2021.182 4027.446 7525.868 13541.536 3223.003 8427.640 1278.502 4367.366 4082.694 4289.112 0.000 3553.173 3850.775 22559.550 6215.493 22076.171 22278.609 2802.403 22132.612 21957.099 1138.474 4734.171 24205.565 4799.559
2139.459 2221.111 12484.404 9329.827 2628.686 16966.381 23846.298 3872.172 3083.795 3078.322 4367.551 3327.318 1166.185 6043.709 3758.359 16307.900 8840.148 8199.331 2905.780 2677.104 3534.794 2294.330 23385.867 4759.128 4790.118 5468.956 30869.834 3914.775 1985.597 3839.537 3659.533 16544.330 3424.815 14224.815 20384.087 4720.888 2585.191 420.632 20938.303 3590.645 19763.262 983.594 3055.529 17541.261 4178.832 11695.967 2013.127 3954.656 17763.076 3897.282 26748.739 1956.826 5809.461 28013.642 3394.669 14905.316 19904.596 3990.970 2247.192 6342.359 18196.831 16314.894 3696.340 2592.206 3933.556 19537.937 3895.971 829.812 14912.897 10735.838 3417.553 22281.681 2602.803 8772.541 3811.870 32801.021 2414.753 5343.802 474.273 8880.604 14573.294 3128.054 8226.678 3747.230 1231.609 975.174 5681.442 3486.855 0.000 601.987 19032.522 9391.468 23961.639 18751.582 5327.772 18605.585 18430.071 3925.769 3014.241 20678.538 1456.678
2528.093 2202.689 12661.088 9605.298 3016.910 17024.819 23904.736 4263.878 3476.343 3458.755 4422.766 3715.952 1148.424 6220.393 3537.131 16366.338 8974.101 8564.965 3347.721 2811.057 3976.735 1992.409 23444.305 4727.901 5232.059 5693.136 30928.272 3905.902 1967.428 3830.665 3649.546 16602.767 3614.728 14401.499 20442.524 4779.121 2609.179 654.189 20996.740 3979.279 19821.699 1117.444 3447.235 17599.699 4278.768 11829.919 2401.761 3944.669 17821.514 3866.055 26807.177 1735.598 6201.167 28072.080 3494.605 15347.257 19963.033 4371.404 1945.270 6784.300 17894.909 16373.332 4138.280 2725.789 4375.497 19596.375 4337.740 843.911 15089.581 11177.778 3455.075 21979.759 2381.575 8906.494 4253.639 32859.459 2548.706 5735.508 401.890 9160.473 14749.978 3262.007 8360.630 4135.864 1365.192 956.751 6123.382 3879.404 441.940 0.000 18730.601 9833.408 24020.076 18449.660 5521.788 18303.663 18128.150 4367.538 3114.176 20376.616 1235.449
20852.749 16915.782 27624.391 26001.800 21341.567 34556.543 41436.460 22588.534 21801.000 21783.412 21121.259 22040.608 18197.131 24269.920 16810.273 33898.062 22993.479 26458.650 21603.652 20860.584 22232.666 16699.972 40976.029 19281.208 23487.990 23931.934 48459.996 20867.193 17377.719 21145.163 20514.653 34134.491 21853.526 29510.443 37974.249 22048.983 20933.835 18983.926 38528.464 22303.935 37353.424 19166.971 21771.891 35131.423 18739.725 25114.721 20726.417 20841.600 35353.238 18419.362 44338.901 18096.736 24525.823 45603.804 19235.840 33536.093 37494.757 22696.061 16522.251 25040.231 1337.223 33905.056 22200.541 19945.259 22631.428 37128.099 22667.417 19117.388 30884.152 29374.966 17943.252 6304.145 17182.697 22925.872 22583.375 50391.183 20598.232 24060.165 18451.417 26055.885 29558.011 21311.534 23058.665 22460.521 18633.888 18279.829 24230.299 22204.060 18771.677 18906.214 0.000 27956.745 41551.800 604.173 23760.586 602.766 5569.211 22697.215 19381.437 4701.002 18429.971
8081.850 11426.518 8560.734 5460.542 8102.417 20996.235 27876.152 6444.407 6920.563 7982.236 10031.448 7634.690 10117.758 4278.970 12564.089 20337.754 7349.438 2832.026 6723.146 7350.398 6168.042 11642.328 27415.721 11062.223 4907.570 6733.578 34899.688 9579.576 10937.170 9504.339 9674.155 20574.183 8592.108 10301.145 24413.940 9254.911 8574.275 9371.369 24968.156 7143.360 23793.115 9144.165 7096.237 21571.115 10001.475 11133.313 7955.518 9697.489 21792.930 10760.609 30778.593 10849.607 4575.939 32043.496 10027.618 6418.407 23934.449 7277.199 11668.958 3483.789 27618.597 20344.748 6008.641 8894.675 6103.847 23567.791 5786.304 9521.993 10989.227 1760.724 10829.391 31703.447 11631.795 7280.724 5999.003 36830.875 7611.980 5157.807 9896.030 4765.610 10649.623 7976.939 6516.195 7129.716 10152.573 10098.213 4148.531 6277.127 9497.491 9807.394 28454.289 0.000 27991.492 28173.348 7754.640 28027.351 27851.838 5754.911 9788.835 30100.304 10492.225
22325.574 25162.939 33504.349 30164.491 21624.501 7628.231 364.160 22016.273 22303.408 21144.917 21263.843 21055.394 24164.602 27227.181 27858.683 7969.904 30871.948 28896.297 23388.531 24602.891 23495.932 25378.749 780.075 23447.115 24754.957 22667.100 8937.705 21090.308 24662.542 21015.727 21692.628 7982.818 21433.645 35244.760 5760.835 20623.489 22070.526 23950.274 4701.189 21224.590 4273.245 24521.403 22133.556 6717.433 27261.763 33737.524 22549.292 21210.762 12418.701 23736.185 4605.709 25880.380 24436.094 6269.019 26717.109 33567.308 4191.146 21288.030 25515.625 25726.844 41369.399 8513.797 25229.978 25389.198 23701.092 4420.860 22976.802 23937.742 35932.842 29406.181 26975.369 45454.249 26703.127 30804.341 22832.209 10868.892 24389.719 23547.575 24590.310 29577.571 35593.239 25053.841 30258.478 21389.010 24930.885 24150.362 26340.815 22317.004 24116.036 24321.552 42205.091 28040.702 0.000 41924.150 22291.342 41778.153 41602.639 23190.177 26348.676 43851.106 25363.078
20683.550 16746.582 27455.192 25832.601 21172.367 34387.343 41267.260 22419.334 21631.800 21614.212 20952.059 21871.408 18027.931 24100.720 16641.073 33728.862 22824.279 26289.450 21434.452 20691.384 22063.466 16530.772 40806.829 19112.009 23318.790 23762.734 48290.796 20697.993 17208.520 20975.963 20345.453 33965.292 21684.327 29341.243 37805.049 21879.783 20764.636 18814.726 38359.265 22134.736 37184.224 18997.772 21602.692 34962.223 18570.525 24945.522 20557.218 20672.400 35184.038 18250.163 44169.701 17927.536 24356.623 45434.604 19066.641 33366.894 37325.558 22526.861 16353.051 24871.031 757.708 33735.856 22031.341 19776.060 22462.228 36958.899 22498.217 18948.188 30714.953 29205.767 17774.052 6134.946 17013.498 22756.672 22414.176 50221.983 20429.033 23890.965 18282.218 25886.686 29388.811 21142.334 22889.465 22291.321 18464.688 18110.629 24061.100 22034.861 18602.478 18737.015 604.173 27787.545 41382.601 0.000 23591.386 263.395 4989.695 22528.015 19212.237 4531.803 18260.771
3613.923 6699.732 14051.898 10712.041 2912.851 14379.101 21259.018 2152.208 3316.273 2433.266 3321.957 2343.743 5568.812 7774.731 8854.658 13720.620 11652.508 9048.995 3947.258 5383.450 4043.482 6915.542 20798.587 4983.908 5302.507 1108.938 28282.554 3039.308 6199.334 2964.071 3133.886 13957.049 2337.683 15792.310 17796.806 2523.377 3358.875 5108.716 18351.022 2062.640 17175.981 5723.232 3315.776 14953.981 8155.183 14518.084 3837.641 3157.221 15175.796 5272.978 24161.459 7053.125 4571.900 25426.362 7612.011 12724.466 17317.315 1422.840 7052.418 5974.763 22906.192 13727.613 5777.527 6282.618 4248.641 16950.657 3524.352 4933.717 16480.391 8554.987 8263.718 26991.041 7699.102 11584.901 3379.758 30213.741 5170.278 3157.781 5719.417 10125.120 16140.788 5834.400 11039.037 2670.484 6219.234 5549.446 6888.365 2746.673 5404.386 5317.527 23741.883 7660.704 21374.358 23460.942 0.000 23314.946 23139.432 3731.727 7373.227 25387.899 6552.976
20460.965 16523.998 27232.607 25610.016 20949.783 34164.759 41044.676 22196.750 21409.216 21391.628 20729.475 21648.824 17805.347 23878.136 16418.489 33506.278 22601.695 26066.866 21211.868 20468.800 21840.882 16308.188 40584.245 18889.424 23096.206 23540.150 48068.212 20475.409 16985.935 20753.379 20122.869 33742.707 21461.742 29118.659 37582.465 21657.199 20542.051 18592.142 38136.680 21912.151 36961.640 18775.187 21380.108 34739.639 18347.941 24722.937 20334.633 20449.816 34961.454 18027.578 43947.117 17704.952 24134.039 45212.020 18844.056 33144.309 37102.973 22304.277 16130.467 24648.447 941.988 33513.272 21808.757 19553.475 22239.644 36736.315 22275.633 18725.604 30492.368 28983.182 17551.468 5912.361 16790.913 22534.088 22191.591 49999.399 20206.448 23668.381 18059.633 25664.101 29166.227 20919.750 22666.881 22068.737 18242.104 17888.045 23838.515 21812.276 18379.893 18514.430 602.766 27564.961 41160.016 385.641 23368.802 0.000 5173.976 22305.431 18989.653 4309.218 18038.187
20468.388 16531.421 27240.030 25617.439 20957.205 34172.182 41052.099 22204.173 21416.639 21399.051 20736.898 21656.247 17812.770 23885.559 16425.912 33513.701 22609.117 26074.289 21219.291 20476.223 21848.305 16315.611 40591.668 18896.847 23103.629 23547.573 48075.635 20482.832 16993.358 20760.802 20130.292 33750.130 21469.165 29126.082 37589.887 21664.622 20549.474 18599.564 38144.103 21919.574 36969.062 18782.610 21387.530 34747.062 18355.364 24730.360 20342.056 20457.239 34968.877 18035.001 43954.540 17712.374 24141.462 45219.443 18851.479 33151.732 37110.396 22311.700 16137.890 24655.870 4912.991 33520.695 21816.179 19560.898 22247.067 36743.738 22283.056 18733.027 30499.791 28990.605 17558.890 10575.375 16798.336 22541.511 22199.014 50006.822 20213.871 23675.804 18067.056 25671.524 29173.650 20927.173 22674.304 22076.160 18249.527 17895.468 23845.938 21819.699 18387.316 18521.853 5294.751 27572.384 41167.439 4715.236 23376.225 4853.748 0.000 22312.854 18997.076 8972.232 18045.610
2784.131 5910.526 10364.170 7024.312 2955.115 16105.042 22984.959 1876.902 1382.834 2853.625 4902.837 2506.080 4563.578 4087.002 7559.251 15446.561 8128.956 5756.119 1099.633 1924.729 548.928 6126.336 22524.528 5914.921 1615.219 2992.442 30008.495 4450.966 5382.559 4375.728 4545.544 15682.990 3463.497 12104.582 19522.747 4126.301 3426.972 3828.851 20076.963 2234.571 18901.923 3648.059 1811.956 16679.922 5330.122 10994.532 2657.799 4568.878 16901.737 5311.158 25887.400 5513.809 2139.199 27152.303 4810.042 11246.348 19043.256 2709.694 6172.852 2840.020 22122.491 15453.555 2094.096 3457.558 562.108 18676.598 213.374 3919.648 12792.663 7076.869 5765.120 26207.341 6405.431 8061.349 484.237 31939.682 2116.670 2332.026 4399.924 6437.392 12453.060 2652.865 7511.609 2302.630 4657.264 4544.211 3200.637 1140.897 3994.613 4303.458 22958.183 5732.500 23100.299 22677.242 3787.457 22531.245 22355.732 0.000 4571.259 24604.198 4996.915
4642.275 5249.174 10381.070 8228.051 4840.083 19396.207 26276.124 5204.833 4495.462 5502.548 6802.338 5534.503 4200.118 5763.448 3424.586 18737.726 6087.204 8213.418 3534.036 2639.611 4029.381 5035.446 25815.693 7770.938 5277.945 6765.592 33299.660 6350.466 5016.445 6275.229 6444.059 18974.156 5854.640 12267.122 22813.913 7150.714 5311.941 3548.016 23368.129 5562.502 22193.088 2216.437 4840.379 19971.087 1164.592 8943.022 4515.943 6468.379 20192.902 6909.092 29178.565 1492.438 6630.012 30443.468 380.429 15193.342 22334.421 6037.625 4694.722 6825.961 18912.318 18744.720 3982.083 1029.882 4428.143 21967.763 4464.132 3885.123 13274.527 11032.215 1630.455 22997.168 2274.626 6019.597 4391.007 35230.847 2377.260 6280.271 2833.820 8282.136 12314.690 2367.381 5473.733 5612.749 1970.384 4010.479 5887.548 4532.560 3127.384 3657.290 19748.010 9613.993 26391.465 19467.069 7321.381 19321.072 19145.558 4493.930 0.000 21394.025 2310.035
23250.876 19313.908 30022.518 28399.926 23739.693 36954.669 43834.586 24986.660 24199.126 24181.538 23519.385 24438.734 20595.257 26668.046 19208.399 36296.188 25391.605 28856.776 24001.778 23258.710 24630.792 19098.098 43374.155 21679.335 25886.116 26330.060 50858.122 23265.319 19775.846 23543.289 22912.779 36532.618 24251.653 31908.569 40372.375 24447.109 23331.962 21382.052 40926.591 24702.062 39751.550 21565.098 24170.018 37529.549 21137.851 27512.847 23124.544 23239.726 37751.364 20817.489 46737.027 20494.862 26923.949 48001.930 21633.967 35934.220 39892.884 25094.187 18920.377 27438.357 4589.356 36303.182 24598.667 22343.386 25029.554 39526.225 25065.543 21515.514 33282.279 31773.093 20341.378 1678.513 19580.824 25323.998 24981.502 52789.309 22996.359 26458.291 20849.544 28454.012 31956.137 23709.660 25456.791 24858.647 21032.014 20677.955 26628.426 24602.187 21169.804 21304.341 4744.538 30354.871 43949.927 4575.339 26158.712 4317.601 9316.099 25095.341 21779.563 0.000 20828.097
3240.734 3133.241 12644.460 9971.346 3729.962 17930.079 24809.996 4973.447 4185.070 4179.597 5328.026 4428.593 2078.976 6586.441 3592.513 17271.598 8350.593 8931.013 3921.247 3177.105 4550.261 2922.960 24349.565 5658.452 5805.585 6570.232 31833.532 4833.504 2897.979 4758.267 4577.148 17508.028 4515.394 14530.511 21347.785 5684.382 3509.844 1522.342 21902.000 4691.921 20726.960 1433.534 4156.805 18504.959 3540.893 11193.807 3114.402 4872.271 18726.774 4796.607 27712.437 1541.276 6910.737 28977.340 2756.730 15852.614 20868.293 5092.246 2605.905 7357.826 18533.427 17278.592 4517.062 2010.911 4949.023 20501.635 4985.012 1744.576 15294.747 11691.488 2777.724 22618.277 2436.957 8282.986 4908.905 33764.719 2914.753 6445.078 693.272 9526.521 14578.079 3428.115 7737.123 4848.506 591.780 1887.303 6546.820 4588.131 1101.710 1516.743 19369.119 10273.266 24925.337 19088.178 6422.453 18942.181 18766.668 5014.810 2376.301 21015.134 0.000
NODE_COORD_SECTION
1 27567.380647 -311.862562
2 25516.626763 1773.205196
3 22285.304200 -10175.421527
4 24299.718521 -8032.141401
5 28021.440090 -189.892032
6 38386.082984 6227.564734
7 37346.094945 13033.736459
8 28558.042888 -1577.658353
9 27728.652337 -1328.204867
10 28358.643486 -407.949272
11 29203.365749 1216.734302
12 28516.750816 -516.909152
13 25855.219219 611.730041
14 25878.937527 -5630.525332
15 22085.566096 -467.379640
16 38041.607225 6142.353238
17 22148.545265 -6311.538716
18 26737.923929 -7224.134977
19 26894.992416 -2187.621195
20 25786.080172 -2669.799275
21 27165.749578 -2566.816002
22 25303.640828 1738.417634
23 37001.078904 12782.381627
24 27546.013525 2543.699329
25 27265.678962 -3823.897249
26 29888.849311 -1733.644538
27 30044.657523 15736.304640
28 28692.165652 827.837520
29 25723.168561 1420.423125
30 28901.442462 752.638737
31 28271.166305 973.048146
32 38153.023551 6361.117608
33 28500.207366 -264.978993
34 23128.408401 -12266.563631
35 36413.824345 9296.542510
36 29491.269348 625.744265
37 27993.176418 182.038358
38 25980.903404 -128.364264
39 39095.792163 9561.096481
40 28622.625663 -1009.905598
41 37519.987465 9521.948438
42 25481.059087 -941.327686
43 28028.714568 -1010.260525
44 38494.644633 6976.597640
45 23049.514235 -2122.480258
46 20593.141732 -6689.767955
47 27442.719656 -332.324126
48 28638.924139 761.233887
49 39293.751134 2062.901473
50 26829.106518 2306.104128
51 34959.644122 15570.172265
52 24016.409736 -507.983313
53 28483.938058 -3980.549104
54 33358.318868 14588.511893
55 23705.244014 -1941.100512
56 30362.669206 -12346.342503
57 37895.273696 9375.845135
58 29109.449549 -1061.198958
59 25098.920450 1588.871607
60 27772.818783 -4716.435308
61 17903.040301 12589.949060
62 38615.333586 5350.947567
63 26343.064931 -3482.688620
64 24781.048851 -1935.504361
65 27259.316149 -2528.392149
66 38408.842071 8918.928974
67 27637.818414 -2487.007469
68 25971.726443 -20.030792
69 24566.835745 -12682.726756
70 29138.869856 -8494.045818
71 23009.349029 -1350.905791
72 19808.470571 14547.026470
73 23288.989012 -341.573751
74 22217.129886 -6314.584021
75 27685.258601 -2266.328078
76 31321.454020 13663.435225
77 25766.035552 -2408.230442
78 28880.224924 -3030.972342
79 25335.615333 -264.586822
80 24930.820754 -7881.573179
81 22925.985008 -12529.288247
82 25118.163490 -2615.200704
83 22887.984345 -6205.441955
84 28235.109018 -1124.655351
85 24761.001558 -623.986255
86 25797.382212 429.719899
87 26742.930207 -5310.840943
88 27932.891369 -1816.771068
89 25706.970878 -297.844113
90 25593.248724 -83.671123
91 17978.985960 13602.108620
92 28616.303981 -7334.181910
93 37585.286741 13019.075832
94 17702.943282 13125.087225
95 29866.318544 -904.165272
96 17853.538518 13188.724125
97 15973.775738 10653.130291
98 27578.884119 -2588.851942
99 24021.923064 -1791.974956
100 18841.723311 15564.132102
101 24747.970654 -318.439963
DEMAND_SECTION
1 0
2 7
3 8
4 10
5 5
6 7
7 10
8 8
9 3
10 69
11 81
12 4
13 4
14 7
15 3
16 65
17 5
18 3
19 4
20 60
21 2
22 7
23 3
24 9
25 3
26 6
27 9
28 4
29 1
30 4
31 7
32 8
33 60
34 6
35 75
36 8
37 7
38 7
39 7
40 3
41 3
42 9
43 8
44 3
45 4
46 5
47 8
48 10
49 4
50 68
51 7
52 7
53 4
54 8
55 4
56 4
57 9
58 3
59 9
60 74
61 5
62 1
63 4
64 10
65 4
66 5
67 91
68 3
69 92
70 4
71 4
72 10
73 10
74 4
75 9
76 10
77 2
78 3
79 3
80 3
81 9
82 4
83 2
84 7
85 4
86 1
87 2
88 7
89 5
90 5
91 10
92 9
93 2
94 9
95 5
96 8
97 8
98 9
99 4
100 6
101 8
DEPOT_SECTION
1
-1
EOF
