NAME : poryos-lyon-n25-hyb
COMMENT : Poryos2026 shortest metric; city lyon; 3-decimal seconds/meters; ENU ref in poryos-lyon-n25-hyb.vrp.json
TYPE : CVRP
DIMENSION : 26
EDGE_WEIGHT_TYPE : EXPLICIT
EDGE_WEIGHT_FORMAT : FULL_MATRIX
CAPACITY : 121
EDGE_WEIGHT_SECTION
0.000 5535.149 3042.630 1611.291 2867.211 2017.258 510.350 3152.981 767.697 5020.201 1490.057 1287.306 1287.358 2332.058 5533.122 2610.764 5547.022 5271.294 7441.571 1569.475 3293.294 3435.087 6526.597 3016.333 5399.975 3982.992
5980.016 0.000 4160.019 4235.257 3611.316 4356.765 5444.307 5775.077 6049.157 7582.810 6844.637 6641.887 6641.939 7686.639 5448.928 4438.123 9888.334 862.386 11269.969 3911.215 3226.345 3151.130 11258.772 5718.150 5231.815 9337.573
2772.946 4768.465 0.000 2476.473 3017.694 610.107 3078.224 1904.585 2829.028 3802.702 3746.610 3493.603 3493.655 4538.356 3358.972 499.095 8111.622 4246.020 10006.171 2163.645 2735.319 2877.112 8741.618 1769.787 3141.860 6189.290
2317.491 4281.804 2902.982 0.000 1367.702 2150.106 1643.002 3706.025 2388.956 5573.245 3085.355 2969.383 2969.436 4014.136 5444.031 2743.613 5892.551 4017.949 7787.100 708.806 2039.949 1993.010 7262.989 3569.377 5226.918 5665.070
2945.391 3113.034 2858.566 1061.851 0.000 2416.510 2270.902 4023.392 3016.855 5890.612 3713.254 3597.283 3597.335 4642.035 5347.871 2728.656 6714.928 2849.179 8609.477 881.442 871.179 1012.972 8085.366 3886.744 5130.759 6292.969
2162.839 4528.203 1025.372 1948.252 2489.472 0.000 2468.117 1817.217 2218.921 3684.437 3136.502 2883.496 2883.548 3928.248 3711.673 593.506 7504.789 4264.348 9399.338 1635.424 2355.931 2497.724 8149.155 1680.569 3494.560 5579.182
999.378 5838.294 3345.775 1914.435 3010.887 2320.403 0.000 3456.126 1070.842 5323.346 1768.237 1565.487 1565.539 2610.239 5836.267 2913.909 5222.173 5574.439 7116.722 1872.620 3596.439 3636.195 6598.804 3319.478 5703.119 4261.173
3319.162 6423.327 1914.437 4091.229 4653.389 2265.022 3725.798 0.000 2946.373 2127.776 3562.554 3244.849 3244.902 3615.580 3109.136 2272.865 7730.910 5900.882 9625.459 3799.341 4390.234 4532.027 7421.040 832.411 3093.737 5027.807
645.703 6172.368 3327.261 2248.509 3504.430 2611.432 1052.338 2777.428 0.000 4644.648 998.875 725.361 725.413 1770.113 5157.569 3202.669 5614.012 5908.512 7508.561 2206.694 3930.512 4072.306 6035.415 2640.780 5024.421 3421.047
5381.462 8092.071 3933.010 6266.761 6810.037 4402.450 5788.098 2773.533 5008.673 0.000 5449.610 5131.906 5131.958 5023.272 4276.637 4291.438 9617.966 7357.705 11512.515 5955.988 6527.662 6669.455 8841.599 2994.435 4364.546 5740.328
1752.118 7278.783 4062.846 3354.924 4610.845 3347.018 1719.087 3513.013 1430.017 5188.270 0.000 879.023 879.075 1288.285 5893.154 3938.254 4699.890 7014.927 6594.439 3313.109 5036.928 5178.721 5121.293 3376.365 5760.007 2939.219
1420.633 6947.297 3687.004 3023.439 4279.360 2971.175 1549.171 2804.573 1064.855 4370.002 989.244 0.000 629.920 1069.817 5517.312 3562.412 5157.600 6683.442 7052.149 2981.624 4705.442 4847.235 5579.003 2667.925 5384.165 2720.751
1286.923 6813.588 3597.651 2889.729 4145.650 2881.822 1267.184 3047.818 964.822 4677.557 905.012 307.555 0.000 1044.700 5427.959 3473.059 5122.093 6549.732 7016.642 2847.914 4571.732 4713.526 5543.497 2911.170 5294.811 2695.634
2974.972 8501.636 5224.332 4577.778 5833.699 4508.503 3219.393 4237.369 2602.182 4734.631 2271.077 2379.329 2379.382 0.000 7054.640 5099.739 6439.432 8237.781 8333.981 4535.963 6259.781 6401.574 5623.230 4100.721 6921.492 1689.441
5269.969 5604.719 2924.079 5042.678 5583.898 3534.186 5693.409 3250.054 5174.650 4568.903 5876.757 5566.881 5566.933 6596.822 0.000 3423.174 10491.894 4870.353 12386.443 4729.850 5278.073 5419.867 10385.965 3470.956 229.985 7992.733
2938.658 4466.250 881.516 2149.958 2691.179 968.717 2852.925 2292.398 2994.740 4190.515 3832.631 3629.880 3629.933 4674.633 3422.565 0.000 7785.107 4051.323 9679.656 1837.131 2408.804 2550.597 8869.172 2157.600 3205.453 6325.567
6069.398 9701.559 8380.127 6282.123 6771.775 7450.974 5199.777 7830.293 5747.297 9697.513 5085.763 5557.057 5557.110 6289.295 10210.435 8044.480 0.000 9437.703 2178.617 6556.977 7459.703 7397.083 6218.051 7693.645 10077.287 7740.906
5634.304 1296.421 3684.963 4060.763 3748.806 4003.970 5269.813 5300.021 5703.445 7107.754 6498.926 6296.175 6296.228 7340.928 4586.542 3963.067 9713.840 0.000 11407.459 3736.721 3051.851 3193.644 11084.278 5243.094 4369.430 8991.862
7910.060 11239.461 10220.788 8082.238 8571.890 9291.636 7040.439 9670.955 7587.959 11538.175 6926.425 7397.719 7397.771 8129.957 12051.096 9885.142 2210.624 11237.818 0.000 8357.092 9259.819 9197.199 8095.425 9534.307 11917.949 9581.567
2087.909 3991.847 2233.705 564.471 1323.909 1602.525 1752.840 3196.179 2159.374 5063.399 2952.531 2749.780 2749.833 3794.533 4774.754 2103.795 6290.024 3727.992 8184.573 0.000 1749.992 1891.785 7660.462 3059.531 4557.642 5445.467
3761.817 2708.100 2873.628 1878.277 816.426 2431.571 3087.328 4039.496 3833.281 5937.614 4529.680 4413.709 4413.761 5458.461 5327.312 2743.718 7531.354 2444.245 9157.539 1697.868 0.000 274.916 8901.793 3904.699 5110.199 7109.395
3666.953 2849.893 3015.421 1783.413 721.562 2573.364 2992.464 4181.290 3738.417 6079.407 4434.816 4318.845 4318.897 5363.597 5469.105 2885.511 7436.490 2586.038 9062.675 1603.004 274.916 0.000 8806.928 4046.492 5251.992 7014.531
6545.890 10780.439 8824.570 7361.003 7850.655 8109.870 6512.860 7560.170 6223.789 8567.316 5564.543 5672.795 5672.848 5387.930 10216.910 8701.106 6239.114 10516.584 8351.008 7635.858 8538.584 8475.964 0.000 7423.522 10201.511 4767.289
3070.217 5947.285 1589.039 3647.784 4189.005 1781.418 3476.853 136.648 2697.428 2264.424 3399.534 3089.659 3089.711 3752.227 3042.032 1677.915 7867.557 5424.840 9762.106 3334.957 3906.630 4048.423 7557.688 0.000 3026.633 5164.455
5039.984 5374.734 2694.095 4812.693 5353.914 3304.202 5463.424 3020.070 4944.666 4338.919 5646.772 5336.896 5336.949 6366.838 718.663 3193.190 10261.909 4640.368 12156.458 4499.865 5048.089 5189.882 10155.980 3240.971 0.000 7762.748
4315.442 9842.107 6510.169 5918.249 7174.169 5795.468 4400.290 5196.873 3942.653 5412.259 3451.974 3560.226 3560.278 1667.351 7853.614 6386.705 7620.329 9578.252 9514.878 5876.433 7600.252 7742.045 5584.033 5060.225 7838.214 0.000
NODE_COORD_SECTION
1 135.757630 21.597263
2 3542.924186 -3498.976949
3 2378.501341 -106.401732
4 577.731483 -1047.951247
5 1226.581033 -1760.138503
6 1771.250502 -81.851878
7 -146.600283 -193.682285
8 2296.066935 1293.648913
9 108.209150 434.072969
10 2694.475540 2808.463799
11 -513.535333 835.955223
12 -56.314718 994.540691
13 -130.845128 918.428515
14 -349.894645 1828.751710
15 4729.131917 546.815932
16 2203.939126 -265.583425
17 -3590.556000 -1485.748189
18 3689.178445 -2829.337167
19 -4254.420239 -2927.640916
20 985.827064 -960.972375
21 1603.029256 -1990.614725
22 1574.470187 -2155.863100
23 -3241.010193 2869.966634
24 2174.970370 1276.599934
25 4532.836084 481.182186
26 -1206.080983 2782.544397
DEMAND_SECTION
1 0
2 3
3 9
4 9
5 8
6 1
7 10
8 3
9 1
10 56
11 70
12 8
13 3
14 51
15 6
16 4
17 50
18 5
19 3
20 8
21 8
22 1
23 1
24 1
25 87
26 2
DEPOT_SECTION
1
-1
EOF
