NAME : mamut-paris-n100-poi
COMMENT : Mamut2026 euclidean metric; city paris; 3-decimal seconds/meters; ENU ref in mamut-paris-n100-poi.vrp.json
TYPE : CVRP
DIMENSION : 101
EDGE_WEIGHT_TYPE : EXPLICIT
EDGE_WEIGHT_FORMAT : FULL_MATRIX
CAPACITY : 163
EDGE_WEIGHT_SECTION
0.000 3515.652 1047.313 754.739 7108.282 2364.488 1422.678 762.859 2764.107 4847.362 4438.946 7551.881 794.260 4327.728 2412.799 4977.628 6417.445 7431.778 3000.850 8028.612 320.021 3855.535 3298.257 1730.092 7877.540 8115.519 5216.590 1263.850 1042.022 1492.531 809.529 2905.326 2087.119 3080.634 4337.360 3165.142 1659.297 3696.064 4237.625 1123.640 4352.345 919.524 2302.051 3471.958 2677.058 2910.602 3870.773 4462.806 2801.830 1719.751 3922.719 2952.879 322.503 1762.049 1354.738 3195.355 2874.999 2798.756 7441.471 550.476 3529.798 1334.043 4626.696 3170.228 1705.320 2994.553 2590.694 1258.126 1011.169 5142.005 1914.936 2892.547 2589.262 5526.356 4390.728 3695.737 1417.646 1042.402 3265.198 2196.509 2765.132 4204.440 7511.596 5905.920 3045.552 4356.860 6227.505 4599.198 8971.778 3731.839 2754.786 6071.291 1296.738 3836.107 2464.771 4003.819 342.275 6043.653 3389.257 9576.853 4147.910
3515.652 0.000 3575.109 3081.156 3757.280 1326.540 4524.939 2841.337 6276.791 7827.893 3022.755 10268.728 2944.675 7410.616 1262.027 7610.776 8786.755 10940.208 1241.267 11526.416 3284.415 7111.052 5492.569 2491.679 10483.151 11630.763 3118.905 4354.640 2809.072 3977.122 3344.061 1274.518 3729.878 6402.690 2741.123 5217.563 3561.821 7196.358 7593.041 4511.590 5873.335 3493.063 4335.228 6949.003 5266.187 2236.995 6349.965 4995.371 6131.530 4109.743 7371.316 4459.396 3652.250 1781.356 2423.679 4336.119 5916.335 1818.046 5571.275 3464.891 1394.600 2347.147 7018.783 6489.159 4993.408 5973.039 5829.991 4752.647 3529.095 5591.442 1660.135 716.048 5808.096 3046.459 3209.704 7197.447 3991.129 2992.990 4472.042 4541.195 2437.244 5924.633 4533.226 8729.516 5209.958 7722.574 3143.222 3760.423 12485.738 6983.298 6270.412 8364.821 3384.145 5355.286 4424.278 6113.370 3492.136 4334.531 522.694 11994.803 5245.178
1047.313 3575.109 0.000 1665.043 6859.257 2263.888 966.142 937.006 3102.242 4307.287 5143.657 8406.917 748.098 3855.236 2326.166 5898.661 7370.486 7519.741 2723.421 8066.436 1264.634 3536.942 2366.326 1208.498 8760.082 8258.839 5815.466 807.965 1856.938 2539.641 321.739 2631.569 1050.342 2846.767 4997.203 2191.765 631.319 3802.336 4828.790 1147.456 3331.432 142.412 3349.195 3913.510 1860.767 2299.438 4850.850 3429.570 3488.643 2766.579 4403.029 1906.522 777.310 1845.079 2019.985 4216.004 2353.687 2339.143 6663.766 1585.381 3174.049 1245.291 5604.599 2930.987 1471.165 2425.989 3364.122 1535.992 54.035 4103.849 1930.328 3094.829 3376.428 6041.438 5139.227 4051.708 478.202 584.792 4292.681 1244.551 2092.083 5249.049 7058.316 6752.425 2093.818 4167.714 5865.475 3746.857 9089.937 3409.218 3041.091 7042.099 338.020 2805.206 3511.835 5028.662 705.204 5282.170 3302.133 10488.716 5184.225
754.739 3081.156 1665.043 0.000 6790.212 2127.860 2176.812 918.266 3272.512 5595.935 3690.826 7498.970 1085.921 5070.231 2160.309 4860.966 6225.472 7981.647 2828.677 8598.316 439.765 4575.458 4004.030 1898.508 7784.483 8633.171 4488.381 2015.942 318.881 1123.881 1360.869 2738.093 2625.398 3791.944 3597.960 3849.023 2202.886 4285.518 4515.261 1855.929 4993.587 1523.352 1839.867 3886.981 3412.984 2993.992 3666.428 4945.768 3052.946 1335.740 4295.706 3537.599 1066.554 1490.164 699.838 2575.338 3627.476 2776.383 7546.305 396.521 3380.137 1323.217 4410.244 3881.344 2445.836 3748.666 2764.838 1913.406 1617.536 5634.514 1662.651 2399.844 2747.536 4821.775 3637.562 4157.461 2099.255 1407.257 2662.245 2887.138 2908.023 3766.382 7335.538 5882.772 3741.165 5040.380 6001.179 4823.504 9497.502 4453.668 3291.248 5848.985 1822.542 4462.444 1993.440 3672.008 1019.132 6149.804 3058.003 9430.318 3567.855
7108.282 3757.280 6859.257 6790.212 0.000 4743.926 7814.109 6364.639 9847.389 10683.355 5862.080 13997.633 6408.658 10387.446 4695.645 11347.628 12465.510 14378.705 4150.365 14917.766 6927.501 10263.945 8080.312 5650.791 14191.364 15115.944 5318.601 7665.114 6539.662 7732.471 6721.948 4245.105 6556.033 9659.566 5583.332 7778.104 6591.424 10654.976 11298.723 7952.578 7893.750 6824.083 8075.076 10580.119 8148.209 4694.194 10084.507 6519.449 9837.491 7867.021 11028.009 6908.441 7171.687 5356.692 6164.158 7943.469 8993.064 4535.936 4124.265 7156.855 3687.598 5801.304 10731.185 9738.049 8328.804 8999.597 9554.767 8266.604 6826.595 6816.339 5196.706 4472.939 9536.396 4832.756 6130.169 10792.797 7159.645 6340.065 8080.304 7448.267 4948.442 9543.405 1507.658 12478.493 7843.440 10961.077 1192.035 4691.475 15949.163 10140.061 9817.383 12034.315 6575.351 7516.647 8154.640 9802.038 7002.257 3795.584 3736.446 15645.654 8749.174
2364.488 1326.540 2263.888 2127.860 4743.926 0.000 3223.714 1624.814 5110.793 6501.410 3676.068 9601.696 1688.692 6085.720 64.805 6948.686 8254.865 9712.069 712.501 10281.772 2196.766 5799.877 4198.514 1170.035 9868.298 10424.123 4063.608 3056.985 1941.188 3196.279 2054.925 629.224 2431.024 5106.103 3441.983 3932.451 2238.629 5967.543 6577.551 3260.531 4687.849 2191.605 3755.022 5836.197 3942.665 1309.159 5720.956 4006.245 5122.864 3377.855 6286.025 3219.063 2438.940 638.176 1638.410 4088.589 4593.769 905.238 5588.679 2458.851 1263.639 1075.364 6443.366 5191.342 3707.595 4647.943 4865.191 3542.504 2220.086 4657.621 466.909 1030.089 4852.901 4133.723 3781.949 6052.321 2667.970 1688.909 4213.018 3219.812 1404.840 5570.846 5209.162 7999.237 3913.177 6427.539 3886.898 3178.006 11270.390 5672.209 5087.580 7857.556 2059.402 4152.555 3879.929 5619.675 2271.162 4221.444 1050.763 11474.858 5088.761
1422.678 4524.939 966.142 2176.812 7814.109 3223.714 0.000 1755.843 2295.760 3459.621 5846.014 7917.256 1607.170 2967.599 3285.193 5542.278 7050.481 6566.141 3687.101 7105.560 1738.245 2590.743 2022.570 2166.891 8305.999 7313.892 6590.562 175.871 2451.980 2700.742 1183.648 3595.830 1564.326 1882.574 5730.961 1968.713 1308.449 2872.162 4129.164 548.030 3226.508 1032.805 3496.677 3135.551 1315.596 3198.601 4635.467 3735.044 2926.503 2905.610 3635.140 2093.758 1113.945 2767.329 2719.941 4502.515 1478.303 3282.586 7380.353 1927.018 4126.578 2179.638 5365.922 1967.633 522.275 1584.087 2900.984 935.058 1006.170 4355.509 2868.885 4011.607 2928.200 6863.181 5807.106 3219.297 699.421 1535.140 4553.647 1080.895 2971.078 5272.823 7964.047 6270.441 1816.451 3204.002 6802.108 4431.498 8138.895 2463.105 2208.194 6763.643 1239.833 2775.203 3656.412 4940.178 1201.432 6027.982 4266.033 10068.200 5392.007
762.859 2841.337 937.006 918.266 6364.639 1624.814 1755.843 0.000 3486.010 5197.821 4207.075 8262.224 199.191 4720.227 1677.115 5658.377 7065.780 8105.798 2241.562 8686.648 700.974 4334.601 3287.815 1021.518 8573.175 8808.267 4884.535 1580.016 1004.430 2000.262 620.963 2145.875 1753.248 3594.420 4060.505 3094.521 1348.327 4359.984 5000.298 1671.468 4169.159 805.030 2752.356 4219.330 2796.786 2180.538 4505.536 4034.529 3563.732 2222.871 4677.003 2679.300 817.187 1060.305 1095.785 3473.807 3222.588 2041.774 6732.995 1050.189 2767.522 572.018 5257.898 3682.655 2178.914 3312.441 3344.214 1922.649 883.009 4724.140 1194.972 2274.255 3340.276 5125.980 4206.001 4428.602 1414.990 506.790 3566.651 2170.814 2057.961 4680.734 6748.814 6623.941 3009.582 4905.920 5468.307 3944.744 9658.185 4207.546 3463.509 6702.757 978.457 3627.851 2907.989 4561.976 652.613 5333.649 2666.106 10251.026 4475.754
2764.107 6276.791 3102.242 3272.512 9847.389 5110.793 2295.760 3486.010 0.000 3506.448 6656.215 5871.987 3439.918 2931.216 5162.591 3838.559 5327.738 4710.374 5705.564 5334.272 2997.308 2204.385 3762.670 4266.128 6307.404 5364.859 7565.414 2380.502 3585.039 2897.500 3161.614 5609.986 3859.744 1612.692 6639.425 3861.797 3585.114 1116.264 1889.182 1954.813 5055.535 3095.864 3356.088 843.814 3031.777 5400.302 3357.649 5898.145 1181.852 2963.155 1343.991 4278.406 2675.701 4523.953 3972.348 4441.807 2305.437 5405.275 9676.112 2876.375 6206.323 4046.136 3936.196 1655.313 1818.903 2469.150 1461.952 1590.784 3119.907 6458.702 4672.458 5635.608 1519.240 7975.879 6525.013 952.788 2984.172 3539.920 4423.325 3240.340 5193.942 4463.884 10147.001 4282.849 3687.833 2233.654 8917.082 6727.139 6227.020 2141.260 155.124 5138.335 3432.030 4733.704 3461.179 3914.507 2845.171 8321.297 6147.849 8092.072 5004.071
4847.362 7827.893 4307.287 5595.935 10683.355 6501.410 3459.621 5197.821 3506.448 0.000 9285.985 8902.592 5031.718 583.256 6565.997 7263.677 8696.944 4628.859 6800.771 4906.975 5167.383 1302.396 2630.819 5340.858 9388.023 5452.993 10049.108 3633.537 5889.234 5833.746 4592.014 6722.295 4183.916 1998.325 9182.279 2929.425 4273.563 2748.343 4922.485 3746.822 3346.713 4416.796 6516.147 3960.200 2581.702 6027.170 6863.394 4787.153 4688.298 5987.468 4275.544 3795.259 4558.459 6149.123 6176.369 7610.946 1981.343 6278.192 9074.616 5289.559 7115.629 5547.621 7432.365 1925.786 3154.102 1885.564 4946.893 3803.506 4358.753 5020.615 6222.513 7396.844 5001.947 10320.127 9230.954 3688.193 3854.867 4886.382 7626.958 3310.038 5768.671 7919.547 10476.363 7478.277 2846.144 1612.472 9552.284 6386.328 6086.395 1369.702 3357.327 8560.806 4450.898 3439.841 6654.653 7402.485 4659.257 7963.482 7484.473 11143.554 8338.797
4438.946 3022.755 5143.657 3690.826 5862.080 3676.068 5846.014 4207.075 6656.215 9285.985 0.000 8762.421 4400.167 8760.586 3631.105 6295.837 7065.369 11257.630 4063.634 11915.103 4118.961 8248.041 7481.376 4592.292 8844.664 11805.636 984.107 5677.579 3397.779 3760.817 4824.629 4048.710 5813.852 7458.707 294.049 7268.112 5475.761 7756.462 7270.588 5545.577 8227.040 5009.065 3496.139 7038.103 6999.666 4961.020 5121.536 7679.241 5978.392 3721.376 7312.239 6713.853 4734.148 3569.615 3138.411 2728.289 7312.950 4530.998 8543.937 4016.180 4381.677 4077.682 5565.830 7547.362 6136.462 7428.447 5594.172 5559.926 5089.734 8333.674 3607.322 2719.974 5547.736 1539.667 277.951 7383.426 5620.954 4646.738 2839.800 6373.168 5079.795 4138.288 7058.930 7480.278 7198.442 8659.536 5724.782 6713.753 12674.551 8128.701 6720.222 6621.767 5145.349 7679.515 3467.054 4605.238 4648.393 7349.597 3509.825 10089.493 3174.952
7551.881 10268.728 8406.917 7498.970 13997.633 9601.696 7917.256 8262.224 5871.987 8902.592 8762.421 0.000 8339.321 8417.155 9625.650 2661.813 1764.266 6532.850 10312.402 7105.081 7563.503 7719.429 9628.134 9274.330 511.777 6427.700 9703.170 7931.293 7660.597 6405.427 8298.018 10224.783 9391.065 7387.632 8944.559 9707.471 9017.718 6200.375 4052.575 7415.857 10922.946 8331.421 5934.044 5120.985 8884.894 10442.578 3918.959 11650.976 4991.125 6228.016 4697.897 10008.880 7691.380 8973.171 7980.684 6148.954 8169.081 10267.804 14991.571 7230.341 10864.707 8785.974 3275.305 7402.632 7551.707 8328.569 5049.584 6997.372 8397.764 12256.611 9145.692 9557.144 5033.431 10289.986 8499.632 5290.940 8502.406 8590.789 6017.601 8976.881 10313.080 4625.198 14756.109 1654.727 9534.357 7297.359 13383.170 12135.582 7015.148 7714.298 6015.805 2189.851 8733.550 10576.704 5845.874 4229.162 7831.237 13592.768 10411.973 2245.186 5599.401
794.260 2944.675 748.098 1085.921 6408.658 1688.692 1607.170 199.191 3439.918 5031.718 4400.167 8339.321 0.000 4562.209 1744.934 5750.836 7172.948 8023.970 2266.531 8596.939 809.805 4195.311 3090.490 936.661 8658.937 8735.736 5067.726 1432.288 1195.900 2136.788 440.783 2170.841 1560.197 3466.318 4250.311 2895.713 1151.495 4278.982 5006.251 1574.052 3971.579 621.568 2905.301 4193.695 2608.766 2116.342 4615.994 3859.857 3584.118 2362.214 4659.938 2484.674 766.950 1168.342 1294.654 3654.371 3061.691 2016.482 6652.296 1168.422 2777.431 613.391 5370.392 3553.811 2052.330 3146.316 3383.235 1858.942 694.106 4548.694 1285.675 2405.656 3382.679 5299.702 4401.848 4388.259 1226.086 321.547 3744.769 1974.881 1974.044 4833.615 6748.703 6695.763 2811.673 4782.952 5486.688 3832.811 9581.700 4067.876 3408.881 6816.125 779.795 3430.910 3062.902 4695.924 597.060 5253.712 2738.351 10347.934 4652.236
4327.728 7410.616 3855.236 5070.231 10387.446 6085.720 2967.599 4720.227 2931.216 583.256 8760.586 8417.155 4562.209 0.000 6149.828 6710.119 8155.817 4542.325 6427.419 4894.711 4647.212 734.138 2446.148 4939.151 8896.468 5366.428 9541.257 3143.217 5369.107 5267.868 4126.136 6345.395 3841.826 1416.783 8664.941 2728.930 3883.872 2227.452 4405.700 3215.055 3360.389 3956.315 5941.092 3416.531 2239.637 5703.006 6286.168 4726.897 4112.738 5417.565 3755.311 3567.781 4048.217 5700.076 5668.800 7037.716 1502.087 5925.026 8995.682 4752.493 6772.362 5100.471 6862.658 1343.125 2624.442 1437.817 4366.414 3246.889 3905.021 5035.959 5783.241 6949.898 4421.233 9828.236 8698.142 3162.518 3420.248 4439.163 7051.826 2951.654 5445.828 7336.476 10255.367 6962.114 2617.560 1203.539 9277.061 6223.357 6056.972 790.392 2780.894 8009.409 4026.535 3359.334 6078.304 6821.111 4157.920 7829.393 7089.878 10661.473 7758.036
2412.799 1262.027 2326.166 2160.309 4695.645 64.805 3285.193 1677.115 5162.591 6565.997 3631.105 9625.650 1744.934 6149.828 0.000 6971.113 8270.972 9768.826 695.989 10339.663 2239.669 5862.503 4262.488 1234.807 9889.523 10479.533 4008.957 3118.096 1966.384 3220.729 2114.824 617.605 2495.007 5167.424 3394.747 3996.026 2303.434 6023.906 6620.296 3317.736 4746.761 2252.821 3768.831 5884.757 4007.463 1344.113 5740.551 4054.292 5164.398 3399.739 6332.997 3280.293 2492.412 673.989 1655.173 4085.045 4657.535 932.376 5586.495 2496.372 1243.408 1131.971 6460.650 5252.773 3767.811 4712.073 4903.769 3596.682 2282.109 4703.283 505.676 972.829 4890.867 4074.590 3740.319 6103.060 2731.753 1750.165 4210.353 3284.612 1448.689 5575.372 5175.272 8026.031 3977.241 6488.832 3847.927 3201.810 11326.417 5734.822 5140.521 7872.134 2123.411 4212.171 3891.980 5631.717 2325.065 4223.358 993.449 11491.532 5082.489
4977.628 7610.776 5898.661 4860.966 11347.628 6948.686 5542.278 5658.377 3838.559 7263.677 6295.837 2661.813 5750.836 6710.119 6971.113 0.000 1515.856 6389.424 7660.470 7061.338 4957.410 5976.347 7418.680 6678.170 2923.585 6621.637 7266.304 5525.234 5009.149 3754.809 5754.258 7573.910 6920.891 5450.769 6447.014 7447.319 6524.527 4541.405 2498.925 5008.833 8700.715 5808.763 3275.635 3308.899 6658.719 7831.748 1263.280 9252.434 2730.007 3571.435 3074.228 7623.021 5150.510 6323.781 5322.388 3595.323 6094.121 7636.682 12389.327 4613.872 8212.298 6164.371 755.037 5490.411 5257.192 6263.217 2652.518 4607.305 5882.919 9891.029 6495.841 6898.037 2619.834 7835.502 6048.221 3616.452 6057.167 6019.800 3472.163 6622.765 7716.229 2240.406 12094.353 1185.048 7279.514 5773.667 10721.529 9576.778 7408.532 5934.271 3993.636 1301.278 6212.378 8295.390 3193.093 1691.925 5277.638 10990.141 7750.169 4599.292 3251.112
6417.445 8786.755 7370.486 6225.472 12465.510 8254.865 7050.481 7065.780 5327.738 8696.944 7065.369 1764.266 7172.948 8155.817 8270.972 1515.856 0.000 7270.205 8966.392 7910.391 6368.180 7425.048 8934.523 8086.998 1779.566 7351.615 7989.122 7028.585 6337.282 5102.478 7208.947 8884.012 8403.115 6935.222 7261.808 8962.354 7999.786 5952.981 3814.382 6513.733 10216.351 7274.415 4505.649 4739.353 8174.574 9217.986 2561.339 10748.706 4241.456 4899.109 4440.582 9124.800 6610.694 7646.782 6616.478 4536.053 7600.785 8993.622 13771.609 6015.605 9513.606 7545.601 1816.114 6970.686 6772.433 7769.306 4167.311 6116.144 7351.878 11392.855 7816.129 8087.586 4133.644 8580.469 6797.534 5014.617 7549.973 7454.714 4400.622 8131.360 9119.015 2957.140 13312.654 1444.466 8794.810 7164.021 11926.614 11005.735 8057.063 7390.919 5482.280 443.629 7676.678 9808.792 4392.087 2673.408 6729.442 12375.260 8981.354 3221.494 3890.601
7431.778 10940.208 7519.741 7981.647 14378.705 9712.069 6566.141 8105.798 4710.374 4628.859 11257.630 6532.850 8023.970 4542.325 9768.826 6389.424 7270.205 0.000 10238.605 683.222 7688.328 4317.111 6918.705 8728.045 7035.512 825.504 12200.264 6713.606 8295.108 7521.902 7672.225 10145.431 7945.432 4765.467 11272.405 7174.233 7824.544 3745.941 4186.056 6451.862 7902.123 7559.303 7796.904 4219.916 6505.365 9743.074 6840.355 9250.263 5288.049 7539.522 3973.393 7941.006 7290.219 9164.323 8681.296 8776.233 5555.282 9848.616 13483.939 7585.938 10691.894 8636.894 6976.861 4695.914 6049.961 5605.722 5676.466 6187.608 7553.203 9578.282 9300.143 10323.200 5726.258 12642.267 11096.943 3882.960 7234.406 8051.417 8717.879 7094.820 9503.442 8186.651 14483.550 5827.231 7035.448 3556.729 13362.821 10628.056 1576.313 4422.359 4692.261 7381.790 7805.933 7883.124 7857.897 7530.862 7453.186 12258.013 10762.274 8484.930 9030.137
3000.850 1241.267 2723.421 2828.677 4150.365 712.501 3687.101 2241.562 5705.564 6800.771 4063.634 10312.402 2266.531 6427.419 695.989 7660.470 8966.392 10238.605 0.000 10789.630 2864.192 6209.665 4355.713 1523.088 10580.525 10968.914 4303.010 3531.381 2651.932 3907.116 2572.105 95.785 2627.178 5557.554 3803.882 4069.357 2544.942 6506.985 7235.354 3802.344 4648.946 2679.302 4464.789 6457.225 4219.156 995.769 6433.457 3759.034 5788.457 4090.025 6918.080 3272.453 3033.058 1340.843 2350.038 4761.056 4964.611 584.727 4904.047 3145.769 552.446 1670.176 7155.434 5639.504 4194.194 4997.680 5543.978 4119.761 2687.585 4366.461 1167.989 1348.276 5534.038 4275.438 4206.544 6654.677 3063.957 2190.543 4888.283 3490.820 1203.148 6265.545 4523.011 8706.979 4080.364 6873.755 3226.850 2655.863 11805.913 6083.078 5671.012 8568.019 2460.695 4139.645 4587.877 6327.578 2863.133 3553.198 752.533 12186.698 5750.439
8028.612 11526.416 8066.436 8598.316 14917.766 10281.772 7105.560 8686.648 5334.272 4906.975 11915.103 7105.081 8596.939 4894.711 10339.663 7061.338 7910.391 683.222 10789.630 0.000 8292.868 4755.104 7316.648 9272.215 7601.880 832.547 12853.068 7258.525 8913.615 8171.119 8233.122 10697.382 8438.314 5268.620 11924.957 7583.704 8340.914 4332.873 4868.880 7022.887 8233.010 8113.037 8463.487 4877.793 6953.949 10258.599 7523.525 9621.591 5953.688 8194.628 4646.340 8377.104 7874.183 9746.787 9296.999 9450.379 6018.101 10382.411 13883.665 8203.784 11230.457 9208.248 7655.563 5194.099 6595.440 6054.080 6342.783 6776.914 8102.071 9911.957 9878.461 10921.050 6393.315 13288.332 11757.970 4533.204 7760.292 8609.601 9393.482 7572.566 10014.788 8869.860 14976.809 6470.523 7453.104 4007.626 13883.315 11063.357 1183.461 4867.891 5307.320 8034.325 8342.794 8253.840 8527.135 8214.044 8034.731 12686.851 11332.528 8994.648 9712.265
320.021 3284.415 1264.634 439.765 6927.501 2196.766 1738.245 700.974 2997.308 5167.383 4118.961 7563.503 809.805 4647.212 2239.669 4957.410 6368.180 7688.328 2864.192 8292.868 0.000 4169.792 3577.126 1721.552 7872.509 8360.195 4898.664 1576.465 722.102 1334.106 980.409 2769.858 2268.079 3392.025 4017.743 3430.635 1839.840 3964.192 4380.812 1439.611 4594.766 1126.142 2120.658 3669.417 2975.712 2879.300 3809.257 4623.614 2927.002 1561.303 4104.358 3162.460 626.805 1571.318 1045.031 2951.430 3194.685 2721.290 7433.637 359.198 3405.513 1233.176 4562.884 3481.610 2024.046 3313.413 2681.283 1544.374 1220.873 5308.640 1734.535 2638.770 2673.050 5213.515 4071.716 3913.038 1678.181 1112.274 3029.133 2464.815 2758.867 4043.795 7386.923 5927.548 3317.980 4659.979 6081.083 4638.606 9219.913 4046.588 2999.460 6008.408 1462.873 4069.836 2281.107 3888.404 588.011 6034.286 3194.458 9550.554 3924.270
3855.535 7111.052 3536.942 4575.458 10263.945 5799.877 2590.743 4334.601 2204.385 1302.396 8248.041 7719.429 4195.311 734.138 5862.503 5976.347 7425.048 4317.111 6209.665 4755.104 4169.792 0.000 2618.547 4692.453 8193.806 5125.688 9063.765 2764.167 4884.748 4663.032 3774.285 6122.639 3719.552 791.416 8170.136 2862.506 3680.369 1519.106 3690.468 2732.133 3717.291 3618.899 5300.761 2686.716 2198.864 5571.910 5561.817 4967.785 3386.174 4798.371 3039.137 3626.399 3602.235 5358.039 5209.958 6402.079 1276.366 5745.441 9170.087 4232.755 6599.480 4769.164 6131.097 704.301 2165.342 1299.496 3649.855 2690.409 3582.222 5357.227 5458.388 6600.943 3705.434 9381.814 8169.166 2444.192 3148.240 4118.063 6408.851 2836.544 5320.419 6633.580 10238.830 6244.221 2719.908 762.388 9188.870 6314.139 5877.280 127.757 2055.911 7275.905 3757.059 3612.492 5432.220 6106.838 3730.356 7942.296 6831.156 9964.608 7087.631
3298.257 5492.569 2366.326 4004.030 8080.312 4198.514 2022.570 3287.815 3762.670 2630.819 7481.376 9628.134 3090.490 2446.148 4262.488 7418.680 8934.523 6918.705 4355.713 7316.648 3577.126 2618.547 0.000 3041.856 10053.218 7733.960 8096.190 2121.026 4218.889 4700.234 2687.518 4288.505 1767.490 2435.013 7318.013 302.210 2023.605 3779.686 5637.738 2559.602 1295.086 2507.417 5505.974 4561.072 760.288 3488.769 6606.081 2351.558 4706.405 4912.152 5037.735 1172.385 2977.290 4004.497 4381.528 6478.840 1546.302 3794.827 6568.799 3844.577 4596.559 3433.345 7317.699 2463.018 2173.609 1424.039 4771.589 2890.996 2418.690 2787.968 4028.421 5188.796 4808.653 8263.674 7491.030 4493.939 1907.006 2834.733 6539.357 1122.055 3232.701 7294.676 7845.936 8017.459 287.559 3379.120 6935.851 3778.738 8463.528 2527.048 3624.648 8678.867 2336.382 1019.147 5667.154 6948.216 2989.126 5383.647 5084.087 11835.006 7396.351
1730.092 2491.679 1208.498 1898.508 5650.791 1170.035 2166.891 1021.518 4266.128 5340.858 4592.292 9274.330 936.661 4939.151 1234.807 6678.170 8086.998 8728.045 1523.088 9272.215 1721.552 4692.453 3041.856 0.000 9590.517 9466.942 5107.385 2014.798 1890.688 3009.693 1105.329 1433.536 1279.509 4034.466 4393.100 2784.657 1070.169 5008.775 5908.486 2324.688 3638.677 1180.913 3735.328 5053.096 2774.509 1182.897 5526.414 3209.107 4503.551 3228.549 5531.481 2131.727 1655.912 1022.770 1804.206 4358.647 3459.164 1140.278 5717.446 2071.462 1966.019 622.672 6278.157 4116.459 2678.538 3502.647 4314.643 2676.785 1176.774 3894.840 1006.127 2147.418 4315.491 5236.435 4649.765 5218.902 1544.268 734.112 4463.498 2050.172 1039.087 5656.527 5881.360 7631.862 2755.090 5351.022 4664.169 2928.488 10298.431 4565.480 4217.104 7722.517 937.961 3092.563 3886.132 5568.270 1493.454 4318.465 2150.898 11272.106 5374.066
7877.540 10483.151 8760.082 7784.483 14191.364 9868.298 8305.999 8573.175 6307.404 9388.023 8844.664 511.777 8658.937 8896.468 9889.523 2923.585 1779.566 7035.512 10580.525 7601.880 7872.509 8193.806 10053.218 9590.517 0.000 6914.969 9768.209 8312.744 7930.555 6677.214 8637.917 10494.601 9758.154 7842.409 9039.583 10123.921 9376.962 6674.960 4514.507 7795.544 11348.276 8679.388 6159.850 5574.240 9305.443 10750.272 4152.983 12040.945 5386.003 6490.503 5163.287 10399.678 8031.378 9245.550 8237.487 6289.981 8610.174 10559.899 15306.140 7532.539 11131.864 9085.446 3464.472 7860.092 7955.968 8771.419 5419.201 7379.613 8748.631 12655.249 9417.365 9776.024 5399.265 10359.854 8577.045 5758.055 8875.059 8919.340 6155.932 9372.981 10629.487 4727.539 14991.255 2039.749 9951.408 7785.967 13611.768 12472.667 7485.672 8185.531 6453.607 2223.034 9082.714 10990.807 6061.391 4391.529 8166.388 13906.790 10648.348 1784.942 5670.063
8115.519 11630.763 8258.839 8633.171 15115.944 10424.123 7313.892 8808.267 5364.859 5452.993 11805.636 6427.700 8735.736 5366.428 10479.533 6621.637 7351.615 825.504 10968.914 832.547 8360.195 5125.688 7733.960 9466.942 6914.969 0.000 12761.452 7456.310 8942.535 8104.874 8397.581 10874.991 8722.548 5544.376 11835.919 7986.437 8586.910 4462.043 4606.934 7170.249 8726.584 8291.879 8319.925 4798.789 7305.827 10503.178 7203.806 10069.507 5828.865 8105.192 4493.424 8744.278 7991.110 9862.539 9332.570 9257.491 6351.812 10594.629 14295.547 8236.650 11432.853 9349.101 7259.757 5477.893 6794.221 6407.842 6211.606 6885.700 8290.278 10402.226 10003.094 10998.955 6257.908 13221.822 11632.853 4488.185 7991.087 8778.594 9190.007 7881.475 10266.756 8548.489 15254.644 5928.146 7845.539 4363.717 14115.925 11429.544 870.486 5228.239 5361.939 7510.092 8552.803 8703.050 8368.690 7891.923 8156.527 13061.008 11472.143 8246.599 9435.559
5216.590 3118.905 5815.466 4488.381 5318.601 4063.608 6590.562 4884.535 7565.414 10049.108 984.107 9703.170 5067.726 9541.257 4008.957 7266.304 7989.122 12200.264 4303.010 12853.068 4898.664 9063.765 8096.190 5107.385 9768.209 12761.452 0.000 6417.732 4179.833 4683.553 5504.932 4309.879 6372.512 8279.966 928.140 7862.370 6072.900 8654.605 8243.259 6337.996 8732.942 5688.205 4467.085 7980.925 7674.600 5269.408 6101.750 8037.926 6932.616 4661.253 8268.960 7236.823 5493.438 4101.211 3873.294 3710.547 8068.119 4834.395 8393.778 4840.663 4512.459 4662.856 6531.231 8369.299 6921.805 8172.908 6551.107 6391.533 5761.554 8663.505 4101.302 3039.181 6506.034 597.097 1218.327 8319.910 6292.669 5280.006 3820.246 7012.558 5427.236 5087.346 6630.540 8449.578 7809.523 9512.291 5368.405 6878.442 13631.178 8941.739 7621.682 7546.222 5771.459 8190.825 4443.743 5574.484 5389.915 7299.133 3640.124 10960.263 4104.185
1263.850 4354.640 807.965 2015.942 7665.114 3056.985 175.871 1580.016 2380.502 3633.537 5677.579 7931.293 1432.288 3143.217 3118.096 5525.234 7028.585 6713.606 3531.381 7258.525 1576.465 2764.167 2121.026 2014.798 8312.744 7456.310 6417.732 0.000 2286.285 2582.938 1011.437 3439.472 1497.494 2049.606 5560.320 2045.094 1205.098 3005.858 4188.040 518.027 3294.424 865.429 3385.700 3214.219 1438.888 3069.244 4588.849 3732.761 2946.034 2792.422 3712.054 2097.966 950.124 2594.025 2548.506 4376.037 1652.440 3138.346 7302.418 1779.447 3978.477 2008.284 5325.551 2135.391 663.746 1755.566 2897.160 933.927 844.904 4365.803 2697.333 3837.294 2921.210 6688.300 5641.292 3315.443 605.725 1368.108 4430.678 1119.564 2846.861 5186.558 7835.623 6280.967 1900.153 3370.871 6661.931 4356.760 8284.835 2636.599 2301.581 6733.299 1098.321 2826.782 3546.587 4871.730 1030.357 5941.980 4101.324 10069.159 5278.230
1042.022 2809.072 1856.938 318.881 6539.662 1941.188 2451.980 1004.430 3585.039 5889.234 3397.779 7660.597 1195.900 5369.107 1966.384 5009.149 6337.282 8295.108 2651.932 8913.615 722.102 4884.748 4218.889 1890.688 7930.555 8942.535 4179.833 2286.285 0.000 1255.196 1539.793 2564.869 2756.070 4103.242 3295.855 4048.563 2345.094 4603.349 4784.900 2158.788 5160.307 1714.708 1876.042 4185.683 3656.585 2916.927 3789.678 5025.375 3324.448 1442.039 4585.924 3680.148 1338.204 1315.061 393.918 2483.634 3915.189 2660.209 7444.733 709.858 3204.149 1279.200 4521.742 4192.731 2745.418 4031.849 3021.418 2230.238 1806.158 5715.512 1486.816 2115.694 3000.446 4506.215 3355.182 4462.636 2312.750 1511.204 2582.534 3097.278 2857.513 3777.802 7129.545 6059.954 3949.504 5356.795 5781.733 4784.367 9807.686 4762.322 3606.297 5949.668 1968.579 4622.320 2018.561 3738.747 1265.524 6053.636 2819.675 9552.327 3493.804
1492.531 3977.122 2539.641 1123.881 7732.471 3196.279 2700.742 2000.262 2897.500 5833.746 3760.817 6405.427 2136.788 5267.868 3220.729 3754.809 5102.478 7521.902 3907.116 8171.119 1334.106 4663.032 4700.234 3009.693 6677.214 8104.874 4683.553 2582.938 1255.196 0.000 2290.469 3819.883 3577.218 3877.854 3755.515 4600.289 3148.501 4004.142 3718.532 2213.293 5817.532 2411.636 814.253 3308.346 4015.986 4117.871 2545.333 5947.547 2303.542 228.164 3633.181 4443.626 1780.479 2569.075 1588.115 1813.018 3971.027 3893.654 8669.157 977.349 4459.345 2446.629 3286.839 3961.830 2765.165 4120.349 1946.621 2042.420 2503.646 6629.590 2741.271 3263.910 1912.115 5121.170 3627.705 3639.152 2882.811 2445.523 1855.840 3637.219 4028.981 2715.365 8374.038 4808.361 4466.947 4975.042 7017.261 5938.141 8975.346 4554.316 2967.355 4725.110 2779.199 5311.830 977.281 2561.721 1834.806 7273.175 4044.750 8310.381 2696.117
809.529 3344.061 321.739 1360.869 6721.948 2054.925 1183.648 620.963 3161.614 4592.014 4824.629 8298.018 440.783 4126.136 2114.824 5754.258 7208.947 7672.225 2572.105 8233.122 980.409 3774.285 2687.518 1105.329 8637.917 8397.581 5504.932 1011.437 1539.793 2290.469 0.000 2477.842 1289.657 3058.691 4680.778 2509.429 860.736 3935.543 4819.049 1231.033 3633.153 184.479 3091.757 3948.515 2176.515 2263.907 4670.713 3657.477 3437.192 2518.575 4428.655 2183.459 606.759 1584.233 1698.435 3926.193 2624.654 2243.665 6721.572 1319.538 3052.810 997.092 5426.427 3145.098 1653.245 2706.901 3279.016 1571.615 268.870 4339.128 1685.946 2830.821 3285.966 5740.340 4818.370 4114.391 796.469 382.116 4006.794 1566.001 2081.445 5005.761 6986.608 6646.015 2414.066 4379.038 5760.499 3837.564 9236.771 3646.619 3115.211 6869.292 488.917 3101.624 3253.442 4813.345 480.145 5330.105 3103.816 10351.967 4904.155
2905.326 1274.518 2631.569 2738.093 4245.105 629.224 3595.830 2145.875 5609.986 6722.295 4048.710 10224.783 2170.841 6345.395 617.605 7573.910 8884.012 10145.431 95.785 10697.382 2769.858 6122.639 4288.505 1433.536 10494.601 10874.991 4309.879 3439.472 2564.869 3819.883 2477.842 0.000 2553.166 5467.721 3792.364 4003.786 2461.939 6413.002 7140.130 3707.831 4603.425 2586.186 4384.079 6361.440 4141.039 968.917 6348.768 3739.697 5693.629 4004.199 6822.331 3214.099 2937.330 1251.956 2267.605 4694.384 4879.778 543.647 4972.425 3052.949 642.047 1574.438 7072.260 5549.889 4102.025 4914.399 5450.018 4024.384 2595.333 4354.615 1079.240 1329.167 5440.278 4295.478 4186.143 6559.022 2975.921 2096.446 4820.873 3412.285 1162.748 6192.190 4617.121 8617.806 4011.852 6784.556 3322.485 2681.413 11712.406 5995.943 5575.638 8486.760 2371.457 4090.355 4508.411 6248.193 2767.407 3615.695 803.702 12103.876 5686.869
2087.119 3729.878 1050.342 2625.398 6556.033 2431.024 1564.326 1753.248 3859.744 4183.916 5813.852 9391.065 1560.197 3841.826 2495.007 6920.891 8403.115 7945.432 2627.178 8438.314 2268.079 3719.552 1767.490 1279.509 9758.154 8722.548 6372.512 1497.494 2756.070 3577.218 1289.657 2553.166 0.000 3180.060 5630.230 1505.373 429.026 4355.184 5685.185 1993.127 2434.237 1168.680 4381.016 4699.871 1606.859 1863.343 5895.030 2379.357 4424.662 3805.068 5199.395 928.050 1827.648 2271.549 2819.488 5200.572 2443.726 2094.351 5816.772 2609.069 2934.091 1736.537 6647.415 3249.880 2055.751 2443.820 4341.877 2413.727 1079.638 3055.438 2278.485 3426.260 4359.726 6514.390 5849.535 4776.868 897.577 1247.801 5285.545 892.557 1607.734 6291.277 6539.829 7737.027 1482.405 4439.301 5469.643 2867.428 9521.251 3598.037 3769.292 8081.461 805.883 1887.761 4542.857 6078.897 1745.989 4470.632 3336.817 11499.514 6187.211
3080.634 6402.690 2846.767 3791.944 9659.566 5106.103 1882.574 3594.420 1612.692 1998.325 7458.707 7387.632 3466.318 1416.783 5167.424 5450.769 6935.222 4765.467 5557.554 5268.620 3392.025 791.416 2435.013 4034.466 7842.409 5544.376 8279.966 2049.606 4103.242 3877.854 3058.691 5467.721 3180.060 0.000 7383.411 2617.589 3073.211 1344.821 3336.968 1960.612 3671.972 2914.614 4530.988 2268.169 1832.235 4990.080 4922.182 4750.753 2770.276 4018.061 2700.522 3261.363 2838.838 4634.265 4435.154 5630.162 892.050 5124.497 8831.523 3444.716 5976.375 4055.554 5533.556 89.596 1415.562 1013.754 2989.122 1899.683 2888.184 5222.153 4743.618 5867.961 3041.916 8605.530 7378.334 2121.641 2501.259 3417.260 5641.105 2340.942 4746.264 5931.727 9718.434 5842.662 2452.859 1321.446 8615.073 5918.655 6341.456 677.463 1457.569 6750.887 3097.249 3453.475 4666.060 5431.510 2974.228 7551.650 6148.390 9625.498 6341.274
4337.360 2741.123 4997.203 3597.960 5583.332 3441.983 5730.961 4060.505 6639.425 9182.279 294.049 8944.559 4250.311 8664.941 3394.747 6447.014 7261.808 11272.405 3803.882 11924.957 4017.743 8170.136 7318.013 4393.100 9039.583 11835.919 928.140 5560.320 3295.855 3755.515 4680.778 3792.364 5630.230 7383.411 0.000 7097.756 5303.571 7731.053 7328.460 5453.226 8031.581 4865.165 3553.607 7053.282 6857.224 4715.585 5253.013 7448.188 6007.419 3733.835 7344.257 6521.308 4624.161 3371.206 3012.387 2858.867 7204.281 4283.477 8252.477 3939.172 4108.168 3897.823 5725.661 7472.494 6041.170 7315.034 5626.952 5489.111 4943.173 8097.490 3398.579 2466.594 5582.428 1417.042 547.369 7391.818 5475.362 4484.917 2977.212 6216.885 4842.147 4319.975 6769.475 7632.050 7033.512 8603.217 5432.646 6448.557 12705.834 8049.283 6697.164 6818.274 4982.222 7484.959 3537.713 4761.269 4529.977 7063.099 3233.626 10311.814 3376.955
3165.142 5217.563 2191.765 3849.023 7778.104 3932.451 1968.713 3094.521 3861.797 2929.425 7268.112 9707.471 2895.713 2728.930 3996.026 7447.319 8962.354 7174.233 4069.357 7583.704 3430.635 2862.506 302.210 2784.657 10123.921 7986.437 7862.370 2045.094 4048.563 4600.289 2509.429 4003.786 1505.373 2617.589 7097.756 0.000 1794.235 3956.654 5747.417 2515.475 1261.423 2334.109 5411.396 4676.763 831.195 3192.404 6593.767 2134.965 4754.212 4816.906 5161.331 870.284 2848.227 3763.605 4190.305 6358.434 1726.014 3504.794 6309.709 3715.060 4300.980 3203.204 7315.797 2653.429 2190.254 1622.811 4795.043 2873.635 2242.407 2619.823 3779.714 4931.633 4829.204 8016.796 7285.969 4632.110 1752.480 2625.432 6424.197 968.724 2937.060 7231.585 7548.979 8085.084 173.969 3624.842 6633.898 3494.883 8725.046 2765.181 3729.550 8694.454 2127.204 871.933 5573.638 6908.858 2844.358 5107.098 4801.789 11902.212 7293.131
1659.297 3561.821 631.319 2202.886 6591.424 2238.629 1308.449 1348.327 3585.114 4273.563 5475.761 9017.718 1151.495 3883.872 2303.434 6524.527 7999.786 7824.544 2544.942 8340.914 1839.840 3680.369 2023.605 1070.169 9376.962 8586.910 6072.900 1205.098 2345.094 3148.501 860.736 2461.939 429.026 3073.211 5303.571 1794.235 0.000 4169.075 5372.719 1663.625 2821.158 742.730 3951.992 4416.377 1704.389 1918.778 5482.157 2804.403 4072.788 3376.407 4912.940 1336.548 1406.208 1983.225 2431.533 4776.920 2422.809 2065.074 6108.032 2180.060 2919.132 1410.465 6235.833 3149.802 1826.137 2452.741 3969.332 2078.098 656.081 3482.708 2016.645 3189.521 3984.350 6244.093 5498.947 4520.130 609.125 851.048 4860.536 982.023 1679.848 5862.907 6671.456 7363.001 1736.692 4369.653 5542.438 3170.206 9400.453 3555.068 3506.484 7672.908 380.348 2279.542 4113.831 5655.328 1318.848 4740.820 3211.576 11110.894 5760.878
3696.064 7196.358 3802.336 4285.518 10654.976 5967.543 2872.162 4359.984 1116.264 2748.343 7756.462 6200.375 4278.982 2227.452 6023.906 4541.405 5952.981 3745.941 6506.985 4332.873 3964.192 1519.106 3779.686 5008.775 6674.960 4462.043 8654.605 3005.858 4603.349 4004.142 3935.543 6413.002 4355.184 1344.821 7731.053 3956.654 4169.075 0.000 2178.500 2709.258 5010.844 3831.241 4470.763 1235.869 3155.074 6070.762 4288.293 6085.498 2158.107 4076.825 1528.884 4559.205 3544.901 5418.931 4980.400 5552.585 2234.824 6141.160 10108.474 3895.035 6974.625 4892.191 4777.991 1322.686 2349.891 2358.153 2500.903 2444.519 3832.155 6566.223 5554.210 6588.290 2559.258 9050.562 7631.125 939.932 3563.309 4316.575 5530.665 3583.383 5842.157 5481.494 10835.877 4735.251 3789.659 1241.456 9666.754 7173.631 5303.381 1517.342 1036.893 5830.934 4104.164 4797.821 4573.377 4896.987 3707.389 8800.696 7017.284 8445.560 6081.847
4237.625 7593.041 4828.790 4515.261 11298.723 6577.551 4129.164 5000.298 1889.182 4922.485 7270.588 4052.575 5006.251 4405.700 6620.296 2498.925 3814.382 4186.056 7235.354 4868.880 4380.812 3690.468 5637.738 5908.486 4514.507 4606.934 8243.259 4188.040 4784.900 3718.532 4819.049 7140.130 5685.185 3336.968 7328.460 5747.417 5372.719 2178.500 0.000 3709.170 6925.503 4793.296 3776.184 1079.675 4916.468 7081.891 2667.592 7784.791 1462.352 3664.288 651.367 6159.179 4254.031 5949.896 5174.112 4659.877 4139.672 7022.141 11480.360 4142.282 7767.314 5571.646 2917.285 3350.395 3684.825 4294.596 1777.507 3298.448 4835.897 8347.860 6114.872 6899.367 1807.958 8736.976 7080.400 1246.791 4791.990 5175.530 4587.854 5118.569 6898.873 4008.589 11749.071 2556.836 5573.474 3357.997 10459.332 8541.019 5462.708 3676.049 2017.923 3739.344 5166.623 6618.933 3805.346 3355.718 4419.552 10107.019 7562.316 6294.061 4845.946
1123.640 4511.590 1147.456 1855.929 7952.578 3260.531 548.030 1671.468 1954.813 3746.822 5545.577 7415.857 1574.052 3215.055 3317.736 5008.833 6513.733 6451.862 3802.344 7022.887 1439.611 2732.133 2559.602 2324.688 7795.544 7170.249 6337.996 518.027 2158.788 2213.293 1231.033 3707.831 1993.127 1960.612 5453.226 2515.475 1663.625 2709.258 3709.170 0.000 3774.182 1145.877 2992.316 2769.087 1833.174 3445.893 4088.090 4250.783 2434.758 2407.788 3261.307 2615.244 882.214 2730.290 2477.825 4025.452 1798.751 3464.774 7771.265 1543.595 4282.585 2185.847 4820.088 2050.126 592.740 1935.027 2379.198 420.963 1165.551 4882.600 2857.084 3938.302 2403.188 6649.691 5484.917 2904.874 1095.734 1613.144 4068.696 1622.399 3239.402 4736.345 8198.946 5764.730 2361.379 3251.928 6987.828 4833.132 8012.539 2608.263 1896.113 6221.976 1478.743 3322.267 3149.637 4394.307 1027.952 6400.515 4311.086 9551.241 4888.106
4352.345 5873.335 3331.432 4993.587 7893.750 4687.849 3226.508 4169.159 5055.535 3346.713 8227.040 10922.946 3971.579 3360.389 4746.761 8700.715 10216.351 7902.123 4648.946 8233.010 4594.766 3717.291 1295.086 3638.677 11348.276 8726.584 8732.942 3294.424 5160.307 5817.532 3633.153 4603.425 2434.237 3671.972 8031.581 1261.423 2821.158 5010.844 6925.503 3774.182 0.000 3471.911 6631.433 5847.131 2047.467 3672.192 7855.127 1495.648 5996.275 6038.130 6318.725 1514.991 4044.525 4660.437 5249.955 7543.930 2802.692 4064.288 5756.468 4901.752 4743.392 4160.922 8576.977 3688.371 3444.802 2661.820 6049.743 4135.056 3377.308 1679.015 4639.177 5717.269 6084.987 8821.346 8273.485 5765.494 2937.601 3670.845 7616.838 2187.466 3446.656 8475.054 7423.143 9312.292 1424.103 4451.596 6708.925 3273.572 9404.763 3647.181 4916.118 9952.707 3192.936 548.074 6794.306 8164.732 4019.172 4735.054 5401.466 13129.927 8499.021
919.524 3493.063 142.412 1523.352 6824.083 2191.605 1032.805 805.030 3095.864 4416.796 5009.065 8331.421 621.568 3956.315 2252.821 5808.763 7274.415 7559.303 2679.302 8113.037 1126.142 3618.899 2507.417 1180.913 8679.388 8291.879 5688.205 865.429 1714.708 2411.636 184.479 2586.186 1168.680 2914.614 4865.165 2334.109 742.730 3831.241 4793.296 1145.877 3471.911 0.000 3219.162 3896.989 1992.087 2306.979 4747.266 3546.950 3434.506 2639.081 4382.703 2039.804 666.748 1746.179 1881.747 4077.465 2454.256 2319.993 6715.197 1451.689 3144.474 1151.216 5501.970 3000.063 1520.843 2532.672 3296.092 1514.808 94.769 4224.117 1839.978 2995.324 3306.260 5920.743 5002.288 4047.757 612.204 502.697 4155.085 1385.430 2110.007 5123.865 7053.423 6677.594 2235.576 4236.012 5845.068 3810.636 9126.988 3491.149 3041.390 6941.763 403.780 2944.393 3381.578 4912.695 577.652 5328.963 3236.204 10402.518 5048.199
2302.051 4335.228 3349.195 1839.867 8075.076 3755.022 3496.677 2752.356 3356.088 6516.147 3496.139 5934.044 2905.301 5941.092 3768.831 3275.635 4505.649 7796.904 4464.789 8463.487 2120.658 5300.761 5505.974 3735.328 6159.850 8319.925 4467.085 3385.700 1876.042 814.253 3091.757 4384.079 4381.016 4530.988 3553.607 5411.396 3951.992 4470.763 3776.184 2992.316 6631.433 3219.162 0.000 3595.609 4811.906 4792.939 2015.090 6744.109 2509.837 594.507 3830.870 5254.825 2594.168 3159.906 2118.523 1102.310 4710.297 4528.463 9312.473 1772.333 5009.970 3142.534 2703.862 4610.801 3521.101 4865.434 2120.731 2776.878 3311.926 7428.527 3326.015 3623.104 2070.646 4965.560 3314.020 3958.232 3697.064 3221.327 1110.814 4449.851 4728.504 1928.639 8831.425 4405.965 5276.242 5536.250 7453.126 6652.464 9187.257 5199.444 3453.318 4103.521 3579.152 6126.068 163.056 1868.207 2643.993 7924.783 4488.851 7727.139 1896.239
3471.958 6949.003 3913.510 3886.981 10580.119 5836.197 3135.551 4219.330 843.814 3960.200 7038.103 5120.985 4193.695 3416.531 5884.757 3308.899 4739.353 4219.916 6457.225 4877.793 3669.417 2686.716 4561.072 5053.096 5574.240 4798.789 7980.925 3214.219 4185.683 3308.346 3948.515 6361.440 4699.871 2268.169 7053.282 4676.763 4416.377 1235.869 1079.675 2769.087 5847.131 3896.989 3595.609 0.000 3845.578 6203.819 3093.399 6733.136 1096.855 3319.789 500.288 5118.631 3427.048 5229.844 4579.313 4619.199 3060.106 6187.149 10514.848 3493.694 6970.794 4788.226 3549.030 2287.022 2662.689 3215.530 1484.355 2382.210 3927.655 7284.512 5385.882 6283.374 1538.610 8428.964 6880.304 380.448 3819.423 4320.974 4576.247 4082.078 6004.399 4339.953 10931.612 3581.099 4502.968 2475.610 9680.354 7566.747 5669.030 2657.153 955.525 4602.412 4247.242 5547.372 3669.256 3729.328 3596.772 9156.101 6857.782 7357.450 5024.307
2677.058 5266.187 1860.767 3412.984 8148.209 3942.665 1315.596 2796.786 3031.777 2581.702 6999.666 8884.894 2608.766 2239.637 4007.463 6658.719 8174.574 6505.365 4219.156 6953.949 2975.712 2198.864 760.288 2774.509 9305.443 7305.827 7674.600 1438.888 3656.585 4015.986 2176.515 4141.039 1606.859 1832.235 6857.224 831.195 1704.389 3155.074 4916.468 1833.174 2047.467 1992.087 4811.906 3845.578 0.000 3464.307 5851.027 2933.239 3949.045 4221.180 4330.573 1441.268 2355.107 3644.931 3865.462 5814.346 959.732 3698.975 7011.743 3209.646 4540.923 3048.482 6559.720 1878.385 1415.499 900.524 4011.302 2143.295 1914.792 3446.147 3698.573 4876.841 4048.411 7887.994 6987.085 3804.618 1382.682 2402.588 5867.530 729.134 3206.794 6566.769 8053.337 7267.959 657.398 2951.413 7042.898 4123.718 8071.519 2087.026 2898.709 7918.646 1927.809 1702.469 4971.351 6204.759 2395.723 5755.492 4907.802 11085.746 6707.496
2910.602 2236.995 2299.438 2993.992 4694.194 1309.159 3198.601 2180.538 5400.302 6027.170 4961.020 10442.578 2116.342 5703.006 1344.113 7831.748 9217.986 9743.074 995.769 10258.599 2879.300 5571.910 3488.769 1182.897 10750.272 10503.178 5269.408 3069.244 2916.927 4117.871 2263.907 968.917 1863.343 4990.080 4715.585 3192.404 1918.778 6070.762 7081.891 3445.893 3672.192 2306.979 4792.939 6203.819 3464.307 0.000 6657.361 2772.178 5684.753 4327.667 6688.264 2355.409 2835.130 1699.967 2722.659 5281.506 4299.365 435.291 4558.060 3218.026 1109.327 1672.398 7403.566 5065.507 3720.871 4305.790 5497.403 3821.619 2280.429 3395.241 1564.338 2252.818 5497.951 5264.303 5079.406 6350.749 2512.500 1908.721 5398.434 2755.892 258.541 6684.161 4766.415 8804.247 3226.897 6277.737 3625.229 1905.398 11318.842 5448.687 5340.529 8842.977 1976.622 3175.276 4934.821 6652.588 2674.661 3159.391 1741.365 12416.870 6295.367
3870.773 6349.965 4850.850 3666.428 10084.507 5720.956 4635.467 4505.536 3357.649 6863.394 5121.536 3918.959 4615.994 6286.168 5740.551 1263.280 2561.339 6840.355 6433.457 7523.525 3809.257 5561.817 6606.081 5526.414 4152.983 7203.806 6101.750 4588.849 3789.678 2545.333 4670.713 6348.768 5895.030 4922.182 5253.013 6593.767 5482.157 4288.293 2667.592 4088.090 7855.127 4747.266 2015.090 3093.399 5851.027 6657.361 0.000 8262.762 2176.659 2347.763 3051.536 6662.474 4080.671 5103.660 4086.566 2395.165 5426.902 6438.949 11212.531 3455.395 6983.760 4984.984 755.927 4978.519 4436.422 5597.042 1935.146 3720.552 4828.475 8921.900 5274.507 5638.185 1884.254 6657.335 4885.747 3461.470 5069.647 4902.417 2281.764 5707.323 6557.740 1347.171 10842.403 2420.167 6433.672 5519.776 9466.435 8447.833 8037.983 5495.781 3506.076 2201.104 5146.287 7410.353 1929.882 690.597 4190.591 9815.462 6498.229 5765.089 2260.862
4462.806 4995.371 3429.570 4945.768 6519.449 4006.245 3735.044 4034.529 5898.145 4787.153 7679.241 11650.976 3859.857 4726.897 4054.292 9252.434 10748.706 9250.263 3759.034 9621.591 4623.614 4967.785 2351.558 3209.107 12040.945 10069.507 8037.926 3732.761 5025.375 5947.547 3657.477 3739.697 2379.357 4750.753 7448.188 2134.965 2804.403 6085.498 7784.791 4250.783 1495.648 3546.950 6744.109 6733.136 2933.239 2772.178 8262.762 0.000 6659.889 6175.702 7227.324 1642.099 4206.858 4178.469 5001.044 7506.724 3860.151 3205.674 4287.520 4973.248 3703.009 3821.521 9012.243 4788.048 4114.648 3757.059 6629.621 4663.072 3458.785 690.149 4104.025 5006.860 6653.971 8034.218 7772.867 6722.651 3199.357 3538.539 7601.021 2678.466 2612.938 8662.898 5957.358 10005.383 2297.913 5726.365 5327.681 1835.205 10781.216 4878.177 5777.743 10439.069 3168.573 1368.217 6904.719 8458.224 4123.113 3239.864 4484.425 13801.085 8510.273
2801.830 6131.530 3488.643 3052.946 9837.491 5122.864 2926.503 3563.732 1181.852 4688.298 5978.392 4991.125 3584.118 4112.738 5164.398 2730.007 4241.456 5288.049 5788.457 5953.688 2927.002 3386.174 4706.405 4503.551 5386.003 5828.865 6932.616 2946.034 3324.448 2303.542 3437.192 5693.629 4424.662 2770.276 6007.419 4754.212 4072.788 2158.107 1462.352 2434.758 5996.275 3434.506 2509.837 1096.855 3949.045 5684.753 2176.659 6659.889 0.000 2282.059 1337.386 5017.807 2850.070 4492.551 3714.807 3522.584 3366.053 5598.872 10149.620 2680.651 6325.139 4132.443 2763.313 2820.687 2572.824 3535.604 389.644 2014.039 3488.179 7269.437 4658.735 5439.823 442.357 7398.153 5811.286 1471.421 3528.927 3776.971 3479.464 3987.557 5515.425 3323.970 10308.425 3347.410 4583.447 3366.222 9008.084 7234.158 6698.567 3322.549 1331.969 4016.663 3824.854 5615.196 2577.233 2749.994 3010.242 8762.897 6101.299 7156.489 3948.995
1719.751 4109.743 2766.579 1335.740 7867.021 3377.855 2905.610 2222.871 2963.155 5987.468 3721.376 6228.016 2362.214 5417.565 3399.739 3571.435 4899.109 7539.522 4090.025 8194.628 1561.303 4798.371 4912.152 3228.549 6490.503 8105.192 4661.253 2792.422 1442.039 228.164 2518.575 4004.199 3805.068 4018.061 3733.835 4816.906 3376.407 4076.825 3664.288 2407.788 6038.130 2639.081 594.507 3319.789 4221.180 4327.667 2347.763 6175.702 2282.059 0.000 3618.891 4669.740 2005.120 2756.637 1753.096 1632.432 4147.367 4094.513 8874.543 1205.147 4641.474 2658.660 3083.003 4100.537 2948.205 4299.444 1910.405 2213.715 2730.920 6857.679 2927.915 3394.217 1870.607 5117.311 3573.669 3662.172 3105.332 2672.089 1665.219 3855.677 4243.649 2487.221 8537.403 4643.505 4681.794 5082.621 7174.465 6156.431 8975.489 4692.359 3042.943 4517.038 3007.327 5534.468 756.807 2340.129 2062.002 7479.847 4199.763 8111.527 2486.530
3922.719 7371.316 4403.029 4295.706 11028.009 6286.025 3635.140 4677.003 1343.991 4275.544 7312.239 4697.897 4659.938 3755.311 6332.997 3074.228 4440.582 3973.393 6918.080 4646.340 4104.358 3039.137 5037.735 5531.481 5163.287 4493.424 8268.960 3712.054 4585.924 3633.181 4428.655 6822.331 5199.395 2700.522 7344.257 5161.331 4912.940 1528.884 651.367 3261.307 6318.725 4382.703 3830.870 500.288 4330.573 6688.264 3051.536 7227.324 1337.386 3618.891 0.000 5616.117 3895.015 5672.305 4979.696 4804.087 3522.058 6662.047 11013.658 3907.182 7436.981 5247.915 3411.481 2710.132 3162.894 3673.110 1718.214 2868.572 4415.836 7773.378 5831.312 6695.546 1764.596 8735.493 7141.085 595.555 4317.530 4798.060 4748.390 4580.599 6491.954 4356.161 11405.155 3206.804 4987.793 2723.457 10143.961 8065.964 5362.616 3024.928 1452.290 4342.837 4737.919 6030.548 3886.689 3720.194 4064.147 9653.374 7298.428 6941.085 5115.575
2952.879 4459.396 1906.522 3537.599 6908.441 3219.063 2093.758 2679.300 4278.406 3795.259 6713.853 10008.880 2484.674 3567.781 3280.293 7623.021 9124.800 7941.006 3272.453 8377.104 3162.460 3626.399 1172.385 2131.727 10399.678 8744.278 7236.823 2097.966 3680.148 4443.626 2183.459 3214.099 928.050 3261.363 6521.308 870.284 1336.548 4559.205 6159.179 2615.244 1514.991 2039.804 5254.825 5118.631 1441.268 2355.409 6662.474 1642.099 5017.807 4669.740 5616.117 0.000 2666.751 3150.595 3747.167 6109.081 2400.679 2695.507 5572.116 3491.310 3463.997 2646.015 7406.663 3312.535 2478.851 2336.460 4991.754 3024.265 1945.843 2268.168 3136.473 4242.003 5017.250 7346.812 6758.604 5130.947 1596.555 2175.009 6190.253 1041.353 2105.032 7145.921 6691.121 8363.591 953.116 4384.533 5763.674 2687.741 9503.642 3518.854 4163.850 8824.098 1716.153 966.917 5417.604 6896.095 2611.299 4317.081 4017.539 12161.564 7086.675
322.503 3652.250 777.310 1066.554 7171.687 2438.940 1113.945 817.187 2675.701 4558.459 4734.148 7691.380 766.950 4048.217 2492.412 5150.510 6610.694 7290.219 3033.058 7874.183 626.805 3602.235 2977.290 1655.912 8031.378 7991.110 5493.438 950.124 1338.204 1780.479 606.759 2937.330 1827.648 2838.838 4624.161 2848.227 1406.208 3544.901 4254.031 882.214 4044.525 666.748 2594.168 3427.048 2355.107 2835.130 4080.671 4206.858 2850.070 2005.120 3895.015 2666.751 0.000 1874.107 1620.584 3510.290 2580.322 2771.264 7322.719 867.813 3543.763 1370.491 4835.526 2928.161 1438.573 2694.324 2678.122 1105.462 750.183 4880.420 2012.010 3062.119 2683.540 5786.510 4693.203 3622.507 1106.955 926.902 3577.504 1879.557 2666.831 4479.607 7510.961 6039.598 2726.379 4134.137 6253.498 4444.218 8841.362 3476.989 2648.901 6275.921 1066.460 3533.321 2757.215 4251.406 169.933 5929.291 3482.830 9747.199 4454.649
1762.049 1781.356 1845.079 1490.164 5356.692 638.176 2767.329 1060.305 4523.953 6149.123 3569.615 8973.171 1168.342 5700.076 673.989 6323.781 7646.782 9164.323 1340.843 9746.787 1571.318 5358.039 4004.497 1022.770 9245.550 9862.539 4101.211 2594.025 1315.061 2569.075 1584.233 1251.956 2271.549 4634.265 3371.206 3763.605 1983.225 5418.931 5949.896 2730.290 4660.437 1746.179 3159.906 5229.844 3644.931 1699.967 5103.660 4178.469 4492.551 2756.637 5672.305 3150.595 1874.107 0.000 1046.225 3582.698 4198.205 1380.160 6155.154 1822.385 1893.190 601.562 5832.443 4721.596 3220.662 4270.543 4229.891 2977.942 1795.060 4855.106 172.867 1249.822 4216.889 4260.895 3630.276 5457.785 2295.707 1262.886 3700.846 2948.075 1706.444 5013.345 5847.299 7366.146 3717.062 5951.290 4521.873 3604.888 10714.400 5230.419 4509.086 7254.745 1717.187 4113.754 3291.657 5028.070 1712.112 4772.498 1628.027 10864.147 4595.703
1354.738 2423.679 2019.985 699.838 6164.158 1638.410 2719.941 1095.785 3972.348 6176.369 3138.411 7980.684 1294.654 5668.800 1655.173 5322.388 6616.478 8681.296 2350.038 9296.999 1045.031 5209.958 4381.528 1804.206 8237.487 9332.570 3873.294 2548.506 393.918 1588.115 1698.435 2267.605 2819.488 4435.154 3012.387 4190.305 2431.533 4980.400 5174.112 2477.825 5249.955 1881.747 2118.523 4579.313 3865.462 2722.659 4086.566 5001.044 3714.807 1753.096 4979.696 3747.167 1620.584 1046.225 0.000 2573.442 4195.956 2424.634 7201.004 1096.175 2898.528 1182.855 4805.514 4524.750 3054.181 4303.861 3406.959 2584.600 1966.645 5689.608 1209.185 1725.256 3384.563 4171.873 3121.933 4854.730 2493.329 1580.485 2685.257 3262.128 2695.248 3969.143 6786.733 6394.019 4104.445 5704.752 5429.280 4617.820 10197.130 5086.018 3990.364 6219.548 2070.083 4705.446 2247.269 3985.613 1518.511 5818.673 2458.093 9836.660 3590.593
3195.355 4336.119 4216.004 2575.338 7943.469 4088.589 4502.515 3473.807 4441.807 7610.946 2728.289 6148.954 3654.371 7037.716 4085.045 3595.323 4536.053 8776.233 4761.056 9450.379 2951.430 6402.079 6478.840 4358.647 6289.981 9257.491 3710.547 4376.037 2483.634 1813.018 3926.193 4694.384 5200.572 5630.162 2858.867 6358.434 4776.920 5552.585 4659.877 4025.452 7543.930 4077.465 1102.310 4619.199 5814.346 5281.506 2395.165 7506.724 3522.584 1632.432 4804.087 6109.081 3510.290 3582.698 2573.442 0.000 5779.293 4951.919 9664.954 2644.881 5273.723 3737.223 2889.607 5710.594 4577.029 5930.535 3135.049 3846.075 4172.220 8196.699 3727.420 3671.888 3080.589 4262.377 2498.641 4990.973 4612.937 3975.498 137.011 5389.825 5266.797 1600.735 8863.592 4779.396 6234.360 6635.056 7472.262 7184.127 10118.365 6300.037 4544.319 4099.538 4396.661 7021.104 981.906 1924.572 3525.056 8308.307 4607.903 7702.193 1017.205
2874.999 5916.335 2353.687 3627.476 8993.064 4593.769 1478.303 3222.588 2305.437 1981.343 7312.950 8169.081 3061.691 1502.087 4657.535 6094.121 7600.785 5555.282 4964.611 6018.101 3194.685 1276.366 1546.302 3459.164 8610.174 6351.812 8068.119 1652.440 3915.189 3971.027 2624.654 4879.778 2443.726 892.050 7204.281 1726.014 2422.809 2234.824 4139.672 1798.751 2802.692 2454.256 4710.297 3060.106 959.732 4299.365 5426.902 3860.151 3366.053 4147.367 3522.058 2400.679 2580.322 4198.205 4195.956 5779.293 0.000 4484.769 7971.439 3338.214 5337.901 3598.975 6091.069 928.168 1213.665 170.434 3508.679 1934.343 2403.227 4331.442 4282.855 5448.018 3554.648 8340.314 7265.034 2963.221 1925.800 2938.004 5811.021 1560.493 4046.774 6304.014 8965.120 6588.234 1562.462 2010.475 7913.349 5079.359 7124.956 1156.342 2157.183 7382.657 2535.201 2563.313 4859.946 5865.910 2678.210 6712.047 5608.597 10395.099 6587.041
2798.756 1818.046 2339.143 2776.383 4535.936 905.238 3282.586 2041.774 5405.275 6278.192 4530.998 10267.804 2016.482 5925.026 932.376 7636.682 8993.622 9848.616 584.727 10382.411 2721.290 5745.441 3794.827 1140.278 10559.899 10594.629 4834.395 3138.346 2660.209 3893.654 2243.665 543.647 2094.351 5124.497 4283.477 3504.794 2065.074 6141.160 7022.141 3464.774 4064.288 2319.993 4528.463 6187.149 3698.975 435.291 6438.949 3205.674 5598.872 4094.513 6662.047 2695.507 2771.264 1380.160 2424.634 4951.919 4484.769 0.000 4784.914 3040.707 854.098 1488.272 7177.514 5203.596 3800.657 4506.264 5385.949 3815.095 2311.001 3830.532 1226.263 1818.970 5381.991 4834.174 4653.491 6358.055 2623.828 1866.851 5072.622 2975.341 619.668 6393.258 4744.541 8640.738 3523.363 6430.282 3526.500 2273.464 11421.459 5620.125 5357.275 8609.097 2042.755 3555.263 4664.139 6395.683 2603.987 3396.555 1337.249 12204.028 5960.363
7441.471 5571.275 6663.766 7546.305 4124.265 5588.679 7380.353 6732.995 9676.112 9074.616 8543.937 14991.571 6652.296 8995.682 5586.495 12389.327 13771.609 13483.939 4904.047 13883.665 7433.637 9170.087 6568.799 5717.446 15306.140 14295.547 8393.778 7302.418 7444.733 8669.157 6721.572 4972.425 5816.772 8831.523 8252.477 6309.709 6108.032 10108.474 11480.360 7771.265 5756.468 6715.197 9312.473 10514.848 7011.743 4558.060 11212.531 4287.520 10149.620 8874.543 11013.658 5572.116 7322.719 6155.154 7201.004 9664.954 7971.439 4784.914 0.000 7775.463 4398.525 6228.898 11955.950 8884.183 7869.427 7899.177 10000.291 8182.947 6662.201 4156.363 5992.331 6092.997 10006.256 8087.415 8754.858 10591.384 6696.701 6407.522 9792.329 6525.776 4678.523 11158.682 2779.972 13347.344 6450.206 9932.351 3284.879 2949.770 15032.280 9069.350 9585.829 13391.368 6326.367 5643.260 9446.383 11180.220 7174.114 1399.351 5157.394 16974.370 10650.303
550.476 3464.891 1585.381 396.521 7156.855 2458.851 1927.018 1050.189 2876.375 5289.559 4016.180 7230.341 1168.422 4752.493 2496.372 4613.872 6015.605 7585.938 3145.769 8203.784 359.198 4232.755 3844.577 2071.462 7532.539 8236.650 4840.663 1779.447 709.858 977.349 1319.538 3052.949 2609.069 3444.716 3939.172 3715.060 2180.060 3895.035 4142.282 1543.595 4901.752 1451.689 1772.333 3493.694 3209.646 3218.026 3455.395 4973.248 2680.651 1205.147 3907.182 3491.310 867.813 1822.385 1096.175 2644.881 3338.214 3040.707 7775.463 0.000 3693.272 1555.694 4208.070 3533.686 2136.114 3468.362 2407.955 1550.915 1545.480 5656.781 1992.058 2790.277 2394.521 5190.676 3946.023 3761.593 1968.085 1471.177 2715.216 2746.347 3105.819 3690.637 7665.827 5600.138 3594.161 4674.296 6344.219 4993.604 9101.014 4112.883 2896.477 5653.212 1806.850 4383.609 1933.916 3529.246 884.011 6376.314 3420.823 9203.049 3600.617
3529.798 1394.600 3174.049 3380.137 3687.598 1263.639 4126.578 2767.522 6206.323 7115.629 4381.677 10864.707 2777.431 6772.362 1243.408 8212.298 9513.606 10691.894 552.446 11230.457 3405.513 6599.480 4596.559 1966.019 11131.864 11432.853 4512.459 3978.477 3204.149 4459.345 3052.810 642.047 2934.091 5976.375 4108.168 4300.980 2919.132 6974.625 7767.314 4282.585 4743.392 3144.474 5009.970 6970.794 4540.923 1109.327 6983.760 3703.009 6325.139 4641.474 7436.981 3463.997 3543.763 1893.190 2898.528 5273.723 5337.901 854.098 4398.525 3693.272 0.000 2195.772 7703.889 6055.910 4641.986 5357.486 6086.702 4616.379 3142.793 4260.273 1720.353 1731.063 6077.759 4413.744 4548.377 7157.830 3475.158 2671.185 5402.886 3820.918 1363.943 6794.866 3983.286 9259.331 4332.434 7283.697 2710.998 2366.052 12263.283 6474.197 6165.691 9113.485 2887.787 4262.526 5130.903 6870.008 3374.102 3073.585 878.697 12734.439 6252.943
1334.043 2347.147 1245.291 1323.217 5801.304 1075.364 2179.638 572.018 4046.136 5547.621 4077.682 8785.974 613.391 5100.471 1131.971 6164.371 7545.601 8636.894 1670.176 9208.248 1233.176 4769.164 3433.345 622.672 9085.446 9349.101 4662.856 2008.284 1279.200 2446.629 997.092 1574.438 1736.537 4055.554 3897.823 3203.204 1410.465 4892.191 5571.646 2185.847 4160.922 1151.216 3142.534 4788.226 3048.482 1672.398 4984.984 3821.521 4132.443 2658.660 5247.915 2646.015 1370.491 601.562 1182.855 3737.223 3598.975 1488.272 6228.898 1555.694 2195.772 0.000 5731.349 4142.081 2647.242 3669.693 3905.571 2470.192 1195.992 4509.164 689.279 1850.179 3899.791 4845.510 4114.112 4991.977 1694.233 661.743 3843.061 2359.336 1587.334 5055.149 6177.790 7155.094 3146.770 5375.501 4896.641 3509.976 10195.042 4641.438 4018.422 7171.489 1121.508 3612.875 3289.852 4991.238 1201.295 4830.958 2125.410 10745.472 4753.172
4626.696 7018.783 5604.599 4410.244 10731.185 6443.366 5365.922 5257.898 3936.196 7432.365 5565.830 3275.305 5370.392 6862.658 6460.650 755.037 1816.114 6976.861 7155.434 7655.563 4562.884 6131.097 7317.699 6278.157 3464.472 7259.757 6531.231 5325.551 4521.742 3286.839 5426.427 7072.260 6647.415 5533.556 5725.661 7315.797 6235.833 4777.991 2917.285 4820.088 8576.977 5501.970 2703.862 3549.030 6559.720 7403.566 755.927 9012.243 2763.313 3083.003 3411.481 7406.663 4835.526 5832.443 4805.514 2889.607 6091.069 7177.514 11955.950 4208.070 7703.889 5731.349 0.000 5583.733 5144.340 6261.503 2582.466 4443.053 5582.734 9668.884 6002.212 6312.371 2537.312 7104.810 5314.308 3894.636 5816.373 5657.873 2761.892 6441.892 7307.653 1485.659 11531.214 1922.386 7153.536 6019.310 10149.627 9201.402 8065.274 6074.549 4089.228 1445.785 5901.431 8140.763 2599.457 965.987 4946.290 10559.972 7191.160 5031.921 2496.991
3170.228 6489.159 2930.987 3881.344 9738.049 5191.342 1967.633 3682.655 1655.313 1925.786 7547.362 7402.632 3553.811 1343.125 5252.773 5490.411 6970.686 4695.914 5639.504 5194.099 3481.610 704.301 2463.018 4116.459 7860.092 5477.893 8369.299 2135.391 4192.731 3961.830 3145.098 5549.889 3249.880 89.596 7472.494 2653.429 3149.802 1322.686 3350.395 2050.126 3688.371 3000.063 4610.801 2287.022 1878.385 5065.507 4978.519 4788.048 2820.687 4100.537 2710.132 3312.535 2928.161 4721.596 4524.750 5710.594 928.168 5203.596 8884.183 3533.686 6055.910 4142.081 5583.733 0.000 1503.741 1039.031 3047.367 1988.008 2972.761 5250.985 4830.347 5955.984 3100.702 8695.113 7466.471 2126.440 2581.164 3502.631 5720.565 2404.373 4820.844 5998.636 9789.300 5865.685 2490.574 1236.726 8690.706 5975.985 6271.490 592.496 1500.420 6791.140 3178.910 3482.136 4745.050 5493.822 3063.253 7609.233 6232.940 9642.269 6416.332
1705.320 4993.408 1471.165 2445.836 8328.804 3707.595 522.275 2178.914 1818.903 3154.102 6136.462 7551.707 2052.330 2624.442 3767.811 5257.192 6772.433 6049.961 4194.194 6595.440 2024.046 2165.342 2173.609 2678.538 7955.968 6794.221 6921.805 663.746 2745.418 2765.165 1653.245 4102.025 2055.751 1415.562 6041.170 2190.254 1826.137 2349.891 3684.825 592.740 3444.802 1520.843 3521.101 2662.689 1415.499 3720.871 4436.422 4114.648 2572.824 2948.205 3162.894 2478.851 1438.573 3220.662 3054.181 4577.029 1213.665 3800.657 7869.427 2136.114 4641.986 2647.242 5144.340 1503.741 0.000 1357.064 2605.244 756.276 1506.699 4705.928 3333.339 4452.426 2640.189 7224.089 6077.346 2722.020 1217.469 2021.568 4613.421 1437.630 3493.080 5192.771 8486.271 5916.307 2022.379 2730.635 7322.431 4919.710 7621.493 2039.545 1719.069 6508.660 1758.613 3044.456 3674.393 4804.571 1565.094 6526.297 4755.103 9728.904 5409.838
2994.553 5973.039 2425.989 3748.666 8999.597 4647.943 1584.087 3312.441 2469.150 1885.564 7428.447 8328.569 3146.316 1437.817 4712.073 6263.217 7769.306 5605.722 4997.680 6054.080 3313.413 1299.496 1424.039 3502.647 8771.419 6407.842 8172.908 1755.566 4031.849 4120.349 2706.901 4914.399 2443.820 1013.754 7315.034 1622.811 2452.741 2358.153 4294.596 1935.027 2661.820 2532.672 4865.434 3215.530 900.524 4305.790 5597.042 3757.059 3535.604 4299.444 3673.110 2336.460 2694.324 4270.543 4303.861 5930.535 170.434 4506.264 7899.177 3468.362 5357.486 3669.693 6261.503 1039.031 1357.064 0.000 3679.113 2088.566 2476.804 4211.997 4349.653 5519.871 3725.072 8436.197 7385.127 3109.253 1983.689 3007.950 5964.005 1552.727 4051.159 6469.898 8943.064 6751.374 1465.000 2050.941 7909.898 5022.453 7171.132 1186.583 2319.962 7552.258 2588.895 2443.183 5015.995 6034.380 2785.389 6653.256 5653.545 10556.359 6745.263
2590.694 5829.991 3364.122 2764.838 9554.767 4865.191 2900.984 3344.214 1461.952 4946.893 5594.172 5049.584 3383.235 4366.414 4903.769 2652.518 4167.311 5676.466 5543.978 6342.783 2681.283 3649.855 4771.589 4314.643 5419.201 6211.606 6551.107 2897.160 3021.418 1946.621 3279.016 5450.018 4341.877 2989.122 5626.952 4795.043 3969.332 2500.903 1777.507 2379.198 6049.743 3296.092 2120.731 1484.355 4011.302 5497.403 1935.146 6629.621 389.644 1910.405 1718.214 4991.754 2678.122 4229.891 3406.959 3135.049 3508.679 5385.949 10000.291 2407.955 6086.702 3905.571 2582.466 3047.367 2605.244 3679.113 0.000 1967.553 3357.859 7256.331 4398.818 5130.951 58.364 7021.399 5424.840 1856.374 3456.008 3599.646 3093.829 3978.630 5340.639 3002.518 10066.963 3395.242 4627.603 3685.498 8751.675 7106.725 7080.825 3577.202 1601.329 3908.031 3694.984 5643.308 2187.612 2457.175 2830.159 8607.397 5822.487 7172.063 3584.942
1258.126 4752.647 1535.992 1913.406 8266.604 3542.504 935.058 1922.649 1590.784 3803.506 5559.926 6997.372 1858.942 3246.889 3596.682 4607.305 6116.144 6187.608 4119.761 6776.914 1544.374 2690.409 2890.996 2676.785 7379.613 6885.700 6391.533 933.927 2230.238 2042.420 1571.615 4024.384 2413.727 1899.683 5489.111 2873.635 2078.098 2444.519 3298.448 420.963 4135.056 1514.808 2776.878 2382.210 2143.295 3821.619 3720.552 4663.072 2014.039 2213.715 2868.572 3024.265 1105.462 2977.942 2584.600 3846.075 1934.343 3815.095 8182.947 1550.915 4616.379 2470.192 4443.053 1988.008 756.276 2088.566 1967.553 0.000 1547.488 5289.077 3117.395 4146.020 1993.796 6734.979 5478.761 2543.344 1516.528 1949.189 3876.711 2015.504 3623.394 4438.472 8558.144 5347.148 2713.122 3127.028 7326.818 5248.295 7736.516 2573.019 1551.254 5832.555 1872.479 3700.535 2927.834 4061.674 1271.695 6808.606 4587.928 9138.022 4659.874
1011.169 3529.095 54.035 1617.536 6826.595 2220.086 1006.170 883.009 3119.907 4358.753 5089.734 8397.764 694.106 3905.021 2282.109 5882.919 7351.878 7553.203 2687.585 8102.071 1220.873 3582.222 2418.690 1176.774 8748.631 8290.278 5761.554 844.904 1806.158 2503.646 268.870 2595.333 1079.638 2888.184 4943.173 2242.407 656.081 3832.155 4835.897 1165.551 3377.308 94.769 3311.926 3927.655 1914.792 2280.429 4828.475 3458.785 3488.179 2730.920 4415.836 1945.843 750.183 1795.060 1966.645 4172.220 2403.227 2311.001 6662.201 1545.480 3142.793 1195.992 5582.734 2972.761 1506.699 2476.804 3357.859 1547.488 0.000 4134.770 1882.114 3044.879 3369.255 5988.105 5085.573 4070.414 532.238 536.920 4249.760 1297.131 2076.753 5214.914 7035.616 6743.511 2145.601 4209.427 5837.488 3750.209 9122.663 3454.478 3061.108 7021.412 337.371 2849.631 3474.422 4999.836 668.940 5278.640 3260.215 10474.801 5142.634
5142.005 5591.442 4103.849 5634.514 6816.339 4657.621 4355.509 4724.140 6458.702 5020.615 8333.674 12256.611 4548.694 5035.959 4703.283 9891.029 11392.855 9578.282 4366.461 9911.957 5308.640 5357.227 2787.968 3894.840 12655.249 10402.226 8663.505 4365.803 5715.512 6629.590 4339.128 4354.615 3055.438 5222.153 8097.490 2619.823 3482.708 6566.223 8347.860 4882.600 1679.015 4224.117 7428.527 7284.512 3446.147 3395.241 8921.900 690.149 7269.437 6857.679 7773.378 2268.168 4880.420 4855.106 5689.608 8196.699 4331.442 3830.532 4156.363 5656.781 4260.273 4509.164 9668.884 5250.985 4705.928 4211.997 7256.331 5289.077 4134.770 0.000 4775.546 5644.341 7282.848 8637.340 8434.048 7250.677 3852.544 4227.264 8290.746 3282.450 3255.356 9344.791 6113.726 10616.818 2791.607 6103.816 5628.296 2155.516 11083.721 5278.228 6332.057 11090.228 3850.526 1768.872 7589.468 9130.996 4801.298 3298.101 5074.012 14421.832 9199.797
1914.936 1660.135 1930.328 1662.651 5196.706 466.909 2868.885 1194.972 4672.458 6222.513 3607.322 9145.692 1285.675 5783.241 505.676 6495.841 7816.129 9300.143 1167.989 9878.461 1734.535 5458.388 4028.421 1006.127 9417.365 10003.094 4101.302 2697.333 1486.816 2741.271 1685.946 1079.240 2278.485 4743.618 3398.579 3779.714 2016.645 5554.210 6114.872 2857.084 4639.177 1839.978 3326.015 5385.882 3698.573 1564.338 5274.507 4104.025 4658.735 2927.915 5831.312 3136.473 2012.010 172.867 1209.185 3727.420 4282.855 1226.263 5992.331 1992.058 1720.353 689.279 6002.212 4830.347 3333.339 4349.653 4398.818 3117.395 1882.114 4775.546 0.000 1178.479 4386.287 4237.085 3680.436 5609.371 2368.016 1345.537 3847.272 2991.824 1589.324 5171.524 5675.864 7538.993 3740.893 6062.936 4352.923 3469.263 10853.150 5330.657 4654.533 7423.076 1775.871 4094.449 3456.290 5193.896 1847.353 4612.247 1475.464 11034.063 4737.994
2892.547 716.048 3094.829 2399.844 4472.939 1030.089 4011.607 2274.255 5635.608 7396.844 2719.974 9557.144 2405.656 6949.898 972.829 6898.037 8087.586 10323.200 1348.276 10921.050 2638.770 6600.943 5188.796 2147.418 9776.024 10998.955 3039.181 3837.294 2115.694 3263.910 2830.821 1329.167 3426.260 5867.961 2466.594 4931.633 3189.521 6588.290 6899.367 3938.302 5717.269 2995.324 3623.104 6283.374 4876.841 2252.818 5638.185 5006.860 5439.823 3394.217 6695.546 4242.003 3062.119 1249.822 1725.256 3671.888 5448.018 1818.970 6092.997 2790.277 1731.063 1850.179 6312.371 5955.984 4452.426 5519.871 5130.951 4146.020 3044.879 5644.341 1178.479 0.000 5107.561 3105.645 2858.367 6543.493 3542.123 2511.921 3806.391 4167.885 2393.924 5247.682 5225.379 8014.209 4901.772 7180.142 3839.243 4004.011 11858.324 6473.486 5637.761 7668.410 2953.964 5180.822 3715.093 5414.622 2910.439 4796.621 945.741 11300.061 4609.668
2589.262 5808.096 3376.428 2747.536 9536.396 4852.901 2928.200 3340.276 1519.240 5001.947 5547.736 5033.431 3382.679 4421.233 4890.867 2619.834 4133.644 5726.258 5534.038 6393.315 2673.050 3705.434 4808.653 4315.491 5399.265 6257.908 6506.034 2921.210 3000.446 1912.115 3285.966 5440.278 4359.726 3041.916 5582.428 4829.204 3984.350 2559.258 1807.958 2403.188 6084.987 3306.260 2070.646 1538.610 4048.411 5497.951 1884.254 6653.971 442.357 1870.607 1764.596 5017.250 2683.540 4216.889 3384.563 3080.589 3554.648 5381.991 10006.256 2394.521 6077.759 3899.791 2537.312 3100.702 2640.189 3725.072 58.364 1993.796 3369.255 7282.848 4386.287 5107.561 0.000 6978.402 5377.024 1911.558 3476.001 3603.035 3038.531 4006.983 5343.409 2944.929 10056.770 3378.757 4662.243 3743.548 8738.740 7116.686 7126.863 3632.245 1658.071 3870.248 3706.127 5675.578 2135.552 2401.417 2833.941 8612.549 5805.537 7149.122 3526.826
5526.356 3046.459 6041.438 4821.775 4832.756 4133.723 6863.181 5125.980 7975.879 10320.127 1539.667 10289.986 5299.702 9828.236 4074.590 7835.502 8580.469 12642.267 4275.438 13288.332 5213.515 9381.814 8263.674 5236.435 10359.854 13221.822 597.097 6688.300 4506.215 5121.170 5740.340 4295.478 6514.390 8605.530 1417.042 8016.796 6244.093 9050.562 8736.976 6649.691 8821.346 5920.743 4965.560 8428.964 7887.994 5264.303 6657.335 8034.218 7398.153 5117.311 8735.493 7346.812 5786.510 4260.895 4171.873 4262.377 8340.314 4834.174 8087.415 5190.676 4413.744 4845.510 7104.810 8695.113 7224.089 8436.197 7021.399 6734.979 5988.105 8637.340 4237.085 3105.645 6978.402 0.000 1792.698 8759.319 6513.941 5485.434 4376.439 7204.786 5443.964 5669.943 6190.850 9019.916 7976.123 9861.999 4975.668 6764.401 14092.229 9257.886 8023.948 8137.330 5965.907 8286.122 4953.254 6144.797 5670.819 7055.387 3566.387 11557.327 4692.795
4390.728 3209.704 5139.227 3637.562 6130.169 3781.949 5807.106 4206.001 6525.013 9230.954 277.951 8499.632 4401.848 8698.142 3740.319 6048.221 6797.534 11096.943 4206.544 11757.970 4071.716 8169.166 7491.030 4649.765 8577.045 11632.853 1218.327 5641.292 3355.182 3627.705 4818.370 4186.143 5849.535 7378.334 547.369 7285.969 5498.947 7631.125 7080.400 5484.917 8273.485 5002.288 3314.020 6880.304 6987.085 5079.406 4885.747 7772.867 5811.286 3573.669 7141.085 6758.604 4693.203 3630.276 3121.933 2498.641 7265.034 4653.491 8754.858 3946.023 4548.377 4114.112 5314.308 7466.471 6077.346 7385.127 5424.840 5478.761 5085.573 8434.048 3680.436 2858.367 5377.024 1792.698 0.000 7230.607 5614.366 4660.619 2605.400 6376.652 5186.538 3877.665 7314.037 7231.752 7210.241 8560.361 5972.932 6861.817 12500.693 8051.383 6594.232 6354.012 5159.162 7725.441 3275.252 4356.507 4616.244 7543.568 3683.833 9814.093 2907.014
3695.737 7197.447 4051.708 4157.461 10792.797 6052.321 3219.297 4428.602 952.788 3688.193 7383.426 5290.940 4388.259 3162.518 6103.060 3616.452 5014.617 3882.960 6654.677 4533.204 3913.038 2444.192 4493.939 5218.902 5758.055 4488.185 8319.910 3315.443 4462.636 3639.152 4114.391 6559.022 4776.868 2121.641 7391.818 4632.110 4520.130 939.932 1246.791 2904.874 5765.494 4047.757 3958.232 380.448 3804.618 6350.749 3461.470 6722.651 1471.421 3662.172 595.555 5130.947 3622.507 5457.785 4854.730 4990.973 2963.221 6358.055 10591.384 3761.593 7157.830 4991.977 3894.636 2126.440 2722.020 3109.253 1856.374 2543.344 4070.414 7250.677 5609.371 6543.493 1911.558 8759.319 7230.607 0.000 3914.813 4492.533 4950.087 4106.241 6142.256 4717.386 11099.655 3800.434 4459.553 2157.888 9868.757 7641.708 5356.722 2429.373 1014.120 4899.796 4379.611 5496.733 4035.980 4103.454 3792.297 9246.205 7084.541 7534.844 5404.611
1417.646 3991.129 478.202 2099.255 7159.645 2667.970 699.421 1414.990 2984.172 3854.867 5620.954 8502.406 1226.086 3420.248 2731.753 6057.167 7549.973 7234.406 3063.957 7760.292 1678.181 3148.240 1907.006 1544.268 8875.059 7991.087 6292.669 605.725 2312.750 2882.811 796.469 2975.921 897.577 2501.259 5475.362 1752.480 609.125 3563.309 4791.990 1095.734 2937.601 612.204 3697.064 3819.423 1382.682 2512.500 5069.647 3199.357 3528.927 3105.332 4317.530 1596.555 1106.955 2295.707 2493.329 4612.937 1925.800 2623.828 6696.701 1968.085 3475.158 1694.233 5816.373 2581.164 1217.469 1983.689 3456.008 1516.528 532.238 3852.544 2368.016 3542.123 3476.001 6513.941 5614.366 3914.813 0.000 1035.258 4682.533 787.883 2279.736 5564.845 7273.683 6849.349 1641.916 3812.025 6128.422 3751.211 8809.416 3021.229 2901.963 7240.129 610.487 2429.143 3860.088 5300.908 1092.137 5337.272 3686.910 10622.993 5561.590
1042.402 2992.990 584.792 1407.257 6340.065 1688.909 1535.140 506.790 3539.920 4886.382 4646.738 8590.789 321.547 4439.163 1750.165 6019.800 7454.714 8051.417 2190.543 8609.601 1112.274 4118.063 2834.733 734.112 8919.340 8778.594 5280.006 1368.108 1511.204 2445.523 382.116 2096.446 1247.801 3417.260 4484.917 2625.432 851.048 4316.575 5175.530 1613.144 3670.845 502.697 3221.327 4320.974 2402.588 1908.721 4902.417 3538.539 3776.971 2672.089 4798.060 2175.009 926.902 1262.886 1580.485 3975.498 2938.004 1866.851 6407.522 1471.177 2671.185 661.743 5657.873 3502.631 2021.568 3007.950 3599.646 1949.189 536.920 4227.264 1345.537 2511.921 3603.035 5485.434 4660.619 4492.533 1035.258 0.000 4066.219 1733.818 1741.345 5148.847 6611.245 6942.686 2551.766 4738.676 5379.672 3556.986 9616.904 3990.308 3495.542 7103.498 498.779 3127.638 3379.666 5000.224 769.623 5011.539 2734.005 10618.920 4973.778
3265.198 4472.042 4292.681 2662.245 8080.304 4213.018 4553.647 3566.651 4423.325 7626.958 2839.800 6017.601 3744.769 7051.826 4210.353 3472.163 4400.622 8717.879 4888.283 9393.482 3029.133 6408.851 6539.357 4463.498 6155.932 9190.007 3820.246 4430.678 2582.534 1855.840 4006.794 4820.873 5285.545 5641.105 2977.212 6424.197 4860.536 5530.665 4587.854 4068.696 7616.838 4155.085 1110.814 4576.247 5867.530 5398.434 2281.764 7601.021 3479.464 1665.219 4748.390 6190.253 3577.504 3700.846 2685.257 137.011 5811.021 5072.622 9792.329 2715.216 5402.886 3843.061 2761.892 5720.565 4613.421 5964.005 3093.829 3876.711 4249.760 8290.746 3847.272 3806.391 3038.531 4376.439 2605.400 4950.087 4682.533 4066.219 0.000 5456.094 5380.133 1463.745 9000.041 4656.819 6297.817 6626.516 7608.715 7299.728 10049.227 6308.486 4529.319 3963.748 4480.575 7096.665 977.014 1796.164 3597.872 8433.696 4741.468 7565.350 911.318
2196.509 4541.195 1244.551 2887.138 7448.267 3219.812 1080.895 2170.814 3240.340 3310.038 6373.168 8976.881 1974.881 2951.654 3284.612 6622.765 8131.360 7094.820 3490.820 7572.566 2464.815 2836.544 1122.055 2050.172 9372.981 7881.475 7012.558 1119.564 3097.278 3637.219 1566.001 3412.285 892.557 2340.942 6216.885 968.724 982.023 3583.383 5118.569 1622.399 2187.466 1385.430 4449.851 4082.078 729.134 2755.892 5707.323 2678.466 3987.557 3855.677 4580.599 1041.353 1879.557 2948.075 3262.128 5389.825 1560.493 2975.341 6525.776 2746.347 3820.918 2359.336 6441.892 2404.373 1437.630 1552.727 3978.630 2015.504 1297.131 3282.450 2991.824 4167.885 4006.983 7204.786 6376.652 4106.241 787.883 1733.818 5456.094 0.000 2500.207 6287.942 7406.062 7334.930 854.041 3566.706 6357.508 3591.553 8668.541 2716.823 3128.611 7843.665 1241.437 1707.970 4612.434 5988.073 1877.556 5221.467 4178.917 11139.587 6327.393
2765.132 2437.244 2092.083 2908.023 4948.442 1404.840 2971.078 2057.961 5193.942 5768.671 5079.795 10313.080 1974.044 5445.828 1448.689 7716.229 9119.015 9503.442 1203.148 10014.788 2758.867 5320.419 3232.701 1039.087 10629.487 10266.756 5427.236 2846.861 2857.513 4028.981 2081.445 1162.748 1607.734 4746.264 4842.147 2937.060 1679.848 5842.157 6898.873 3239.402 3446.656 2110.007 4728.504 6004.399 3206.794 258.541 6557.740 2612.938 5515.425 4243.649 6491.954 2105.032 2666.831 1706.444 2695.248 5266.797 4046.774 619.668 4678.523 3105.819 1363.943 1587.334 7307.653 4820.844 3493.080 4051.159 5340.639 3623.394 2076.753 3255.356 1589.324 2393.924 5343.409 5443.964 5186.538 6142.256 2279.736 1741.345 5380.133 2500.207 0.000 6634.758 4993.992 8669.772 2969.699 6029.491 3871.848 1927.566 11079.529 5197.584 5130.036 8750.478 1762.734 2941.738 4874.365 6578.395 2510.952 3279.726 1955.332 12308.631 6283.333
4204.440 5924.633 5249.049 3766.382 9543.405 5570.846 5272.823 4680.734 4463.884 7919.547 4138.288 4625.198 4833.615 7336.476 5575.372 2240.406 2957.140 8186.651 6265.545 8869.860 4043.795 6633.580 7294.676 5656.527 4727.539 8548.489 5087.346 5186.558 3777.802 2715.365 5005.761 6192.190 6291.277 5931.727 4319.975 7231.585 5862.907 5481.494 4008.589 4736.345 8475.054 5123.865 1928.639 4339.953 6566.769 6684.161 1347.171 8662.898 3323.970 2487.221 4356.161 7145.921 4479.607 5013.345 3969.143 1600.735 6304.014 6393.258 11158.682 3690.637 6794.866 5055.149 1485.659 5998.636 5192.771 6469.898 3002.518 4438.472 5214.914 9344.791 5171.524 5247.682 2944.929 5669.943 3877.665 4717.386 5564.845 5148.847 1463.745 6287.942 6634.758 0.000 10456.452 3400.356 7085.641 6685.336 9065.370 8562.017 9379.513 6553.243 4600.584 2516.037 5494.543 7986.793 1773.013 656.933 4546.242 9783.418 6173.183 6102.527 1012.230
7511.596 4533.226 7058.316 7335.538 1507.658 5209.162 7964.047 6748.814 10147.001 10476.363 7058.930 14756.109 6748.703 10255.367 5175.272 12094.353 13312.654 14483.550 4523.011 14976.809 7386.923 10238.830 7845.936 5881.360 14991.255 15254.644 6630.540 7835.623 7129.545 8374.038 6986.608 4617.121 6539.829 9718.434 6769.475 7548.979 6671.456 10835.877 11749.071 8198.946 7423.143 7053.423 8831.425 10931.612 8053.337 4766.415 10842.403 5957.358 10308.425 8537.403 11405.155 6691.121 7510.961 5847.299 6786.733 8863.592 8965.120 4744.541 2779.972 7665.827 3983.286 6177.790 11531.214 9789.300 8486.271 8943.064 10066.963 8558.144 7035.616 6113.726 5675.864 5225.379 10056.770 6190.850 7314.037 11099.655 7273.683 6611.245 9000.041 7406.062 4993.992 10456.452 0.000 13180.483 7644.180 10972.685 1391.331 4151.694 16059.735 10120.906 10094.811 12893.757 6741.180 7129.499 8931.758 10639.943 7342.375 2847.411 4344.369 16525.214 9744.191
5905.920 8729.516 6752.425 5882.772 12478.493 7999.237 6270.441 6623.941 4282.849 7478.277 7480.278 1654.727 6695.763 6962.114 8026.031 1185.048 1444.466 5827.231 8706.979 6470.523 5927.548 6244.221 8017.459 7631.862 2039.749 5928.146 8449.578 6280.967 6059.954 4808.361 6646.015 8617.806 7737.027 5842.662 7632.050 8085.084 7363.001 4735.251 2556.836 5764.730 9312.292 6677.594 4405.965 3581.099 7267.959 8804.247 2420.167 10005.383 3347.410 4643.505 3206.804 8363.591 6039.598 7366.146 6394.019 4779.396 6588.234 8640.738 13347.344 5600.138 9259.331 7155.094 1922.386 5865.685 5916.307 6751.374 3395.242 5347.148 6743.511 10616.818 7538.993 8014.209 3378.757 9019.916 7231.752 3800.434 6849.349 6942.686 4656.819 7334.930 8669.772 3400.356 13180.483 0.000 7912.735 5902.326 11817.465 10483.406 6654.654 6225.591 4431.412 1586.805 7079.474 8951.457 4336.237 2875.327 6180.981 11949.231 8842.656 3817.796 4412.401
3045.552 5209.958 2093.818 3741.165 7843.440 3913.177 1816.451 3009.582 3687.833 2846.144 7198.442 9534.357 2811.673 2617.560 3977.241 7279.514 8794.810 7035.448 4080.364 7453.104 3317.980 2719.908 287.559 2755.090 9951.408 7845.539 7809.523 1900.153 3949.504 4466.947 2414.066 4011.852 1482.405 2452.859 7033.512 173.969 1736.692 3789.659 5573.474 2361.379 1424.103 2235.576 5276.242 4502.968 657.398 3226.897 6433.672 2297.913 4583.447 4681.794 4987.793 953.116 2726.379 3717.062 4104.445 6234.360 1562.462 3523.363 6450.206 3594.161 4332.434 3146.770 7153.536 2490.574 2022.379 1465.000 4627.603 2713.122 2145.601 2791.607 3740.893 4901.772 4662.243 7976.123 7210.241 4459.553 1641.916 2551.766 6297.817 854.041 2969.699 7085.641 7644.180 7912.735 0.000 3482.146 6706.905 3614.954 8589.979 2619.699 3555.598 8528.945 2053.095 1045.883 5438.123 6755.685 2730.304 5233.990 4805.444 11730.029 7161.887
4356.860 7722.574 4167.714 5040.380 10961.077 6427.539 3204.002 4905.920 2233.654 1612.472 8659.536 7297.359 4782.952 1203.539 6488.832 5773.667 7164.021 3556.729 6873.755 4007.626 4659.979 762.388 3379.120 5351.022 7785.967 4363.717 9512.291 3370.871 5356.795 4975.042 4379.038 6784.556 4439.301 1321.446 8603.217 3624.842 4369.653 1241.456 3357.997 3251.928 4451.596 4236.012 5536.250 2475.610 2951.413 6277.737 5519.776 5726.365 3366.222 5082.621 2723.457 4384.533 4134.137 5951.290 5704.752 6635.056 2010.475 6430.282 9932.351 4674.296 7283.697 5375.501 6019.310 1236.726 2730.635 2050.941 3685.498 3127.028 4209.427 6103.816 6062.936 7180.142 3743.548 9861.999 8560.361 2157.888 3812.025 4738.676 6626.516 3566.706 6029.491 6685.336 10972.685 5902.326 3482.146 0.000 9901.302 7071.973 5120.234 865.686 2110.149 7057.396 4413.123 4367.648 5653.774 6115.556 4276.346 8701.385 7469.632 9535.962 7235.531
6227.505 3143.222 5865.475 6001.179 1192.035 3886.898 6802.108 5468.307 8917.082 9552.284 5724.782 13383.170 5486.688 9277.061 3847.927 10721.529 11926.614 13362.821 3226.850 13883.315 6081.083 9188.870 6935.851 4664.169 13611.768 14115.925 5368.405 6661.931 5781.733 7017.261 5760.499 3322.485 5469.643 8615.073 5432.646 6633.898 5542.438 9666.754 10459.332 6987.828 6708.925 5845.068 7453.126 9680.354 7042.898 3625.229 9466.435 5327.681 9008.084 7174.465 10143.961 5763.674 6253.498 4521.873 5429.280 7472.262 7913.349 3526.500 3284.879 6344.219 2710.998 4896.641 10149.627 8690.706 7322.431 7909.898 8751.675 7326.818 5837.488 5628.296 4352.923 3839.243 8738.740 4975.668 5972.932 9868.757 6128.422 5379.672 7608.715 6357.508 3871.848 9065.370 1391.331 11817.465 6706.905 9901.302 0.000 3499.525 14937.653 9066.836 8875.173 11506.400 5564.038 6341.150 7550.616 9253.407 6083.689 2698.631 2974.811 15137.230 8355.195
4599.198 3760.423 3746.857 4823.504 4691.475 3178.006 4431.498 3944.744 6727.139 6386.328 6713.753 12135.582 3832.811 6223.357 3201.810 9576.778 11005.735 10628.056 2655.863 11063.357 4638.606 6314.139 3778.738 2928.488 12472.667 11429.544 6878.442 4356.760 4784.367 5938.141 3837.564 2681.413 2867.428 5918.655 6448.557 3494.883 3170.206 7173.631 8541.019 4833.132 3273.572 3810.636 6652.464 7566.747 4123.718 1905.398 8447.833 1835.205 7234.158 6156.431 8065.964 2687.741 4444.218 3604.888 4617.820 7184.127 5079.359 2273.464 2949.770 4993.604 2366.052 3509.976 9201.402 5975.985 4919.710 5022.453 7106.725 5248.295 3750.209 2155.516 3469.263 4004.011 7116.686 6764.401 6861.817 7641.708 3751.211 3556.986 7299.728 3591.553 1927.566 8562.017 4151.694 10483.406 3614.954 7071.973 3499.525 0.000 12191.377 6206.344 6636.143 10646.758 3412.837 2986.721 6799.656 8495.345 4306.414 1633.331 3241.628 14175.898 8199.031
8971.778 12485.738 9089.937 9497.502 15949.163 11270.390 8138.895 9658.185 6227.020 6086.395 12674.551 7015.148 9581.700 6056.972 11326.417 7408.532 8057.063 1576.313 11805.913 1183.461 9219.913 5877.280 8463.528 10298.431 7485.672 870.486 13631.178 8284.835 9807.686 8975.346 9236.771 11712.406 9521.251 6341.456 12705.834 8725.046 9400.453 5303.381 5462.708 8012.539 9404.763 9126.988 9187.257 5669.030 8071.519 11318.842 8037.983 10781.216 6698.567 8975.489 5362.616 9503.642 8841.362 10714.400 10197.130 10118.365 7124.956 11421.459 15032.280 9101.014 12263.283 10195.042 8065.274 6271.490 7621.493 7171.132 7080.825 7736.516 9122.663 11083.721 10853.150 11858.324 7126.863 14092.229 12500.693 5356.722 8809.416 9616.904 10049.227 8668.541 11079.529 9379.513 16059.735 6654.654 8589.979 5120.234 14937.653 12191.377 0.000 5985.483 6220.566 8241.371 9378.711 9412.999 9234.569 8723.895 9005.874 13819.286 12319.592 8705.364 10278.652
3731.839 6983.298 3409.218 4453.668 10140.061 5672.209 2463.105 4207.546 2141.260 1369.702 8128.701 7714.298 4067.876 790.392 5734.822 5934.271 7390.919 4422.359 6083.078 4867.891 4046.588 127.757 2527.048 4565.480 8185.531 5228.239 8941.739 2636.599 4762.322 4554.316 3646.619 5995.943 3598.037 677.463 8049.283 2765.181 3555.068 1517.342 3676.049 2608.263 3647.181 3491.149 5199.444 2657.153 2087.026 5448.687 5495.781 4878.177 3322.549 4692.359 3024.928 3518.854 3476.989 5230.419 5086.018 6300.037 1156.342 5620.125 9069.350 4112.883 6474.197 4641.438 6074.549 592.496 2039.545 1186.583 3577.202 2573.019 3454.478 5278.228 5330.657 6473.486 3632.245 9257.886 8051.383 2429.373 3021.229 3990.308 6308.486 2716.823 5197.584 6553.243 10120.906 6225.591 2619.699 865.686 9066.836 6206.344 5985.483 0.000 1990.626 7234.839 3629.871 3527.390 5332.317 6032.887 3604.387 7835.706 6703.708 9959.323 6994.802
2754.786 6270.412 3041.091 3291.248 9817.383 5087.580 2208.194 3463.509 155.124 3357.327 6720.222 6015.805 3408.881 2780.894 5140.521 3993.636 5482.280 4692.261 5671.012 5307.320 2999.460 2055.911 3624.648 4217.104 6453.607 5361.939 7621.682 2301.581 3606.297 2967.355 3115.211 5575.638 3769.292 1457.569 6697.164 3729.550 3506.484 1036.893 2017.923 1896.113 4916.118 3041.390 3453.318 955.525 2898.709 5340.529 3506.076 5777.743 1331.969 3042.943 1452.290 4163.850 2648.901 4509.086 3990.364 4544.319 2157.183 5357.275 9585.829 2896.477 6165.691 4018.422 4089.228 1500.420 1719.069 2319.962 1601.329 1551.254 3061.108 6332.057 4654.533 5637.761 1658.071 8023.948 6594.232 1014.120 2901.963 3495.542 4529.319 3128.611 5130.036 4600.584 10094.811 4431.412 3555.598 2110.149 8875.173 6636.143 6220.566 1990.626 0.000 5293.450 3367.310 4601.167 3562.642 4056.989 2817.412 8236.170 6128.891 8238.453 5125.443
6071.291 8364.821 7042.099 5848.985 12034.315 7857.556 6763.643 6702.757 5138.335 8560.806 6621.767 2189.851 6816.125 8009.409 7872.134 1301.278 443.629 7381.790 8568.019 8034.325 6008.408 7275.905 8678.867 7722.517 2223.034 7510.092 7546.222 6733.299 5949.668 4725.110 6869.292 8486.760 8081.461 6750.887 6818.274 8694.454 7672.908 5830.934 3739.344 6221.976 9952.707 6941.763 4103.521 4602.412 7918.646 8842.977 2201.104 10439.069 4016.663 4517.038 4342.837 8824.098 6275.921 7254.745 6219.548 4099.538 7382.657 8609.097 13391.368 5653.212 9113.485 7171.489 1445.785 6791.140 6508.660 7552.258 3908.031 5832.555 7021.412 11090.228 7423.076 7668.410 3870.248 8137.330 6354.012 4899.796 7240.129 7103.498 3963.748 7843.665 8750.478 2516.037 12893.757 1586.805 8528.945 7057.396 11506.400 10646.758 8241.371 7234.839 5293.450 0.000 7342.304 9532.348 3985.047 2254.918 6389.170 11996.880 8567.712 3632.195 3447.045
1296.738 3384.145 338.020 1822.542 6575.351 2059.402 1239.833 978.457 3432.030 4450.898 5145.349 8733.550 779.795 4026.535 2123.411 6212.378 7676.678 7805.933 2460.695 8342.794 1462.873 3757.059 2336.382 937.961 9082.714 8552.803 5771.459 1098.321 1968.579 2779.199 488.917 2371.457 805.883 3097.249 4982.222 2127.204 380.348 4104.164 5166.623 1478.743 3192.936 403.780 3579.152 4247.242 1927.809 1976.622 5146.287 3168.573 3824.854 3007.327 4737.919 1716.153 1066.460 1717.187 2070.083 4396.661 2535.201 2042.755 6326.367 1806.850 2887.787 1121.508 5901.431 3178.910 1758.613 2588.895 3694.984 1872.479 337.371 3850.526 1775.871 2953.964 3706.127 5965.907 5159.162 4379.611 610.487 498.779 4480.575 1241.437 1762.734 5494.543 6741.180 7079.474 2053.095 4413.123 5564.038 3412.837 9378.711 3629.871 3367.310 7342.304 0.000 2653.806 3740.577 5299.892 961.180 4944.234 3076.477 10806.298 5381.526
3836.107 5355.286 2805.206 4462.444 7516.647 4152.555 2775.203 3627.851 4733.704 3439.841 7679.515 10576.704 3430.910 3359.334 4212.171 8295.390 9808.792 7883.124 4139.645 8253.840 4069.836 3612.492 1019.147 3092.563 10990.807 8703.050 8190.825 2826.782 4622.320 5311.830 3101.624 4090.355 1887.761 3453.475 7484.959 871.933 2279.542 4797.821 6618.933 3322.267 548.074 2944.393 6126.068 5547.372 1702.469 3175.276 7410.353 1368.217 5615.196 5534.468 6030.548 966.917 3533.321 4113.754 4705.446 7021.104 2563.313 3555.263 5643.260 4383.609 4262.526 3612.875 8140.763 3482.136 3044.456 2443.183 5643.308 3700.535 2849.631 1768.872 4094.449 5180.822 5675.578 8286.122 7725.441 5496.733 2429.143 3127.638 7096.665 1707.970 2941.738 7986.793 7129.499 8951.457 1045.883 4367.648 6341.150 2986.721 9412.999 3527.390 4601.167 9532.348 2653.806 0.000 6289.107 7695.743 3499.692 4529.694 4891.672 12767.682 7983.897
2464.771 4424.278 3511.835 1993.440 8154.640 3879.929 3656.412 2907.989 3461.179 6654.653 3467.054 5845.874 3062.902 6078.304 3891.980 3193.093 4392.087 7857.897 4587.877 8527.135 2281.107 5432.220 5667.154 3886.132 6061.391 8368.690 4443.743 3546.587 2018.561 977.281 3253.442 4508.411 4542.857 4666.060 3537.713 5573.638 4113.831 4573.377 3805.346 3149.637 6794.306 3381.578 163.056 3669.256 4971.351 4934.821 1929.882 6904.719 2577.233 756.807 3886.689 5417.604 2757.215 3291.657 2247.269 981.906 4859.946 4664.139 9446.383 1933.916 5130.903 3289.852 2599.457 4745.050 3674.393 5015.995 2187.612 2927.834 3474.422 7589.468 3456.290 3715.093 2135.552 4953.254 3275.252 4035.980 3860.088 3379.666 977.014 4612.434 4874.365 1773.013 8931.758 4336.237 5438.123 5653.774 7550.616 6799.656 9234.569 5332.317 3562.642 3985.047 3740.577 6289.107 0.000 1739.782 2806.646 8060.677 4592.555 7613.021 1738.514
4003.819 6113.370 5028.662 3672.008 9802.038 5619.675 4940.178 4561.976 3914.507 7402.485 4605.238 4229.162 4695.924 6821.111 5631.717 1691.925 2673.408 7530.862 6327.578 8214.044 3888.404 6106.838 6948.216 5568.270 4391.529 7891.923 5574.484 4871.730 3738.747 2561.721 4813.345 6248.193 6078.897 5431.510 4761.269 6908.858 5655.328 4896.987 3355.718 4394.307 8164.732 4912.695 1868.207 3729.328 6204.759 6652.588 690.597 8458.224 2749.994 2340.129 3720.194 6896.095 4251.406 5028.070 3985.613 1924.572 5865.910 6395.683 11180.220 3529.246 6870.008 4991.238 965.987 5493.822 4804.571 6034.380 2457.175 4061.674 4999.836 9130.996 5193.896 5414.622 2401.417 6144.797 4356.507 4103.454 5300.908 5000.224 1796.164 5988.073 6578.395 656.933 10639.943 2875.327 6755.685 6115.556 9253.407 8495.345 8723.895 6032.887 4056.989 2254.918 5299.892 7695.743 1739.782 0.000 4339.335 9791.439 6312.932 5887.092 1606.613
342.275 3492.136 705.204 1019.132 7002.257 2271.162 1201.432 652.613 2845.171 4659.257 4648.393 7831.237 597.060 4157.920 2325.065 5277.638 6729.442 7453.186 2863.133 8034.731 588.011 3730.356 2989.126 1493.454 8166.388 8156.527 5389.915 1030.357 1265.524 1834.806 480.145 2767.407 1745.989 2974.228 4529.977 2844.358 1318.848 3707.389 4419.552 1027.952 4019.172 577.652 2643.993 3596.772 2395.723 2674.661 4190.591 4123.113 3010.242 2062.002 4064.147 2611.299 169.933 1712.112 1518.511 3525.056 2678.210 2603.987 7174.114 884.011 3374.102 1201.295 4946.290 3063.253 1565.094 2785.389 2830.159 1271.695 668.940 4801.298 1847.353 2910.439 2833.941 5670.819 4616.244 3792.297 1092.137 769.623 3597.872 1877.556 2510.952 4546.242 7342.375 6180.981 2730.304 4276.346 6083.689 4306.414 9005.874 3604.387 2817.412 6389.170 961.180 3499.692 2806.646 4339.335 0.000 5779.193 3316.280 9876.183 4484.618
6043.653 4334.531 5282.170 6149.804 3795.584 4221.444 6027.982 5333.649 8321.297 7963.482 7349.597 13592.768 5253.712 7829.393 4223.358 10990.141 12375.260 12258.013 3553.198 12686.851 6034.286 7942.296 5383.647 4318.465 13906.790 13061.008 7299.133 5941.980 6053.636 7273.175 5330.105 3615.695 4470.632 7551.650 7063.099 5107.098 4740.820 8800.696 10107.019 6400.515 4735.054 5328.963 7924.783 9156.101 5755.492 3159.391 9815.462 3239.864 8762.897 7479.847 9653.374 4317.081 5929.291 4772.498 5818.673 8308.307 6712.047 3396.555 1399.351 6376.314 3073.585 4830.958 10559.972 7609.233 6526.297 6653.256 8607.397 6808.606 5278.640 3298.101 4612.247 4796.621 8612.549 7055.387 7543.568 9246.205 5337.272 5011.539 8433.696 5221.467 3279.726 9783.418 2847.411 11949.231 5233.990 8701.385 2698.631 1633.331 13819.286 7835.706 8236.170 11996.880 4944.234 4529.694 8060.677 9791.439 5779.193 0.000 3882.378 15576.202 9302.562
3389.257 522.694 3302.133 3058.003 3736.446 1050.763 4266.033 2666.106 6147.849 7484.473 3509.825 10411.973 2738.351 7089.878 993.449 7750.169 8981.354 10762.274 752.533 11332.528 3194.458 6831.156 5084.087 2150.898 10648.348 11472.143 3640.124 4101.324 2819.675 4044.750 3103.816 803.702 3336.817 6148.390 3233.626 4801.789 3211.576 7017.284 7562.316 4311.086 5401.466 3236.204 4488.851 6857.782 4907.802 1741.365 6498.229 4484.425 6101.299 4199.763 7298.428 4017.539 3482.830 1628.027 2458.093 4607.903 5608.597 1337.249 5157.394 3420.823 878.697 2125.410 7191.160 6232.940 4755.103 5653.545 5822.487 4587.928 3260.215 5074.012 1475.464 945.741 5805.537 3566.387 3683.833 7084.541 3686.910 2734.005 4741.468 4178.917 1955.332 6173.183 4344.369 8842.656 4805.444 7469.632 2974.811 3241.628 12319.592 6703.708 6128.891 8567.712 3076.477 4891.672 4592.555 6312.932 3316.280 3882.378 0.000 12199.616 5553.747
9576.853 11994.803 10488.716 9430.318 15645.654 11474.858 10068.200 10251.026 8092.072 11143.554 10089.493 2245.186 10347.934 10661.473 11491.532 4599.292 3221.494 8484.930 12186.698 8994.648 9550.554 9964.608 11835.006 11272.106 1784.942 8246.599 10960.263 10069.159 9552.327 8310.381 10351.967 12103.876 11499.514 9625.498 10311.814 11902.212 11110.894 8445.560 6294.061 9551.241 13129.927 10402.518 7727.139 7357.450 11085.746 12416.870 5765.089 13801.085 7156.489 8111.527 6941.085 12161.564 9747.199 10864.147 9836.660 7702.193 10395.099 12204.028 16974.370 9203.049 12734.439 10745.472 5031.921 9642.269 9728.904 10556.359 7172.063 9138.022 10474.801 14421.832 11034.063 11300.061 7149.122 11557.327 9814.093 7534.844 10622.993 10618.920 7565.350 11139.587 12308.631 6102.527 16525.214 3817.796 11730.029 9535.962 15137.230 14175.898 8705.364 9959.323 8238.453 3632.195 10806.298 12767.682 7613.021 5887.092 9876.183 15576.202 12199.616 0.000 6949.807
4147.910 5245.178 5184.225 3567.855 8749.174 5088.761 5392.007 4475.754 5004.071 8338.797 3174.952 5599.401 4652.236 7758.036 5082.489 3251.112 3890.601 9030.137 5750.439 9712.265 3924.270 7087.631 7396.351 5374.066 5670.063 9435.559 4104.185 5278.230 3493.804 2696.117 4904.155 5686.869 6187.211 6341.274 3376.955 7293.131 5760.878 6081.847 4845.946 4888.106 8499.021 5048.199 1896.239 5024.307 6707.496 6295.367 2260.862 8510.273 3948.995 2486.530 5115.575 7086.675 4454.649 4595.703 3590.593 1017.205 6587.041 5960.363 10650.303 3600.617 6252.943 4753.172 2496.991 6416.332 5409.838 6745.263 3584.942 4659.874 5142.634 9199.797 4737.994 4609.668 3526.826 4692.795 2907.014 5404.611 5561.590 4973.778 911.318 6327.393 6283.333 1012.230 9744.191 4412.401 7161.887 7235.531 8355.195 8199.031 10278.652 6994.802 5125.443 3447.045 5381.526 7983.897 1738.514 1606.613 4484.618 9302.562 5553.747 6949.807 0.000
NODE_COORD_SECTION
1 -500.874011 70.822412
2 2679.250487 -1428.048682
3 30.630105 973.245588
4 -304.078864 -657.808602
5 6436.170964 -1480.007442
6 1811.019305 -425.111841
7 -803.370270 1460.969193
8 261.964854 65.245738
9 -3069.327994 1092.258170
10 -2394.259280 4533.110130
11 1164.497986 -4043.880396
12 -7503.021586 -2757.753430
13 269.461759 264.295560
14 -2418.773251 3950.369970
15 1848.719393 -477.822690
16 -4882.431653 -2291.111341
17 -5874.760683 -3437.017741
18 -6956.774036 3752.218852
19 2487.578082 -201.670144
20 -7297.602374 4344.357504
21 -376.526573 -224.052693
22 -2667.841392 3259.772954
23 -50.468752 3338.181694
24 1161.992867 548.410623
25 -7644.430276 -3249.606272
26 -7777.559153 3664.080760
27 2045.732937 -4481.935492
28 -699.643625 1318.943576
29 -75.965872 -880.630446
30 -1291.059606 -1195.374940
31 61.623236 653.002633
32 2393.071382 -186.075752
33 733.273817 1753.957364
34 -2349.305921 2535.290767
35 1375.886198 -3839.479643
36 192.890405 3158.996067
37 503.249721 1391.807636
38 -3610.533168 2068.548384
39 -4736.420125 203.544217
40 -1116.204824 1011.000740
41 933.765621 4179.923507
42 15.546548 831.634329
43 -1625.930393 -1937.581281
44 -3881.318686 862.709417
45 -529.427936 2747.728011
46 2321.952358 780.227997
47 -3621.169506 -2219.731622
48 2291.326941 3552.237277
49 -3299.312234 -67.000357
50 -1430.165579 -1376.229993
51 -4366.187539 739.460855
52 909.471301 2665.127623
53 -486.610713 393.010196
54 1174.739835 -474.279749
55 288.444662 -1030.218947
56 -1359.125572 -3007.115015
57 -1488.884353 2770.721307
58 2284.264564 346.571443
59 6481.547706 2644.007477
60 -647.587587 -459.742069
61 3025.818775 -77.197281
62 832.209786 20.240540
63 -4228.912824 -2669.257527
64 -2402.560024 2607.342509
65 -1314.202832 1569.693358
66 -1412.694853 2923.178089
67 -3053.855529 -369.611890
68 -1499.253844 836.406267
69 45.897896 921.412032
70 2612.695226 4162.997575
71 1344.382233 -441.046210
72 1963.377538 -1443.870733
73 -3041.881161 -426.734316
74 2642.781209 -4474.289770
75 891.003100 -4093.450862
76 -4013.592280 1219.422245
77 -104.551945 1431.942864
78 427.893275 544.102452
79 -1492.057420 -3040.298459
80 -30.197856 2216.309408
81 2122.519408 944.757438
82 -2918.401098 -3369.073229
83 7009.095952 -85.449774
84 -6031.438153 -2001.073704
85 45.227540 3067.013167
86 -3429.334208 3296.709602
87 5696.050376 -545.572684
88 3561.337810 2227.454379
89 -8470.991686 4190.291598
90 -2572.243698 3175.021263
91 -2999.535751 1230.795543
92 -5432.394426 -3470.460399
93 362.282035 1038.546994
94 925.431718 3631.912991
95 -1696.009639 -2084.809165
96 -3274.272592 -2816.880418
97 -319.681287 361.204040
98 5190.086720 2105.202301
99 2743.563069 -909.326649
100 -8914.508379 -4503.767209
101 -2000.793665 -3796.398506
DEMAND_SECTION
1 0
2 2
3 10
4 2
5 7
6 7
7 1
8 2
9 7
10 1
11 1
12 5
13 1
14 4
15 10
16 2
17 3
18 1
19 1
20 2
21 4
22 7
23 8
24 2
25 9
26 1
27 10
28 64
29 4
30 2
31 8
32 4
33 9
34 2
35 9
36 1
37 7
38 10
39 6
40 5
41 2
42 4
43 1
44 4
45 8
46 2
47 7
48 2
49 93
50 3
51 2
52 8
53 10
54 6
55 58
56 7
57 7
58 85
59 6
60 69
61 74
62 3
63 8
64 10
65 9
66 7
67 63
68 4
69 6
70 9
71 7
72 1
73 6
74 6
75 8
76 8
77 7
78 4
79 3
80 4
81 52
82 9
83 1
84 3
85 1
86 5
87 55
88 2
89 7
90 10
91 5
92 10
93 3
94 9
95 2
96 55
97 9
98 68
99 4
100 4
101 8
DEPOT_SECTION
1
-1
EOF
