NAME : mamut-lyon-n100-poi
COMMENT : Mamut2026 euclidean metric; city lyon; 3-decimal seconds/meters; ENU ref in mamut-lyon-n100-poi.vrp.json
TYPE : CVRP
DIMENSION : 101
EDGE_WEIGHT_TYPE : EXPLICIT
EDGE_WEIGHT_FORMAT : FULL_MATRIX
CAPACITY : 190
EDGE_WEIGHT_SECTION
0.000 2285.743 888.650 1627.942 968.368 3483.584 143.462 2878.339 2323.061 3964.559 3180.948 1343.540 3669.636 4868.821 1574.547 2567.742 3802.234 3435.166 991.721 1240.492 2566.343 3546.726 278.229 470.506 2963.649 2662.319 352.187 2414.912 2324.248 988.072 3748.719 2968.226 447.284 1530.281 545.629 4692.336 1297.337 532.704 1724.603 5522.012 1174.889 977.754 959.073 1876.082 831.497 976.353 2003.795 2201.998 2246.393 899.106 3363.422 2449.556 5027.237 3873.958 5701.536 1169.281 896.278 4968.622 4495.585 600.841 680.486 1461.882 2645.915 1928.006 624.881 1180.410 793.202 1591.577 199.736 1639.417 2714.799 680.242 3061.776 2684.894 1832.592 2037.572 4365.625 3087.763 2178.957 1596.679 627.744 934.320 1325.939 1170.414 1573.514 2624.797 2264.648 3327.766 4185.950 3075.129 1306.296 1328.305 2089.133 827.041 3164.905 1090.272 566.749 2401.806 3679.455 2581.489 1166.180
2285.743 0.000 2273.029 1683.358 1329.018 5143.329 2270.424 2964.518 4596.800 2492.406 5071.161 1996.584 1618.180 4954.286 2704.494 2797.233 1775.562 1734.988 2066.168 3523.928 372.937 4666.984 2326.256 2223.860 4189.635 2469.488 2550.770 129.619 1790.957 2578.814 1571.871 4295.799 2227.465 1078.638 2330.348 3411.536 1200.305 2387.165 3108.324 7779.882 3449.540 2656.153 1964.953 421.348 3113.809 3251.708 2176.707 153.994 1541.459 2978.955 5091.490 167.186 6855.148 4178.840 6604.039 2347.132 2957.111 7055.509 6511.818 2176.220 2298.025 1512.362 4235.268 2482.489 2316.587 2602.964 1963.436 2705.007 2325.706 681.078 1080.870 2499.369 3134.542 3941.598 2060.501 2959.787 6589.949 4998.681 2377.368 922.771 2311.565 2302.605 2422.290 2699.563 1053.099 1585.561 4495.493 5170.104 1911.498 5318.597 2363.899 2447.645 3228.582 3108.725 2363.549 1665.262 2606.221 116.120 1439.949 984.214 2173.317
888.650 2273.029 0.000 2261.094 1082.852 4316.658 745.630 3655.340 2760.401 3361.199 3952.762 565.198 3844.437 5695.297 710.255 1691.764 3993.823 2959.619 240.306 1717.668 2444.818 4434.873 627.829 1328.856 2211.027 1842.446 763.060 2388.864 1642.558 305.798 3493.671 2253.989 441.516 1919.260 363.598 3993.158 1074.758 407.173 2613.090 5614.427 1715.608 387.270 318.075 1941.540 1393.113 1547.231 1185.900 2145.429 2773.561 836.208 4182.617 2437.587 4616.980 2986.938 4911.169 280.702 804.446 5592.322 5175.406 297.721 217.050 2041.726 2049.382 1049.376 1497.348 380.718 326.122 725.052 706.044 1785.732 3012.398 1568.727 3844.443 1932.571 1034.895 1165.125 4388.308 3853.912 2932.516 1912.479 274.458 50.188 438.141 2057.436 1956.019 3104.431 2814.674 4113.421 4034.269 3163.251 418.031 442.376 2973.093 1394.349 3757.694 1725.561 1440.702 2382.049 3489.629 2875.637 314.974
1627.942 1683.358 2261.094 0.000 1319.198 3510.449 1722.646 1490.764 3509.469 4098.018 3526.204 2404.621 2417.471 3578.702 2950.798 3619.420 2513.028 3376.573 2201.205 2586.931 2056.233 2985.401 1855.891 1238.603 4471.554 3496.138 1979.637 1783.988 2908.269 2489.601 3217.090 4507.127 1915.809 653.018 2051.729 4985.187 1703.056 2073.094 1507.055 6896.017 2472.057 2514.897 2104.618 1350.241 2225.804 2306.186 2945.063 1718.808 668.441 2526.943 3479.978 1779.271 6653.226 5048.384 7162.322 2497.511 2524.112 5581.697 4997.244 1992.434 2129.058 246.400 4241.812 3067.403 1195.730 2635.444 1974.913 2962.393 1797.812 1144.321 1403.585 1334.226 1681.644 4192.570 2769.720 3372.584 5822.309 3467.247 781.795 804.498 2099.528 2310.410 2644.215 1254.903 661.169 1066.186 3297.587 3599.314 3410.749 4530.176 2599.481 2659.193 1559.713 2217.537 1537.273 546.788 1543.629 1764.325 3038.866 1304.470 2393.663
968.368 1329.018 1082.852 1319.198 0.000 4189.427 942.275 2801.652 3291.192 3151.420 3991.106 1093.735 2807.502 4887.453 1701.295 2302.212 2951.139 2547.243 949.196 2208.373 1598.189 3996.803 998.978 1026.137 3249.607 2211.140 1221.895 1456.902 1684.937 1370.694 2784.384 3311.643 918.475 852.272 1035.588 3956.835 453.984 1086.446 2216.750 6452.528 2142.564 1429.311 842.704 934.710 1799.832 1943.951 1631.233 1236.783 1729.258 1671.291 4099.612 1495.092 5687.885 3729.252 5886.633 1260.242 1652.536 5876.478 5372.660 900.520 1037.195 1075.625 3132.036 1751.684 1168.616 1458.829 758.329 1709.697 996.689 730.236 1934.520 1337.345 2993.397 2976.448 1453.865 2089.619 5269.639 3906.457 2077.438 830.828 1036.060 1125.424 1389.013 1692.323 885.602 2036.574 3220.407 4117.383 3219.218 3992.759 1337.453 1408.318 2475.498 1795.407 2725.837 874.556 1377.213 1444.984 2711.117 1797.491 1124.888
3483.584 5143.329 4316.658 3510.449 4189.427 0.000 3612.105 3026.934 2544.429 7340.541 689.946 4823.255 5794.436 3515.047 4893.466 6001.194 5852.257 6707.958 4464.705 2866.384 5510.539 1260.043 3701.752 3189.835 5847.499 6142.002 3556.904 5257.209 5788.821 4282.968 6708.604 5757.723 3902.591 4064.932 3953.680 8133.210 4631.719 3910.390 2035.664 5183.732 2788.718 4220.720 4441.305 4753.956 3005.594 2880.006 5481.757 5143.488 3979.404 3766.588 205.895 5261.413 6563.057 7172.009 8443.551 4581.921 3796.320 2399.817 1752.767 4062.487 4100.129 3639.761 5244.500 5360.589 3030.124 4487.785 4276.601 4913.078 3630.097 4501.843 4836.310 2878.194 3033.554 5612.579 5313.749 5334.000 4646.336 772.604 3068.251 4220.602 4042.633 4353.279 4724.227 2502.837 4092.001 4286.448 2173.193 526.317 6919.446 3764.547 4721.288 4718.293 1967.319 3000.863 4131.918 3497.515 2920.619 5238.158 6543.701 4764.945 4622.279
143.462 2270.424 745.630 1722.646 942.275 3612.105 0.000 3004.681 2367.082 3867.104 3295.790 1211.491 3694.131 5004.459 1431.642 2427.580 3830.003 3355.488 855.901 1278.665 2536.113 3689.361 141.999 606.358 2832.238 2530.659 291.686 2398.696 2210.364 849.324 3704.039 2841.059 304.679 1575.484 403.166 4581.333 1230.225 393.795 1867.910 5517.054 1225.945 843.596 829.445 1868.565 877.316 1029.560 1871.068 2178.628 2325.263 817.866 3488.761 2435.958 4943.843 3730.522 5567.804 1026.172 810.379 5056.079 4593.297 460.289 537.029 1544.064 2531.411 1787.117 765.388 1039.229 666.620 1448.590 75.343 1641.785 2755.538 823.596 3189.312 2553.007 1701.732 1894.511 4346.756 3201.264 2299.785 1629.104 484.446 791.062 1182.653 1313.872 1618.196 2697.146 2330.535 3445.751 4159.073 3061.860 1163.466 1184.901 2232.423 874.172 3259.382 1178.741 702.683 2386.493 3644.772 2620.760 1026.597
2878.339 2964.518 3655.340 1490.764 2801.652 3026.934 3004.681 0.000 4078.443 5455.148 3333.478 3871.134 2973.153 2087.997 4363.059 5103.759 2992.087 4699.017 3634.436 3445.884 3315.785 2045.759 3146.615 2412.733 5834.361 4986.536 3201.098 3031.236 4390.339 3840.197 4322.158 5845.656 3258.321 2102.669 3386.880 6368.199 3193.796 3392.376 1677.485 7447.678 3315.802 3845.552 3545.757 2730.263 3195.439 3211.561 4432.078 3045.381 1429.916 3723.987 3085.982 3006.719 7734.343 6526.965 8561.308 3913.510 3731.068 5386.101 4747.008 3366.323 3491.309 1737.132 5513.513 4536.284 2284.301 4011.163 3401.061 4376.678 3074.040 2575.139 2190.695 2324.823 191.853 5554.616 4255.386 4804.469 6528.507 3317.426 728.663 2232.928 3451.382 3705.527 4067.213 1931.785 2096.981 1541.346 3760.720 3325.083 4322.991 5295.544 4027.887 4079.060 1357.811 3186.363 1128.443 1956.305 2549.421 3012.084 4092.136 2180.733 3830.911
2323.061 4596.800 2760.401 3509.469 3291.192 2544.429 2367.082 4078.443 0.000 6121.550 1895.151 3323.057 5858.734 5506.489 3052.636 4197.664 5974.216 5685.806 2988.244 1088.820 4888.281 3417.258 2355.686 2411.517 3539.257 4501.636 2125.986 4726.409 4401.460 2564.794 6069.817 3411.552 2520.645 3710.260 2480.152 6727.616 3593.649 2417.467 2401.418 3408.680 1148.900 2472.658 3026.595 4180.033 1492.513 1347.464 3886.649 4520.804 4174.059 1944.690 2342.718 4757.647 4052.099 5074.185 5975.128 2935.694 1978.952 2914.017 2616.304 2644.646 2592.250 3464.314 2865.607 3623.805 2370.844 2724.038 2911.770 3071.632 2328.760 3931.180 4852.905 2202.117 4200.983 3349.775 3763.693 3395.133 2454.722 1794.879 3630.079 3817.048 2546.626 2771.889 3024.503 2300.769 3752.448 4570.443 386.137 2088.081 6504.548 1298.117 3050.347 3006.770 2744.166 1496.551 4852.623 3122.279 2032.722 4712.298 6002.245 4731.726 3059.264
3964.559 2492.406 3361.199 4098.018 3151.420 7340.541 3867.104 5455.148 6121.550 0.000 7124.437 2800.270 3374.019 7435.899 3222.533 2350.994 3508.323 775.947 3134.738 5065.716 2156.257 7055.993 3829.997 4165.036 4035.446 1862.981 4042.685 2436.346 1724.811 3575.704 1641.248 4218.165 3640.386 3446.895 3656.111 929.864 2714.903 3717.017 5346.279 8744.805 5047.290 3671.107 3104.258 2751.944 4705.769 4863.125 2307.608 2411.178 4033.769 4186.869 7250.417 2468.498 6933.511 3024.118 5554.864 3204.515 4153.435 8918.350 8459.608 3498.777 3534.233 3885.340 4471.748 2658.013 4316.666 3447.078 3236.040 3207.913 3879.444 2957.087 3445.945 4478.876 5626.611 3911.568 2391.421 3099.832 7487.678 7035.695 4841.957 3293.542 3582.890 3350.898 3143.719 4840.040 3436.859 4043.285 6159.697 7258.550 2242.418 6386.223 3106.597 3165.819 5556.329 4704.968 4797.182 3900.660 4482.343 2454.676 1900.399 3392.577 3066.854
3180.948 5071.161 3952.762 3526.204 3991.106 689.946 3295.790 3333.478 1895.151 7124.437 0.000 4488.626 5903.650 4110.461 4471.452 5607.247 5978.297 6537.709 4125.963 2371.720 5426.853 1849.379 3364.971 2965.894 5304.206 5794.937 3191.266 5192.245 5504.890 3877.097 6642.502 5201.325 3566.587 4008.543 3596.974 7872.895 4412.614 3546.989 2021.174 4530.904 2315.389 3805.408 4117.685 4663.149 2581.626 2439.822 5136.451 5050.690 4074.003 3317.056 485.579 5203.894 5884.025 6703.301 7845.444 4203.042 3349.058 2084.633 1474.995 3724.289 3740.734 3612.780 4674.053 4975.117 2824.938 4076.261 3960.112 4491.298 3300.645 4403.517 4910.060 2653.764 3376.414 5082.115 4977.231 4893.456 3958.671 106.002 3225.296 4157.276 3683.967 3984.195 4335.235 2371.931 4040.968 4417.967 1540.350 193.504 6917.105 3084.387 4339.680 4326.098 2091.871 2578.494 4383.051 3405.990 2643.298 5174.053 6501.467 4822.829 4265.942
1343.540 1996.584 565.198 2404.621 1093.735 4823.255 1211.491 3871.134 3323.057 2800.270 4488.626 0.000 3611.685 5947.648 707.968 1264.768 3767.452 2430.304 362.714 2282.527 2094.054 4854.675 1125.790 1717.192 2223.665 1319.192 1301.970 2096.590 1078.443 785.835 3041.870 2313.495 923.822 1928.940 896.342 3429.773 849.740 951.166 3026.674 6094.475 2277.951 881.944 385.910 1742.990 1950.099 2105.686 660.299 1852.285 2811.597 1387.278 4697.799 2150.581 4869.539 2659.965 4802.214 429.431 1354.101 6156.230 5733.851 764.886 758.329 2164.380 2241.869 665.168 1891.070 700.286 554.460 708.469 1194.458 1657.498 2884.471 1998.141 4062.876 1963.280 490.722 1015.916 4853.910 4391.493 3142.764 1876.170 812.751 551.168 443.248 2466.899 1957.474 3094.159 3379.614 4644.442 3620.982 3663.343 386.711 469.778 3357.094 1950.801 3809.375 1916.187 1910.235 2093.938 3068.030 2751.954 269.016
3669.636 1618.180 3844.437 2417.471 2807.502 5794.436 3694.131 2973.153 5858.734 3374.019 5903.650 3611.685 0.000 4515.417 4318.852 4358.288 159.982 2639.873 3654.073 4848.222 1626.784 4993.193 3780.857 3457.687 5806.673 3976.135 3985.690 1530.008 3309.883 4147.432 1791.299 5913.966 3724.265 2159.423 3843.089 4272.458 2792.485 3893.492 3889.324 9179.545 4751.223 4217.075 3549.024 1902.989 4448.178 4563.395 3771.853 1767.441 1829.814 4473.363 5797.736 1473.542 8454.134 5679.802 8167.018 3946.620 4456.337 7978.104 7378.599 3704.295 3836.967 2407.836 5844.439 4093.454 3487.892 4193.201 3523.187 4319.983 3760.712 2077.329 1016.303 3658.200 3073.367 5559.691 3667.452 4576.661 8035.244 5852.981 2727.607 2074.410 3840.669 3878.895 4031.081 3669.030 2116.281 1509.356 5683.117 5957.465 1486.895 6743.652 3972.845 4055.952 3839.029 4441.410 1917.177 2736.735 3828.842 1529.257 1515.808 1129.391 3776.413
4868.821 4954.286 5695.297 3578.702 4887.453 3515.047 5004.459 2087.997 5506.489 7435.899 4110.461 5947.648 4515.417 0.000 6405.543 7188.490 4471.587 6664.826 5695.019 5169.249 5279.701 2264.520 5145.396 4398.662 7828.403 7073.856 5162.534 5001.025 6471.315 5852.897 6140.009 7820.647 5279.235 4180.307 5400.933 8361.449 5281.634 5398.063 3333.917 8622.525 5041.774 5846.574 5611.001 4772.618 5014.218 4988.643 6518.572 5054.427 3423.963 5648.790 3677.491 4967.558 9450.876 8606.950 10569.230 5962.355 5661.651 5808.829 5179.244 5400.425 5517.106 3825.088 7441.061 6612.392 4248.365 6035.659 5460.233 6420.293 5068.407 4640.418 4020.616 4244.383 1897.102 7550.877 6341.270 6856.261 7910.404 4149.184 2810.116 4303.036 5472.587 5745.272 6118.650 3779.766 4171.397 3396.086 5133.673 4004.034 5991.141 6800.894 6082.737 6128.586 2924.371 5005.446 2677.138 4031.962 4450.453 4983.044 5883.512 4054.916 5892.113
1574.547 2704.494 710.255 2950.798 1701.295 4893.466 1431.642 4363.059 3052.636 3222.533 4471.452 707.968 4318.852 6405.543 0.000 1153.699 4474.279 2980.575 756.048 2126.962 2795.134 5100.847 1299.633 2029.978 1549.241 1461.966 1369.974 2804.387 1540.449 616.991 3688.058 1621.591 1136.691 2553.567 1029.043 3713.616 1541.758 1048.855 3291.930 5539.768 2163.057 672.825 859.878 2441.351 1894.300 2031.961 916.002 2560.209 3427.621 1162.101 4745.387 2858.476 4166.546 2313.396 4211.882 453.319 1128.696 5956.404 5594.368 1005.919 897.603 2723.676 1535.941 582.654 2194.968 410.170 976.093 19.866 1379.968 2336.730 3571.416 2250.974 4552.598 1278.738 863.586 463.527 4286.335 4368.799 3638.624 2522.419 947.721 660.272 312.294 2743.034 2586.599 3736.618 3186.579 4643.145 4290.378 3164.166 364.892 293.874 3663.180 1898.221 4421.303 2423.627 2099.803 2801.837 3735.525 3437.158 577.505
2567.742 2797.233 1691.764 3619.420 2302.212 6001.194 2427.580 5103.759 4197.664 2350.994 5607.247 1264.768 4358.288 7188.490 1153.699 0.000 4518.230 2356.566 1583.263 3278.177 2731.931 6107.122 2318.167 2972.073 1708.246 501.727 2444.982 2855.260 1060.786 1730.153 3268.800 1881.426 2124.264 3076.527 2054.939 2664.385 1938.636 2094.059 4279.064 6452.998 3309.394 1803.618 1639.097 2696.302 3025.632 3169.280 678.630 2643.689 3944.625 2312.987 5861.575 2912.300 4611.523 1436.876 3811.147 1420.251 2279.171 7106.472 6748.048 1967.318 1908.648 3374.162 2124.628 642.417 3145.634 1532.600 1806.251 1134.072 2394.985 2703.970 3835.773 3240.563 5295.535 1563.063 850.054 831.474 5197.240 5505.739 4378.484 2990.342 1965.868 1652.022 1277.234 3719.216 3097.191 4173.508 4339.951 5775.062 3932.392 4185.265 1280.517 1284.093 4618.109 3028.756 4929.826 3160.256 3128.933 2860.737 3397.051 3716.302 1401.658
3802.234 1775.562 3993.823 2513.028 2951.139 5852.257 3830.003 2992.087 5974.216 3508.323 5978.297 3767.452 159.982 4471.587 4474.279 4518.230 0.000 2781.110 3805.564 4971.887 1786.643 5023.660 3919.145 3579.123 5964.733 4135.332 4121.680 1688.790 3469.538 4296.197 1910.014 6071.266 3866.465 2284.727 3986.522 4400.849 2945.423 4036.221 3969.631 9305.587 4873.071 4364.899 3700.158 2053.154 4573.863 4686.694 3931.547 1925.386 1906.544 4613.923 5860.789 1632.213 8605.747 5838.339 8326.836 4099.442 4597.403 8056.510 7452.661 3849.446 3982.953 2515.734 5998.397 4252.407 3604.122 4344.591 3671.739 4475.580 3897.347 2221.521 1122.263 3772.320 3083.565 5717.147 3826.653 4734.745 8167.058 5929.860 2784.078 2205.646 3985.678 4028.802 4185.376 3767.329 2241.402 1567.106 5791.900 6027.653 1561.204 6874.258 4127.189 4210.150 3904.514 4566.963 1911.876 2852.238 3947.289 1687.787 1635.127 1242.751 3929.865
3435.166 1734.988 2959.619 3376.573 2547.243 6707.958 3355.488 4699.017 5685.806 775.947 6537.709 2430.304 2639.873 6664.826 2980.575 2356.566 2781.110 0.000 2721.132 4605.895 1387.939 6353.821 3341.460 3573.357 4058.633 1859.652 3566.323 1670.675 1447.262 3214.335 1020.152 4223.595 3166.853 2732.236 3207.002 1705.808 2142.922 3270.026 4689.275 8509.177 4571.067 3310.173 2668.310 2026.506 4223.062 4378.838 2090.100 1666.504 3272.740 3795.464 6630.172 1700.057 6953.236 3351.645 5914.330 2857.648 3763.976 8402.330 7913.962 3041.502 3102.700 3174.902 4385.564 2473.668 3713.091 3122.125 2774.423 2969.557 3379.736 2249.652 2670.032 3884.271 4867.585 3888.318 2116.993 2970.539 7260.315 6453.579 4103.507 2575.742 3144.575 2959.888 2832.488 4206.795 2718.149 3270.267 5682.986 6661.316 1686.668 6091.791 2785.721 2857.438 4871.852 4221.039 4021.665 3227.234 3915.799 1689.434 1238.376 2617.654 2697.539
991.721 2066.168 240.306 2201.205 949.196 4464.705 855.901 3634.436 2988.244 3134.738 4125.963 362.714 3654.073 5695.019 756.048 1583.263 3805.564 2721.132 0.000 1933.896 2222.077 4523.862 764.364 1390.116 2301.375 1677.547 940.010 2178.713 1423.335 529.619 3256.381 2362.702 562.632 1800.638 535.358 3785.921 866.249 591.964 2695.833 5852.449 1923.781 618.626 108.209 1753.132 1591.914 1748.179 1017.118 1933.921 2672.153 1074.376 4337.529 2228.903 4800.190 2935.489 4962.251 311.270 1043.072 5803.001 5374.917 403.055 401.924 1970.901 2205.188 951.142 1563.313 539.145 234.968 765.902 834.630 1616.971 2851.806 1658.236 3825.224 2027.483 852.081 1172.948 4624.198 4028.788 2906.810 1776.519 454.102 251.062 444.994 2136.053 1834.609 2985.746 3030.442 4282.063 3802.570 3402.776 398.344 462.180 3038.763 1592.328 3665.314 1682.819 1557.822 2172.863 3256.230 2715.885 197.100
1240.492 3523.928 1717.668 2586.931 2208.373 2866.384 1278.665 3445.884 1088.820 5065.716 2371.720 2282.527 4848.222 5169.249 2126.962 3278.177 4971.887 4605.895 1933.896 0.000 3806.558 3364.597 1268.482 1394.671 2990.069 3524.106 1040.321 3653.329 3356.817 1567.321 4982.395 2912.855 1439.190 2688.830 1410.168 5710.119 2504.952 1348.846 1844.815 4335.586 130.416 1483.771 1961.635 3110.896 410.156 285.543 2884.053 3442.359 3253.875 965.235 2696.669 3686.724 4306.110 4331.672 5648.578 1925.346 999.006 3875.843 3477.103 1570.639 1532.531 2498.681 2426.202 2665.222 1395.321 1751.712 1836.802 2146.776 1240.000 2867.605 3859.212 1254.256 3599.485 2748.814 2745.672 2530.915 3235.612 2266.880 2873.361 2781.957 1482.966 1736.270 2035.957 1521.749 2731.946 3650.744 1097.108 2552.093 5426.406 1943.503 2052.060 2022.197 2249.653 415.421 4041.993 2134.858 1045.071 3639.855 4918.826 3732.099 2027.606
2566.343 372.937 2444.818 2056.233 1598.189 5510.539 2536.113 3315.785 4888.281 2156.257 5426.853 2094.054 1626.784 5279.701 2795.134 2731.931 1786.643 1387.939 2222.077 3806.558 0.000 5039.361 2577.139 2546.845 4223.991 2354.300 2806.444 284.695 1684.054 2748.305 1218.690 4344.332 2458.132 1447.900 2549.076 3082.301 1378.834 2608.865 3474.966 8016.236 3739.387 2832.035 2128.317 763.705 3397.833 3540.818 2159.996 378.967 1887.045 3198.475 5455.996 312.316 6961.632 4063.354 6540.256 2479.622 3174.107 7397.159 6860.684 2387.669 2498.813 1884.060 4330.659 2499.572 2650.029 2746.247 2153.754 2793.033 2585.490 1023.927 1320.570 2832.260 3482.072 3988.747 2069.924 2998.786 6810.813 5352.686 2743.847 1290.894 2519.473 2468.429 2533.950 3055.098 1423.712 1889.737 4804.611 5529.120 1623.524 5553.269 2476.011 2560.172 3600.681 3393.321 2654.036 2023.842 2925.411 304.034 1115.436 1249.635 2301.932
3546.726 4666.984 4434.873 2985.401 3996.803 1260.043 3689.361 2045.759 3417.258 7055.993 1849.379 4854.675 4993.193 2264.520 5100.847 6107.122 5023.660 6353.821 4523.862 3364.597 5039.361 0.000 3810.675 3137.568 6299.478 6146.065 3734.388 4763.284 5678.608 4488.380 6169.835 6245.555 3993.935 3621.969 4081.854 7916.931 4449.895 4054.968 1828.392 6375.314 3253.402 4449.300 4471.957 4329.614 3350.607 3270.312 5505.325 4703.696 3278.862 4095.644 1414.104 4754.278 7459.646 7413.056 9002.524 4715.162 4118.584 3625.742 2981.742 4146.424 4223.328 3178.979 5783.159 5471.406 2963.689 4693.257 4303.528 5119.073 3731.013 4105.217 4124.573 2868.366 1994.454 6039.092 5326.373 5562.971 5730.163 1893.866 2338.850 3779.088 4168.339 4479.695 4870.764 2388.406 3637.499 3506.289 3031.719 1739.537 6268.771 4708.868 4852.812 4871.727 1521.369 3343.315 3171.880 3167.343 3001.565 4743.528 5968.372 4082.686 4707.710
278.229 2326.256 627.829 1855.891 998.978 3701.752 141.999 3146.615 2355.686 3829.997 3364.971 1125.790 3780.857 5145.396 1299.633 2318.167 3919.145 3341.460 764.364 1268.482 2577.139 3810.675 0.000 746.804 2690.299 2441.588 231.607 2453.300 2152.869 709.878 3728.291 2699.190 201.979 1681.663 271.652 4524.800 1240.535 254.494 1993.955 5453.867 1229.622 701.905 753.155 1932.951 882.059 1038.523 1781.085 2227.368 2450.068 704.163 3573.324 2492.826 4820.490 3604.537 5426.227 906.182 693.034 5088.367 4638.535 361.325 413.175 1671.838 2392.788 1676.118 903.110 902.771 600.500 1316.967 80.340 1715.749 2855.628 951.446 3331.297 2411.105 1616.172 1763.070 4272.203 3268.694 2441.100 1726.265 357.694 670.656 1060.501 1443.407 1723.854 2817.887 2342.434 3519.243 4200.476 2993.784 1045.100 1061.069 2363.667 880.327 3391.452 1310.382 813.023 2441.955 3679.196 2720.021 922.519
470.506 2223.860 1328.856 1238.603 1026.137 3189.835 606.358 2412.733 2411.517 4165.036 2965.894 1717.192 3457.687 4398.662 2029.978 2972.073 3579.123 3573.357 1390.116 1394.671 2546.845 3137.568 746.804 0.000 3433.972 3017.730 790.467 2352.575 2605.928 1455.668 3760.301 3436.826 893.293 1300.888 1006.828 4943.561 1450.141 1000.146 1309.489 5730.248 1293.948 1448.032 1334.593 1802.523 1006.578 1109.130 2370.250 2169.078 1890.710 1326.819 3089.565 2377.770 5430.292 4312.548 6172.030 1607.687 1329.981 4863.787 4350.089 1031.795 1132.423 1115.726 3103.272 2340.932 173.882 1643.812 1166.412 2046.290 669.836 1544.709 2464.672 313.865 2594.827 3155.313 2192.472 2490.834 4617.992 2880.611 1722.064 1405.652 1083.560 1377.076 1766.025 749.880 1343.523 2282.556 2277.684 3094.862 4133.513 3322.189 1740.214 1771.182 1649.604 998.953 2760.139 744.422 384.162 2336.832 3657.859 2338.093 1578.710
2963.649 4189.635 2211.027 4471.554 3249.607 5847.499 2832.238 5834.361 3539.257 4035.446 5304.206 2223.665 5806.673 7828.403 1549.241 1708.246 5964.733 4058.633 2301.375 2990.069 4223.991 6299.478 2690.299 3433.972 0.000 2209.948 2667.277 4277.508 2680.361 1995.631 4934.264 198.592 2578.384 4101.702 2448.013 4204.240 3073.102 2442.190 4577.764 5002.288 3082.001 1989.247 2407.057 3964.851 2948.887 3035.450 2083.816 4039.347 4972.584 2216.026 5670.244 4333.627 2904.216 1685.532 2742.143 1991.808 2196.914 6364.332 6143.706 2482.707 2350.489 4252.533 709.598 1725.181 3580.399 1836.624 2510.845 1541.917 2765.113 3877.755 5107.972 3589.446 6020.202 279.954 2154.942 1230.013 3780.191 5198.225 5121.389 4071.575 2386.648 2162.083 1861.130 4069.049 4135.179 5285.650 3812.110 5493.200 5583.735 3033.268 1914.078 1841.368 4976.971 2956.165 5963.243 3932.857 3394.671 4277.668 5036.059 4975.117 2126.745
2662.319 2469.488 1842.446 3496.138 2211.140 6142.002 2530.659 4986.536 4501.636 1862.981 5794.937 1319.192 3976.135 7073.856 1461.966 501.727 4135.332 1859.652 1677.547 3524.106 2354.300 6146.065 2441.588 3017.730 2209.948 0.000 2603.852 2510.713 678.628 1957.103 2791.338 2382.787 2240.095 2905.887 2198.797 2255.012 1793.666 2247.974 4323.279 6903.949 3538.689 2043.065 1703.352 2433.432 3229.601 3380.934 660.503 2319.413 3743.846 2571.264 6014.909 2566.661 5113.198 1711.917 4202.739 1602.782 2536.723 7390.202 7000.064 2080.325 2054.360 3249.993 2609.181 880.770 3190.713 1781.291 1870.414 1444.193 2512.124 2485.460 3537.442 3308.613 5176.934 2061.315 829.931 1251.070 5646.605 5696.283 4272.577 2799.735 2111.287 1812.470 1488.603 3766.079 2920.319 3934.134 4609.849 5954.429 3459.900 4593.128 1472.510 1503.381 4634.308 3231.445 4706.854 3085.669 3228.800 2518.725 2933.011 3426.240 1529.014
352.187 2550.770 763.060 1979.637 1221.895 3556.904 291.686 3201.098 2125.986 4042.685 3191.266 1301.970 3985.690 5162.534 1369.974 2444.982 4121.680 3566.323 940.010 1040.321 2806.444 3734.388 231.607 790.467 2667.277 2603.852 0.000 2678.357 2352.410 754.519 3959.862 2659.159 402.697 1864.665 406.240 4721.757 1471.967 356.080 1940.541 5231.489 1007.269 716.805 946.631 2153.278 663.115 820.457 1945.208 2454.440 2597.738 547.365 3420.619 2716.968 4675.051 3683.149 5409.357 1025.068 545.837 4877.339 4437.966 547.287 549.498 1813.563 2313.097 1803.774 920.190 960.432 806.671 1388.661 226.709 1930.261 3046.117 923.200 3381.749 2391.108 1787.619 1829.983 4056.817 3093.007 2512.289 1920.483 492.709 797.384 1169.526 1408.957 1907.538 2974.565 2121.271 3350.804 4429.941 2773.890 1164.576 1165.200 2326.949 662.286 3516.273 1442.424 741.829 2666.664 3909.894 2911.556 1074.873
2414.912 129.619 2388.864 1783.988 1456.902 5257.209 2398.696 3031.236 4726.409 2436.346 5192.245 2096.590 1530.008 5001.025 2804.387 2855.260 1688.790 1670.675 2178.713 3653.329 284.695 4763.284 2453.300 2352.575 4277.508 2510.713 2678.357 0.000 1832.654 2694.632 1453.318 4387.310 2352.223 1192.707 2453.655 3360.464 1314.486 2510.916 3223.212 7906.506 3579.109 2773.170 2078.713 550.158 3243.223 3381.257 2247.705 245.513 1602.837 3102.816 5207.672 57.200 6960.932 4222.386 6665.553 2455.531 3080.631 7180.763 6635.204 2298.354 2418.708 1621.361 4337.704 2563.656 2444.078 2713.913 2081.983 2804.301 2453.542 808.851 1073.949 2626.876 3197.915 4032.502 2138.459 3047.560 6714.825 5120.455 2461.401 1038.651 2433.330 2417.407 2526.410 2821.298 1165.226 1616.695 4624.812 5289.636 1782.144 5444.838 2468.013 2551.998 3335.301 3238.156 2387.536 1786.371 2735.145 19.769 1314.348 990.247 2280.589
2324.248 1790.957 1642.558 2908.269 1684.937 5788.821 2210.364 4390.339 4401.460 1724.811 5504.890 1078.443 3309.883 6471.315 1540.449 1060.786 3469.538 1447.262 1423.335 3356.817 1684.054 5678.608 2152.869 2605.928 2680.361 678.628 2352.410 1832.654 0.000 1850.918 2254.743 2830.443 1955.425 2291.064 1954.547 2372.070 1236.919 2013.383 3879.966 7079.235 3346.598 1946.377 1405.792 1770.933 3011.690 3168.599 643.349 1641.183 3102.156 2462.889 5678.369 1888.759 5544.298 2389.760 4858.226 1479.969 2429.319 7225.579 6789.701 1805.146 1825.223 2664.900 2949.189 1028.482 2772.654 1726.566 1552.377 1528.386 2210.943 1845.421 2860.914 2913.545 4578.711 2483.933 680.942 1533.332 5826.566 5411.081 3689.899 2172.821 1876.553 1629.593 1425.318 3335.564 2300.944 3273.392 4453.633 5651.806 2904.163 4684.763 1385.461 1448.427 4157.451 3011.675 4050.578 2546.433 2874.318 1840.456 2359.091 2751.327 1343.193
988.072 2578.814 305.798 2489.601 1370.694 4282.968 849.324 3840.197 2564.794 3575.704 3877.097 785.835 4147.432 5852.897 616.991 1730.153 4296.197 3214.335 529.619 1567.321 2748.305 4488.380 709.878 1455.668 1995.631 1957.103 754.519 2694.632 1850.918 0.000 3783.032 2019.463 582.756 2192.162 453.630 4163.430 1380.413 455.634 2686.989 5328.802 1586.774 96.126 619.990 2244.972 1295.479 1439.974 1324.223 2451.115 3031.001 620.424 4138.072 2743.385 4319.365 2929.017 4723.223 372.201 586.032 5435.426 5044.182 500.332 360.918 2280.824 1773.527 1102.397 1612.923 206.842 624.527 636.018 788.774 2083.607 3304.724 1652.487 4026.857 1715.684 1199.271 1075.494 4097.083 3775.607 3125.779 2195.211 391.826 280.028 468.641 2144.385 2230.366 3372.684 2653.991 4045.328 4332.188 2885.730 487.474 455.218 3065.469 1298.616 4005.383 1945.743 1490.248 2687.841 3785.650 3167.755 517.203
3748.719 1571.871 3493.671 3217.090 2784.384 6708.604 3704.039 4322.158 6069.817 1641.248 6642.502 3041.870 1791.299 6140.009 3688.058 3268.800 1910.014 1020.152 3256.381 4982.395 1218.690 6169.835 3728.291 3760.301 4934.264 2791.338 3959.862 1453.318 2254.743 3783.032 0.000 5085.122 3587.444 2645.635 3661.144 2501.024 2491.157 3723.485 4675.803 9107.938 4923.268 3874.337 3178.107 1981.017 4577.423 4724.878 2875.805 1597.434 2916.523 4298.725 6660.765 1447.228 7792.827 4358.822 6919.599 3464.201 4271.116 8615.399 8079.136 3494.284 3587.918 3069.531 5179.145 3258.712 3867.275 3737.722 3239.990 3680.947 3746.471 2241.987 2144.062 4049.200 4468.403 4737.718 2852.654 3772.894 7880.089 6569.335 3837.743 2491.968 3617.803 3507.295 3479.584 4270.620 2617.259 2794.404 6004.152 6741.971 674.146 6652.922 3425.508 3506.012 4775.910 4573.534 3463.289 3236.951 4136.075 1472.047 275.493 2141.791 3289.054
2968.226 4295.799 2253.989 4507.127 3311.643 5757.723 2841.059 5845.656 3411.552 4218.165 5201.325 2313.495 5913.966 7820.647 1621.591 1881.426 6071.266 4223.595 2362.702 2912.855 4344.332 6245.555 2699.190 3436.826 198.592 2382.787 2659.159 4387.310 2830.443 2019.463 5085.122 0.000 2600.184 4161.724 2467.072 4399.433 3159.509 2456.189 4547.292 4804.761 3010.292 2003.651 2469.891 4056.335 2897.850 2975.783 2221.305 4146.981 5025.814 2184.144 5577.319 4442.968 2731.334 1874.220 2766.629 2051.479 2167.684 6213.752 6006.640 2514.696 2378.817 4293.345 552.086 1852.900 3577.709 1874.705 2563.209 1616.467 2771.681 3958.197 5192.263 3576.628 6029.800 355.585 2280.966 1345.741 3584.608 5095.470 5138.593 4138.725 2411.161 2206.207 1929.992 4049.826 4196.428 5347.710 3696.001 5391.546 5729.918 2858.953 1985.072 1908.573 4950.050 2905.468 6011.680 3964.658 3375.365 4386.713 5180.153 5058.296 2196.308
447.284 2227.465 441.516 1915.809 918.475 3902.591 304.679 3258.321 2520.645 3640.386 3566.587 923.822 3724.265 5279.235 1136.691 2124.264 3866.465 3166.853 562.632 1439.190 2458.132 3993.935 201.979 893.293 2578.384 2240.095 402.697 2352.223 1955.425 582.756 3587.444 2600.184 0.000 1671.884 136.409 4326.785 1096.652 171.823 2171.576 5559.077 1409.746 599.456 552.542 1848.746 1065.685 1222.988 1579.613 2119.671 2479.562 753.825 3774.900 2394.641 4811.878 3427.964 5303.625 722.214 734.264 5278.813 4834.478 159.902 239.299 1714.978 2328.492 1483.200 1059.215 756.522 404.956 1153.003 272.968 1647.999 2826.127 1127.221 3445.406 2298.436 1414.255 1597.800 4362.607 3470.137 2543.054 1698.181 193.591 487.760 879.291 1616.127 1712.553 2834.818 2523.747 3721.148 4078.188 3096.108 859.013 882.373 2532.761 1064.724 3441.316 1369.792 1004.699 2342.091 3549.569 2689.436 724.826
1530.281 1078.638 1919.260 653.018 852.272 4064.932 1575.484 2102.669 3710.260 3446.895 4008.543 1928.940 2159.423 4180.307 2553.567 3076.527 2284.727 2732.236 1800.638 2688.830 1447.900 3621.969 1681.663 1300.888 4101.702 2905.887 1864.665 1192.707 2291.064 2192.162 2645.635 4161.724 1671.884 0.000 1804.293 4332.194 1137.960 1843.049 2030.517 7020.991 2592.773 2239.605 1694.648 708.511 2289.259 2404.114 2397.922 1090.311 882.702 2385.825 4015.130 1199.300 6483.702 4513.289 6730.623 2111.210 2374.222 6019.537 5461.051 1698.987 1840.475 443.340 3964.628 2571.354 1346.271 2299.200 1600.677 2561.938 1647.207 491.318 1184.847 1523.921 2289.647 3828.119 2230.566 2936.437 5886.607 3939.494 1421.797 158.275 1826.877 1964.430 2241.284 1644.842 43.433 1186.285 3557.463 4101.378 2917.256 4592.258 2189.638 2260.531 2156.805 2282.406 1880.439 617.796 1677.573 1173.797 2493.691 1052.451 1977.001
545.629 2330.348 363.598 2051.729 1035.588 3953.680 403.166 3386.880 2480.152 3656.111 3596.974 896.342 3843.089 5400.933 1029.043 2054.939 3986.522 3207.002 535.358 1410.168 2549.076 4081.854 271.652 1006.828 2448.013 2198.797 406.240 2453.655 1954.547 453.630 3661.144 2467.072 136.409 1804.293 0.000 4320.577 1176.564 63.289 2265.585 5467.713 1392.934 464.485 551.924 1959.455 1057.512 1214.201 1539.565 2218.094 2615.585 650.027 3820.728 2497.475 4679.577 3332.909 5176.834 637.753 627.054 5271.183 4839.712 167.829 146.585 1851.382 2192.109 1412.524 1168.274 636.986 433.111 1046.183 351.851 1765.789 2953.452 1222.729 3573.369 2168.135 1381.379 1492.265 4263.729 3498.935 2673.693 1827.132 89.142 403.253 790.412 1714.430 1844.665 2969.865 2503.725 3755.648 4164.872 3005.101 777.350 790.250 2634.206 1057.715 3577.713 1505.509 1082.442 2444.173 3631.752 2816.605 670.537
4692.336 3411.536 3993.158 4985.187 3956.835 8133.210 4581.333 6368.199 6727.616 929.864 7872.895 3429.773 4272.458 8361.449 3713.616 2664.385 4400.849 1705.808 3785.921 5710.119 3082.301 7916.931 4524.800 4943.561 4204.240 2255.012 4721.757 3360.464 2372.070 4163.430 2501.024 4399.433 4326.785 4332.194 4320.577 0.000 3506.919 4377.881 6171.679 9109.884 5707.724 4255.034 3775.665 3649.597 5377.815 5534.085 2841.257 3323.089 4952.379 4783.854 8031.333 3394.171 7027.260 2872.296 5247.795 3794.032 4749.455 9585.467 9159.701 4175.019 4186.791 4764.783 4746.541 3130.963 5103.538 4006.041 3924.357 3696.319 4582.958 3840.877 4375.803 5255.974 6542.034 4139.121 2966.976 3486.754 7856.300 7780.084 5740.801 4182.142 4239.945 3973.860 3703.778 5647.696 4325.242 4971.068 6806.438 8016.712 3036.684 6842.146 3677.276 3722.175 6405.512 5378.172 5726.773 4750.415 5234.519 3378.513 2771.636 4321.823 3682.571
1297.337 1200.305 1074.758 1703.056 453.984 4631.719 1230.225 3193.796 3593.649 2714.903 4412.614 849.740 2792.485 5281.634 1541.758 1938.636 2945.423 2142.922 866.249 2504.952 1378.834 4449.895 1240.535 1450.141 3073.102 1793.666 1471.967 1314.486 1236.919 1380.413 2491.157 3159.509 1096.652 1137.960 1176.564 3506.919 0.000 1237.802 2669.695 6643.019 2456.083 1460.188 764.658 900.262 2107.275 2259.759 1260.008 1070.705 2010.946 1823.300 4537.188 1363.822 5662.635 3375.341 5628.544 1154.135 1797.996 6259.980 5772.556 1012.333 1120.146 1456.747 3053.923 1451.174 1603.028 1404.275 775.133 1545.208 1264.968 810.234 2034.871 1763.974 3384.532 2811.093 1093.224 1862.113 5432.960 4325.400 2478.965 1058.273 1142.178 1102.922 1243.687 2140.786 1159.349 2265.784 3558.856 4544.356 2988.933 4180.992 1185.976 1267.824 2928.752 2104.267 3003.219 1310.090 1776.580 1308.032 2455.314 1902.220 984.905
532.704 2387.165 407.173 2073.094 1086.446 3910.390 393.795 3392.376 2417.467 3717.017 3546.989 951.166 3893.492 5398.063 1048.855 2094.059 4036.221 3270.026 591.964 1348.846 2608.865 4054.968 254.494 1000.146 2442.190 2247.974 356.080 2510.916 2013.383 455.634 3723.485 2456.189 171.823 1843.049 63.289 4377.881 1237.802 0.000 2243.078 5407.533 1333.362 453.218 612.798 2013.496 999.951 1156.255 1589.747 2276.134 2645.684 591.911 3775.604 2554.331 4640.976 3358.214 5175.376 674.156 570.074 5212.197 4783.205 231.006 194.065 1877.133 2168.737 1451.955 1157.574 648.869 496.341 1066.542 334.005 1816.567 2997.871 1202.935 3578.018 2162.595 1433.800 1512.350 4205.216 3448.515 2682.462 1870.004 138.426 442.923 823.331 1695.203 1883.840 3003.425 2443.170 3706.855 4225.565 2944.734 814.050 821.372 2616.019 1000.388 3602.745 1526.345 1053.572 2501.245 3693.108 2861.161 718.960
1724.603 3108.324 2613.090 1507.055 2216.750 2035.664 1867.910 1677.485 2401.418 5346.279 2021.174 3026.674 3889.324 3333.917 3291.930 4279.064 3969.631 4689.275 2695.833 1844.815 3474.966 1828.392 1993.955 1309.489 4577.764 4323.279 1940.541 3223.212 3879.966 2686.989 4675.803 4547.292 2171.576 2030.517 2265.585 6171.679 2669.695 2243.078 0.000 5783.699 1715.559 2656.634 2643.615 2718.583 1684.654 1654.737 3678.919 3107.998 2063.152 2363.685 1985.859 3228.750 6148.361 5598.039 7313.302 2893.779 2381.465 4088.865 3494.736 2321.802 2404.338 1611.691 4132.845 3644.420 1135.620 2888.713 2475.151 3309.610 1913.736 2467.612 2890.147 1044.380 1806.068 4307.306 3500.548 3755.403 4851.167 1965.717 1293.314 2185.565 2350.462 2658.923 3050.541 560.014 2058.553 2422.970 2091.506 2092.417 4911.239 3625.749 3030.298 3052.735 410.182 1676.036 2520.584 1465.753 1198.753 3204.272 4516.916 2801.706 2880.734
5522.012 7779.882 5614.427 6896.017 6452.528 5183.732 5517.054 7447.678 3408.680 8744.805 4530.904 6094.475 9179.545 8622.525 5539.768 6452.998 9305.587 8509.177 5852.449 4335.586 8016.236 6375.314 5453.867 5730.248 5002.288 6903.949 5231.489 7906.506 7079.235 5328.802 9107.938 4804.761 5559.077 7020.991 5467.713 9109.884 6643.019 5407.533 5783.699 0.000 4439.173 5236.032 5929.881 7384.730 4731.742 4621.121 6452.585 7677.464 7564.011 4819.728 4995.525 7946.585 3075.682 6653.521 6140.394 5665.213 4845.325 3594.364 3948.214 5630.750 5526.758 6827.788 4378.734 6088.948 5722.166 5394.904 5875.119 5552.557 5457.775 7157.894 8194.749 5567.055 7554.683 5003.437 6399.246 5653.223 1257.500 4481.593 7035.924 7107.098 5501.422 5601.937 5677.999 5708.281 7064.278 7961.667 3692.385 4662.792 9631.940 2463.021 5726.334 5652.746 6092.726 4738.626 8260.844 6468.658 5372.874 7895.438 9095.132 8067.265 5834.579
1174.889 3449.540 1715.608 2472.057 2142.564 2788.718 1225.945 3315.802 1148.900 5047.290 2315.389 2277.951 4751.223 5041.774 2163.057 3309.394 4873.071 4571.067 1923.781 130.416 3739.387 3253.402 1229.622 1293.948 3082.001 3538.689 1007.269 3579.109 3346.598 1586.774 4923.268 3010.292 1409.746 2592.773 1392.934 5707.724 2456.083 1333.362 1715.559 4439.173 0.000 1507.495 1944.472 3034.022 348.998 198.614 2892.534 3372.124 3139.822 1003.099 2623.655 3611.124 4436.253 4393.700 5753.702 1936.266 1035.694 3879.220 3462.631 1548.513 1521.964 2390.040 2531.727 2688.748 1284.729 1777.828 1812.183 2182.921 1193.779 2787.496 3757.778 1137.952 3469.164 2836.257 2748.915 2578.440 3350.697 2211.492 2746.045 2690.153 1470.066 1737.676 2054.035 1392.832 2635.691 3537.121 1114.010 2492.189 5356.063 2061.202 2066.568 2041.740 2121.030 351.823 3918.736 2029.503 934.584 3565.211 4853.472 3631.827 2028.708
977.754 2656.153 387.270 2514.897 1429.311 4220.720 843.596 3845.552 2472.658 3671.107 3805.408 881.944 4217.075 5846.574 672.825 1803.618 4364.899 3310.173 618.626 1483.771 2832.035 4449.300 701.905 1448.032 1989.247 2043.065 716.805 2773.170 1946.377 96.126 3874.337 2003.651 599.456 2239.605 464.485 4255.034 1460.188 453.218 2656.634 5236.032 1507.495 0.000 704.855 2315.995 1224.709 1366.073 1414.675 2530.363 3068.883 529.752 4073.319 2821.306 4258.602 2976.171 4724.336 466.889 495.224 5347.718 4960.822 540.743 399.166 2311.295 1733.816 1181.963 1600.338 271.051 695.165 692.397 778.201 2148.339 3363.675 1629.457 4031.075 1709.782 1292.548 1122.643 4005.854 3703.418 3135.369 2248.490 418.128 367.613 555.060 2119.780 2278.554 3415.955 2566.840 3975.197 4420.187 2791.261 577.826 539.684 3040.010 1228.282 4037.452 1969.145 1457.970 2766.001 3874.558 3226.624 613.257
959.073 1964.953 318.075 2104.618 842.704 4441.305 829.445 3545.757 3026.595 3104.258 4117.685 385.910 3549.024 5611.001 859.878 1639.097 3700.158 2668.310 108.209 1961.635 2128.317 4471.957 753.155 1334.593 2407.057 1703.352 946.631 2078.713 1405.792 619.990 3178.107 2469.891 552.542 1694.648 551.924 3775.665 764.658 612.798 2643.615 5929.881 1944.472 704.855 0.000 1647.308 1606.664 1763.795 1045.787 1834.369 2567.749 1133.655 4318.078 2128.376 4905.672 3009.436 5061.338 418.861 1103.669 5821.655 5384.339 399.436 435.065 1872.360 2312.963 1016.716 1508.423 644.608 168.818 869.053 817.509 1509.054 2743.711 1612.612 3736.858 2133.750 873.531 1267.967 4705.532 4021.665 2817.518 1668.996 480.145 340.247 547.812 2083.636 1728.294 2879.230 3055.649 4270.798 3716.221 3476.158 498.514 566.241 2979.012 1606.469 3561.800 1591.388 1525.448 2072.501 3171.847 2607.760 289.194
1876.082 421.348 1941.540 1350.241 934.710 4753.956 1868.565 2730.263 4180.033 2751.944 4663.149 1742.990 1902.989 4772.618 2441.351 2696.302 2053.154 2026.506 1753.132 3110.896 763.705 4329.614 1932.951 1802.523 3964.851 2433.432 2153.278 550.158 1770.933 2244.972 1981.017 4056.335 1848.746 708.511 1959.455 3649.597 900.262 2013.496 2718.583 7384.730 3034.022 2315.995 1647.308 0.000 2700.779 2836.641 2038.543 389.748 1355.353 2602.571 4695.938 577.945 6552.962 4115.793 6468.418 2050.262 2582.624 6638.227 6098.285 1812.753 1941.570 1151.812 3952.198 2298.934 1896.123 2291.888 1621.223 2444.405 1926.958 261.485 1154.438 2078.861 2909.747 3706.208 1897.895 2743.960 6204.338 4589.051 2091.610 550.727 1949.242 1975.918 2143.858 2291.431 692.176 1502.490 4074.946 4765.856 2332.091 4926.387 2086.205 2167.886 2863.027 2695.482 2280.352 1261.354 2184.991 534.730 1859.308 1027.761 1883.818
831.497 3113.809 1393.113 2225.804 1799.832 3005.594 877.316 3195.439 1492.513 4705.769 2581.626 1950.099 4448.178 5014.218 1894.300 3025.632 4573.863 4223.062 1591.914 410.156 3397.833 3350.607 882.059 1006.578 2948.887 3229.601 663.115 3243.223 3011.690 1295.479 4577.423 2897.850 1065.685 2289.259 1057.512 5377.815 2107.275 999.951 1684.654 4731.742 348.998 1224.709 1606.664 2700.779 0.000 157.361 2577.272 3032.785 2887.984 765.810 2853.001 3276.569 4540.277 4168.283 5661.244 1628.477 793.851 4215.157 3783.766 1208.462 1191.804 2120.506 2456.988 2395.013 1030.597 1495.192 1469.729 1914.076 844.856 2457.928 3465.289 913.174 3359.432 2689.813 2427.930 2328.939 3611.414 2480.153 2579.994 2378.167 1138.021 1419.081 1755.689 1267.335 2332.539 3282.728 1460.375 2750.547 5016.919 2315.620 1762.884 1745.724 2094.622 9.077 3712.863 1750.914 688.603 3229.725 4510.831 3336.644 1707.951
976.353 3251.708 1547.231 2306.186 1943.951 2880.006 1029.560 3211.561 1347.464 4863.125 2439.822 2105.686 4563.395 4988.643 2031.961 3169.280 4686.694 4378.838 1748.179 285.543 3540.818 3270.312 1038.523 1109.130 3035.450 3380.934 820.457 3381.257 3168.599 1439.974 4724.878 2975.783 1222.988 2404.114 1214.201 5534.085 2259.759 1156.255 1654.737 4621.121 198.614 1366.073 1763.795 2836.641 157.361 0.000 2730.078 3173.744 2972.219 886.860 2723.060 3413.525 4524.697 4292.071 5733.070 1778.716 917.089 4057.925 3628.519 1365.741 1347.573 2214.239 2518.178 2541.512 1112.400 1637.087 1627.086 2051.795 999.609 2590.908 3573.702 976.719 3370.614 2781.451 2582.116 2460.231 3518.002 2337.547 2617.953 2498.654 1294.142 1572.205 1903.150 1280.019 2447.184 3368.681 1304.195 2611.254 5157.751 2224.333 1912.007 1892.435 2064.394 158.355 3772.671 1849.609 762.750 3367.431 4654.864 3446.678 1861.822
2003.795 2176.707 1185.900 2945.063 1631.233 5481.757 1871.068 4432.078 3886.649 2307.608 5136.451 660.299 3771.853 6518.572 916.002 678.630 3931.547 2090.100 1017.118 2884.053 2159.996 5505.325 1781.085 2370.250 2083.816 660.503 1945.208 2247.705 643.349 1324.223 2875.805 2221.305 1579.613 2397.922 1539.565 2841.257 1260.008 1589.747 3678.919 6452.585 2892.534 1414.675 1045.787 2038.543 2577.272 2730.078 0.000 2022.828 3267.166 1944.207 5354.406 2304.851 4917.047 2115.387 4435.071 958.874 1909.722 6757.693 6355.146 1419.829 1395.828 2699.316 2310.105 386.197 2543.880 1165.423 1213.809 902.026 1851.739 2031.703 3187.562 2656.019 4623.708 1869.249 180.872 897.464 5197.709 5038.189 3708.653 2312.868 1452.499 1158.209 862.541 3119.984 2418.734 3502.099 3976.021 5295.047 3511.753 4078.646 836.957 881.212 4000.370 2578.799 4254.333 2496.976 2570.513 2250.899 2960.338 3064.473 871.293
2201.998 153.994 2145.429 1718.808 1236.783 5143.488 2178.628 3045.381 4520.804 2411.178 5050.690 1852.285 1767.441 5054.427 2560.209 2643.689 1925.386 1666.504 1933.921 3442.359 378.967 4703.696 2227.368 2169.078 4039.347 2319.413 2454.440 245.513 1641.183 2451.115 1597.434 4146.981 2119.671 1090.311 2218.094 3323.089 1070.705 2276.134 3107.998 7677.464 3372.124 2530.363 1834.369 389.748 3032.785 3173.744 2022.828 0.000 1632.922 2867.919 5085.676 298.376 6715.569 4027.717 6450.126 2210.034 2845.113 7018.212 6482.456 2060.998 2179.351 1531.883 4092.902 2330.070 2271.147 2468.679 1840.612 2560.320 2231.042 647.222 1223.941 2453.428 3218.992 3792.494 1907.381 2809.362 6481.265 4975.896 2437.029 932.073 2195.356 2173.432 2281.187 2679.478 1070.041 1704.274 4430.857 5154.564 1984.161 5214.916 2222.787 2306.741 3247.111 3028.026 2485.443 1650.850 2548.507 241.725 1489.813 1121.873 2035.078
2246.393 1541.459 2773.561 668.441 1729.258 3979.404 2325.263 1429.916 4174.059 4033.769 4074.003 2811.597 1829.814 3423.963 3427.621 3944.625 1906.544 3272.740 2672.153 3253.875 1887.045 3278.862 2450.068 1890.710 4972.584 3743.846 2597.738 1602.837 3102.156 3031.001 2916.523 5025.814 2479.562 882.702 2615.585 4952.379 2010.946 2645.684 2063.152 7564.011 3139.822 3068.883 2567.749 1355.353 2887.984 2972.219 3267.166 1632.922 0.000 3141.349 3974.421 1577.167 7269.106 5381.007 7612.925 2980.832 3135.268 6150.308 5548.894 2531.204 2672.158 784.961 4802.505 3452.654 1860.207 3154.163 2463.115 3436.718 2400.404 1258.793 859.665 2002.283 1595.079 4697.133 3103.624 3817.616 6489.482 4024.143 942.709 954.312 2650.970 2820.581 3115.522 1898.769 855.498 397.761 3953.555 4128.183 2991.513 5196.546 3065.149 3133.886 2015.382 2879.858 997.808 1159.688 2209.475 1583.844 2700.372 804.681 2853.041
899.106 2978.955 836.208 2526.943 1671.291 3766.588 817.866 3723.987 1944.690 4186.869 3317.056 1387.278 4473.363 5648.790 1162.101 2312.987 4613.923 3795.464 1074.376 965.235 3198.475 4095.644 704.163 1326.819 2216.026 2571.264 547.365 3102.816 2462.889 620.424 4298.725 2184.144 753.825 2385.825 650.027 4783.854 1823.300 591.911 2363.685 4819.728 1003.099 529.752 1133.655 2602.571 765.810 886.860 1944.207 2867.919 3141.349 0.000 3609.800 3146.131 4128.896 3405.428 4949.655 991.020 34.556 4818.952 4438.512 811.158 710.912 2358.257 1795.960 1704.028 1440.609 791.037 1058.779 1181.937 743.469 2399.441 3558.396 1410.141 3901.394 1948.804 1819.004 1576.604 3613.702 3213.560 3046.673 2428.565 682.182 839.539 1084.521 1870.254 2428.014 3514.882 2039.014 3491.945 4812.212 2358.102 1107.251 1068.450 2765.906 771.517 4063.639 1988.614 1198.442 3093.111 4276.575 3422.507 1120.017
3363.422 5091.490 4182.617 3479.978 4099.612 205.895 3488.761 3085.982 2342.718 7250.417 485.579 4697.799 5797.736 3677.491 4745.387 5861.575 5860.789 6630.172 4337.529 2696.669 5455.996 1414.104 3573.324 3089.565 5670.244 6014.909 3420.619 5207.672 5678.369 4138.072 6660.765 5577.319 3774.900 4015.130 3820.728 8031.333 4537.188 3775.604 1985.859 4995.525 2623.655 4073.319 4318.078 4695.938 2853.001 2723.060 5354.406 5085.676 3974.421 3609.800 0.000 5214.053 6357.631 7013.887 8254.215 4444.469 3640.149 2307.241 1663.643 3934.609 3966.811 3597.134 5060.566 5222.515 2934.200 4341.796 4154.923 4765.084 3503.372 4441.082 4827.152 2776.244 3104.810 5438.261 5188.519 5181.716 4443.815 566.727 3079.084 4169.232 3909.377 4217.961 4584.385 2424.118 4043.842 4293.683 1973.744 332.779 6890.576 3558.928 4583.352 4577.615 1959.312 2848.641 4176.442 3435.574 2804.797 5188.837 6502.656 4750.838 4490.767
2449.556 167.186 2437.587 1779.271 1495.092 5261.413 2435.958 3006.719 4757.647 2468.498 5203.894 2150.581 1473.542 4967.558 2858.476 2912.300 1632.213 1700.057 2228.903 3686.724 312.316 4754.278 2492.826 2377.770 4333.627 2566.661 2716.968 57.200 1888.759 2743.385 1447.228 4442.968 2394.641 1199.300 2497.475 3394.171 1363.822 2554.331 3228.750 7946.585 3611.124 2821.306 2128.376 577.945 3276.569 3413.525 2304.851 298.376 1577.167 3146.131 5214.053 0.000 7013.654 4278.427 6722.661 2507.282 3124.264 7197.995 6649.686 2343.152 2464.586 1622.960 4391.276 2620.336 2466.055 2764.782 2129.211 2858.520 2491.704 833.062 1026.158 2648.829 3171.803 4088.234 2195.325 3103.646 6757.102 5132.953 2445.931 1047.285 2478.419 2466.630 2579.447 2834.195 1170.232 1579.170 4652.154 5299.488 1755.744 5485.466 2521.046 2604.975 3333.946 3271.395 2346.932 1799.106 2760.965 56.651 1298.673 946.162 2332.685
5027.237 6855.148 4616.980 6653.226 5687.885 6563.057 4943.843 7734.343 4052.099 6933.511 5884.025 4869.539 8454.134 9450.876 4166.546 4611.523 8605.747 6953.236 4800.190 4306.110 6961.632 7459.646 4820.490 5430.292 2904.216 5113.198 4675.051 6960.932 5544.298 4319.365 7792.827 2731.334 4811.878 6483.702 4679.577 7027.260 5662.635 4640.976 6148.361 3075.682 4436.253 4258.602 4905.672 6552.962 4540.277 4524.697 4917.047 6715.569 7269.106 4128.896 6357.631 7013.654 0.000 4226.698 3099.977 4509.250 4134.085 5954.286 6037.513 4793.261 4653.512 6486.965 2632.228 4535.209 5514.895 4261.164 4942.072 4168.913 4868.709 6402.382 7622.262 5434.816 7895.158 3065.499 4949.950 4020.392 2339.789 5793.088 7112.421 6503.467 4661.259 4579.887 4434.800 5802.904 6524.206 7638.169 4437.796 6069.438 8424.454 2799.648 4493.175 4409.099 6549.040 4549.348 8187.388 6117.359 5206.228 6957.068 7870.769 7485.206 4681.962
3873.958 4178.840 2986.938 5048.384 3729.252 7172.009 3730.522 6526.965 5074.185 3024.118 6703.301 2659.965 5679.802 8606.950 2313.396 1436.876 5838.339 3351.645 2935.489 4331.672 4063.354 7413.056 3604.537 4312.548 1685.532 1711.917 3683.149 4222.386 2389.760 2929.017 4358.822 1874.220 3427.964 4513.289 3332.909 2872.296 3375.341 3358.214 5598.039 6653.521 4393.700 2976.171 3009.436 4115.793 4168.283 4292.071 2115.387 4027.717 5381.007 3405.428 7013.887 4278.427 4226.698 0.000 2562.716 2706.523 3375.836 7961.632 7689.179 3281.906 3193.749 4804.110 2382.047 1996.640 4482.855 2722.737 3168.957 2294.895 3684.624 4136.537 5239.971 4554.035 6718.815 1777.530 2284.324 1854.027 5449.801 6598.320 5799.545 4426.823 3247.604 2940.205 2548.810 5044.042 4534.063 5603.820 5296.368 6883.516 5032.113 4706.830 2572.458 2545.719 5959.812 4173.384 6364.242 4574.990 4411.491 4230.211 4540.371 5125.216 2740.709
5701.536 6604.039 4911.169 7162.322 5886.633 8443.551 5567.804 8561.308 5975.128 5554.864 7845.444 4802.214 8167.018 10569.230 4211.882 3811.147 8326.836 5914.330 4962.251 5648.578 6540.256 9002.524 5426.227 6172.030 2742.143 4202.739 5409.357 6665.553 4858.226 4723.223 6919.599 2766.629 5303.625 6730.623 5176.834 5247.795 5628.544 5175.376 7313.302 6140.394 5753.702 4724.336 5061.338 6468.418 5661.244 5733.070 4435.071 6450.126 7612.925 4949.655 8254.215 6722.661 3099.977 2562.716 0.000 4665.184 4932.355 8530.050 8446.379 5196.097 5070.000 6933.143 3222.404 4178.902 6320.866 4550.240 5187.426 4200.035 5502.289 6434.673 7620.963 6331.573 8748.869 3018.627 4570.526 3797.378 5204.584 7741.175 7842.040 6676.653 5110.296 4861.125 4518.289 6810.272 6759.605 7892.598 6307.689 8038.605 7593.347 5071.266 4563.981 4503.131 7715.024 5669.019 8610.682 6634.622 6135.673 6670.641 7095.601 7496.091 4772.339
1169.281 2347.132 280.702 2497.511 1260.242 4581.921 1026.172 3913.510 2935.694 3204.515 4203.042 429.431 3946.620 5962.355 453.319 1420.251 4099.442 2857.648 311.270 1925.346 2479.622 4715.162 906.182 1607.687 1991.808 1602.782 1025.068 2455.531 1479.969 372.201 3464.201 2051.479 722.214 2111.210 637.753 3794.032 1154.135 674.156 2893.779 5665.213 1936.266 466.889 418.861 2050.262 1628.477 1778.716 958.874 2210.034 2980.832 991.020 4444.469 2507.282 4509.250 2706.523 4665.184 0.000 956.808 5798.934 5398.510 575.932 493.093 2270.898 1902.323 778.706 1776.947 273.530 523.101 465.323 985.099 1923.271 3159.061 1849.408 4103.451 1717.126 828.019 893.925 4425.471 4103.023 3188.023 2087.760 549.361 235.602 158.423 2338.090 2145.436 3296.667 3017.310 4366.845 4033.402 3234.690 139.896 166.239 3253.330 1630.615 3972.583 1970.831 1719.127 2450.846 3482.310 3023.453 178.124
896.278 2957.111 804.446 2524.112 1652.536 3796.320 810.379 3731.068 1978.952 4153.435 3349.058 1354.101 4456.337 5661.651 1128.696 2279.171 4597.403 3763.976 1043.072 999.006 3174.107 4118.584 693.034 1329.981 2196.914 2536.723 545.837 3080.631 2429.319 586.032 4271.116 2167.684 734.264 2374.222 627.054 4749.455 1797.996 570.074 2381.465 4845.325 1035.694 495.224 1103.669 2582.624 793.851 917.089 1909.722 2845.113 3135.268 34.556 3640.149 3124.264 4134.085 3375.836 4932.355 956.808 0.000 4853.497 4472.740 786.443 683.231 2352.916 1785.891 1669.658 1446.985 756.576 1031.496 1148.540 735.535 2381.417 3544.838 1420.747 3909.114 1928.571 1784.759 1544.951 3637.254 3245.653 3051.073 2414.917 656.097 807.006 1049.969 1884.237 2416.268 3507.387 2073.515 3523.620 4786.724 2384.315 1072.769 1033.894 2782.721 799.372 4061.172 1984.376 1211.264 3071.075 4250.358 3408.792 1086.616
4968.622 7055.509 5592.322 5581.697 5876.478 2399.817 5056.079 5386.101 2914.017 8918.350 2084.633 6156.230 7978.104 5808.829 5956.404 7106.472 8056.510 8402.330 5803.001 3875.843 7397.159 3625.742 5088.367 4863.787 6364.332 7390.202 4877.339 7180.763 7225.579 5435.426 8615.399 6213.752 5278.813 6019.537 5271.183 9585.467 6259.980 5212.197 4088.865 3594.364 3879.220 5347.718 5821.655 6638.227 4215.157 4057.925 6757.693 7018.212 6150.308 4818.952 2307.241 7197.995 5954.286 7961.632 8530.050 5798.934 4853.497 0.000 647.095 5423.603 5401.174 5647.281 5662.084 6519.200 4748.925 5609.233 5683.663 5975.698 5040.073 6376.744 6977.203 4567.669 5410.872 6205.318 6621.430 6308.829 3644.926 2127.319 5309.921 6161.238 5349.205 5611.926 5902.745 4376.076 6054.947 6499.804 2781.687 2064.380 8936.687 3463.388 5922.586 5887.211 4176.385 4215.540 6458.335 5404.717 4499.495 7163.458 8495.104 6884.841 5903.306
4495.585 6511.818 5175.406 4997.244 5372.660 1752.767 4593.297 4747.008 2616.304 8459.608 1474.995 5733.851 7378.599 5179.244 5594.368 6748.048 7452.661 7913.962 5374.917 3477.103 6860.684 2981.742 4638.535 4350.089 6143.706 7000.064 4437.966 6635.204 6789.701 5044.182 8079.136 6006.640 4834.478 5461.051 4839.712 9159.701 5772.556 4783.205 3494.736 3948.214 3462.631 4960.822 5384.339 6098.285 3783.766 3628.519 6355.146 6482.456 5548.894 4438.512 1663.643 6649.686 6037.513 7689.179 8446.379 5398.510 4472.740 647.095 0.000 4984.908 4975.531 5075.706 5455.770 6141.753 4224.542 5228.084 5238.533 5614.018 4584.328 5837.168 6384.514 4046.025 4768.419 5962.908 6210.070 5972.847 3799.626 1529.998 4692.112 5606.531 4921.475 5199.178 5512.736 3816.782 5494.981 5890.906 2412.073 1434.599 8376.239 3389.985 5527.556 5499.219 3558.530 3783.054 5826.624 4851.076 3998.377 6617.439 7948.352 6296.263 5489.616
600.841 2176.220 297.721 1992.434 900.520 4062.487 460.289 3366.323 2644.646 3498.777 3724.289 764.886 3704.295 5400.425 1005.919 1967.318 3849.446 3041.502 403.055 1570.639 2387.669 4146.424 361.325 1031.795 2482.707 2080.325 547.287 2298.354 1805.146 500.332 3494.284 2514.696 159.902 1698.987 167.829 4175.019 1012.333 231.006 2321.802 5630.750 1548.513 540.743 399.436 1812.753 1208.462 1365.741 1419.829 2060.998 2531.204 811.158 3934.609 2343.152 4793.261 3281.906 5196.097 575.932 786.443 5423.603 4984.908 0.000 141.610 1781.161 2271.815 1327.182 1201.102 647.189 267.126 1021.213 432.749 1628.053 2830.678 1278.237 3554.761 2203.069 1255.008 1462.637 4423.438 3627.507 2645.956 1710.573 136.545 346.802 734.236 1764.497 1738.073 2875.643 2661.390 3879.597 4001.248 3168.665 709.715 739.584 2677.976 1208.071 3505.160 1450.766 1162.471 2289.346 3466.769 2693.630 566.439
680.486 2298.025 217.050 2129.058 1037.195 4100.129 537.029 3491.309 2592.250 3534.233 3740.734 758.329 3836.967 5517.106 897.603 1908.648 3982.953 3102.700 401.924 1532.531 2498.813 4223.328 413.175 1132.423 2350.489 2054.360 549.498 2418.708 1825.223 360.918 3587.918 2378.817 239.299 1840.475 146.585 4186.791 1120.146 194.065 2404.338 5526.758 1521.964 399.166 435.065 1941.570 1191.804 1347.573 1395.828 2179.351 2672.158 710.912 3966.811 2464.586 4653.512 3193.749 5070.000 493.093 683.231 5401.174 4975.531 141.610 0.000 1919.941 2130.571 1266.235 1297.618 520.118 348.470 914.041 492.409 1762.343 2969.510 1360.307 3679.024 2070.624 1239.802 1359.239 4313.069 3642.370 2773.409 1850.979 57.498 257.762 647.481 1850.900 1879.491 3017.210 2628.762 3900.188 4106.509 3066.929 632.276 648.624 2769.131 1192.477 3644.767 1585.844 1226.039 2410.259 3568.377 2832.447 525.439
1461.882 1512.362 2041.726 246.400 1075.625 3639.761 1544.064 1737.132 3464.314 3885.340 3612.780 2164.380 2407.836 3825.088 2723.676 3374.162 2515.734 3174.902 1970.901 2498.681 1884.060 3178.979 1671.838 1115.726 4252.533 3249.993 1813.563 1621.361 2664.900 2280.824 3069.531 4293.345 1714.978 443.340 1851.382 4764.783 1456.747 1877.133 1611.691 6827.788 2390.040 2311.295 1872.360 1151.812 2120.506 2214.239 2699.316 1531.883 784.961 2358.257 3597.134 1622.960 6486.965 4804.110 6933.143 2270.898 2352.916 5647.281 5075.706 1781.161 1919.941 0.000 4043.421 2825.904 1105.676 2419.043 1747.798 2734.726 1619.365 928.469 1393.691 1264.301 1928.041 3974.277 2524.302 3139.710 5730.592 3548.183 1025.382 601.181 1893.741 2090.498 2415.208 1278.892 461.886 1169.893 3276.247 3697.084 3304.686 4435.317 2369.165 2430.972 1716.802 2112.668 1726.378 375.630 1455.475 1602.040 2905.607 1278.995 2161.548
2645.915 4235.268 2049.382 4241.812 3132.036 5244.500 2531.411 5513.513 2865.607 4471.748 4674.053 2241.869 5844.439 7441.061 1535.941 2124.628 5998.397 4385.564 2205.188 2426.202 4330.659 5783.159 2392.788 3103.272 709.598 2609.181 2313.097 4337.704 2949.189 1773.527 5179.145 552.086 2328.492 3964.628 2192.109 4746.541 3053.923 2168.737 4132.845 4378.734 2531.727 1733.816 2312.963 3952.198 2456.988 2518.178 2310.105 4092.902 4802.505 1795.960 5060.566 4391.276 2632.228 2382.047 3222.404 1902.323 1785.891 5662.084 5455.770 2271.815 2130.571 4043.421 0.000 1924.214 3229.701 1674.624 2373.911 1537.667 2458.020 3821.958 5055.637 3206.093 5693.026 629.411 2327.394 1416.197 3136.957 4568.447 4823.758 3961.833 2151.924 2006.678 1813.621 3661.331 4002.352 5146.203 3158.181 4865.339 5800.974 2326.661 1871.939 1788.596 4540.573 2465.159 5769.790 3695.040 2993.026 4334.626 5246.377 4919.359 2069.018
1928.006 2482.489 1049.376 3067.403 1751.684 5360.589 1787.117 4536.284 3623.805 2658.013 4975.117 665.168 4093.454 6612.392 582.654 642.417 4252.407 2473.668 951.142 2665.222 2499.572 5471.406 1676.118 2340.932 1725.181 880.770 1803.774 2563.656 1028.482 1102.397 3258.712 1852.900 1483.200 2571.354 1412.524 3130.963 1451.174 1451.955 3644.420 6088.948 2688.748 1181.963 1016.716 2298.934 2395.013 2541.512 386.197 2330.070 3452.654 1704.028 5222.515 2620.336 4535.209 1996.640 4178.902 778.706 1669.658 6519.200 6141.753 1327.182 1266.235 2825.904 1924.214 0.000 2513.872 913.669 1180.240 565.449 1753.227 2255.771 3453.329 2603.332 4728.033 1498.459 429.798 515.058 4832.546 4874.315 3807.932 2505.639 1323.451 1009.668 639.932 3085.166 2597.209 3716.938 3742.057 5140.945 3890.334 3736.775 639.323 649.290 3989.889 2397.749 4448.774 2581.267 2487.577 2565.024 3337.604 3325.475 763.721
624.881 2316.587 1497.348 1195.730 1168.616 3030.124 765.388 2284.301 2370.844 4316.666 2824.938 1891.070 3487.892 4248.365 2194.968 3145.634 3604.122 3713.091 1563.313 1395.321 2650.029 2963.689 903.110 173.882 3580.399 3190.713 920.190 2444.078 2772.654 1612.923 3867.275 3577.709 1059.215 1346.271 1168.274 5103.538 1603.028 1157.574 1135.620 5722.166 1284.729 1600.338 1508.423 1896.123 1030.597 1112.400 2543.880 2271.147 1860.207 1440.609 2934.200 2466.055 5514.895 4482.855 6320.866 1776.947 1446.985 4748.925 4224.542 1201.102 1297.618 1105.676 3229.701 2513.872 0.000 1804.605 1340.187 2211.567 824.228 1635.511 2483.892 182.799 2463.328 3302.590 2365.955 2656.840 4630.365 2741.993 1609.719 1464.532 1247.373 1545.122 1935.125 576.123 1387.540 2256.377 2211.505 2949.040 4219.939 3336.614 1910.406 1939.695 1477.747 1022.249 2691.238 751.923 350.360 2427.625 3755.340 2361.399 1751.212
1180.410 2602.964 380.718 2635.444 1458.829 4487.785 1039.229 4011.163 2724.038 3447.078 4076.261 700.286 4193.201 6035.659 410.170 1532.600 4344.591 3122.125 539.145 1751.712 2746.247 4693.257 902.771 1643.812 1836.624 1781.291 960.432 2713.913 1726.566 206.842 3737.722 1874.705 756.522 2299.200 636.986 4006.041 1404.275 648.869 2888.713 5394.904 1777.828 271.051 644.608 2291.888 1495.192 1637.087 1165.423 2468.679 3154.163 791.037 4341.796 2764.782 4261.164 2722.737 4550.240 273.530 756.576 5609.233 5228.084 647.189 520.118 2419.043 1674.624 913.669 1804.605 0.000 700.615 429.176 982.689 2149.850 3381.705 1851.139 4199.021 1557.314 1056.994 869.817 4153.633 3974.341 3292.321 2289.507 563.076 334.771 304.517 2343.390 2335.668 3484.743 2829.980 4245.738 4305.937 2969.931 341.119 284.383 3264.410 1498.651 4137.379 2096.264 1693.588 2708.555 3755.207 3245.272 450.100
793.202 1963.436 326.122 1974.913 758.329 4276.601 666.620 3401.061 2911.770 3236.040 3960.112 554.460 3523.187 5460.233 976.093 1806.251 3671.739 2774.423 234.968 1836.802 2153.754 4303.528 600.500 1166.412 2510.845 1870.414 806.671 2081.983 1552.377 624.527 3239.990 2563.209 404.956 1600.677 433.111 3924.357 775.133 496.341 2475.151 5875.119 1812.183 695.165 168.818 1621.223 1469.729 1627.086 1213.809 1840.612 2463.115 1058.779 4154.923 2129.211 4942.072 3168.957 5187.426 523.101 1031.496 5683.663 5238.533 267.126 348.470 1747.798 2373.911 1180.240 1340.187 700.615 0.000 987.505 660.022 1460.319 2686.282 1443.825 3591.695 2234.483 1040.486 1404.247 4660.141 3864.796 2673.825 1588.902 378.790 367.250 669.955 1915.148 1636.527 2786.882 2925.805 4111.533 3758.708 3415.395 627.615 684.364 2812.118 1468.954 3452.403 1451.665 1358.845 2074.267 3220.017 2549.530 432.016
1591.577 2705.007 725.052 2962.393 1709.697 4913.078 1448.590 4376.678 3071.632 3207.913 4491.298 708.469 4319.983 6420.293 19.866 1134.072 4475.580 2969.557 765.902 2146.776 2793.033 5119.073 1316.967 2046.290 1541.917 1444.193 1388.661 2804.301 1528.386 636.018 3680.947 1616.467 1153.003 2561.938 1046.183 3696.319 1545.208 1066.542 3309.610 5552.557 2182.921 692.397 869.053 2444.405 1914.076 2051.795 902.026 2560.320 3436.718 1181.937 4765.084 2858.520 4168.913 2294.895 4200.035 465.323 1148.540 5975.698 5614.018 1021.213 914.041 2734.726 1537.667 565.449 2211.567 429.176 987.505 0.000 1397.306 2341.737 3576.002 2268.372 4566.311 1272.397 852.640 446.108 4298.813 4388.651 3651.961 2529.675 964.486 675.165 321.247 2760.371 2594.771 3744.455 3206.120 4662.971 4284.693 3179.164 372.430 303.941 3680.384 1917.988 4430.799 2436.087 2117.901 2801.891 3729.790 3441.898 585.188
199.736 2325.706 706.044 1797.812 996.689 3630.097 75.343 3074.040 2328.760 3879.444 3300.645 1194.458 3760.712 5068.407 1379.968 2394.985 3897.347 3379.736 834.630 1240.000 2585.490 3731.013 80.340 669.836 2765.113 2512.124 226.709 2453.542 2210.943 788.774 3746.471 2771.681 272.968 1647.207 351.851 4582.958 1264.968 334.005 1913.736 5457.775 1193.779 778.201 817.509 1926.958 844.856 999.609 1851.739 2231.042 2400.404 743.469 3503.372 2491.704 4868.709 3684.624 5502.289 985.099 735.535 5040.073 4584.328 432.749 492.409 1619.365 2458.020 1753.227 824.228 982.689 660.022 1397.306 0.000 1703.569 2825.925 871.109 3258.163 2486.167 1685.167 1843.409 4283.394 3205.034 2371.049 1698.426 437.371 749.502 1139.885 1363.070 1689.803 2771.863 2303.403 3453.291 4208.947 3000.559 1123.744 1140.729 2283.360 842.397 3334.622 1254.051 734.744 2441.672 3691.627 2690.905 997.268
1639.417 681.078 1785.732 1144.321 730.236 4501.843 1641.785 2575.139 3931.180 2957.087 4403.517 1657.498 2077.329 4640.418 2336.730 2703.970 2221.521 2249.652 1616.971 2867.605 1023.927 4105.217 1715.749 1544.709 3877.755 2485.460 1930.261 808.851 1845.421 2083.607 2241.987 3958.197 1647.999 491.318 1765.789 3840.877 810.234 1816.567 2467.612 7157.894 2787.496 2148.339 1509.054 261.485 2457.928 2590.908 2031.703 647.222 1258.793 2399.441 4441.082 833.062 6402.382 4136.537 6434.673 1923.271 2381.417 6376.744 5837.168 1628.053 1762.343 928.469 3821.958 2255.771 1635.511 2149.850 1460.319 2341.737 1703.569 0.000 1236.097 1818.292 2759.327 3612.718 1877.185 2671.853 5986.717 4328.933 1908.558 344.472 1764.211 1823.997 2030.821 2032.265 486.001 1470.400 3819.729 4507.499 2588.804 4703.601 1974.615 2053.430 2625.106 2452.359 2228.433 1005.509 1927.953 792.694 2120.352 1101.004 1765.740
2714.799 1080.870 3012.398 1403.585 1934.520 4836.310 2755.538 2190.695 4852.905 3445.945 4910.060 2884.471 1016.303 4020.616 3571.416 3835.773 1122.263 2670.032 2851.806 3859.212 1320.570 4124.573 2855.628 2464.672 5107.972 3537.442 3046.117 1073.949 2860.914 3304.724 2144.062 5192.263 2826.127 1184.847 2953.452 4375.803 2034.871 2997.871 2890.147 8194.749 3757.778 3363.675 2743.711 1154.438 3465.289 3573.702 3187.562 1223.941 859.665 3558.396 4827.152 1026.158 7622.262 5239.971 7620.963 3159.061 3544.838 6977.203 6384.514 2830.678 2969.510 1393.691 5055.637 3453.329 2483.892 3381.705 2686.282 3576.002 2825.925 1236.097 0.000 2650.802 2329.249 4845.255 3050.887 3893.134 7069.462 4855.864 1798.049 1129.924 2964.317 3052.591 3266.566 2653.060 1141.512 651.884 4669.938 4971.741 2146.692 5774.396 3210.158 3289.315 2870.069 3458.138 1354.264 1732.069 2828.721 1060.301 1905.095 137.066 3001.738
680.242 2499.369 1568.727 1334.226 1337.345 2878.194 823.596 2324.823 2202.117 4478.876 2653.764 1998.141 3658.200 4244.383 2250.974 3240.563 3772.320 3884.271 1658.236 1254.256 2832.260 2868.366 951.446 313.865 3589.446 3308.613 923.200 2626.876 2913.545 1652.487 4049.200 3576.628 1127.221 1523.921 1222.729 5255.974 1763.974 1202.935 1044.380 5567.055 1137.952 1629.457 1612.612 2078.861 913.174 976.719 2656.019 2453.428 2002.283 1410.141 2776.244 2648.829 5434.816 4554.035 6331.573 1849.408 1420.747 4567.669 4046.025 1278.237 1360.307 1264.301 3206.093 2603.332 182.799 1851.139 1443.825 2268.372 871.109 1818.292 2650.802 0.000 2498.192 3313.860 2480.244 2714.460 4488.562 2569.322 1677.634 1644.747 1306.812 1614.554 2006.177 492.279 1564.761 2399.792 2033.770 2781.467 4402.582 3197.683 1986.066 2008.491 1413.281 904.398 2800.318 921.780 228.640 2610.424 3938.039 2530.138 1839.793
3061.776 3134.542 3844.443 1681.644 2993.397 3033.554 3189.312 191.853 4200.983 5626.611 3376.414 4062.876 3073.367 1897.102 4552.598 5295.535 3083.565 4867.585 3825.224 3599.485 3482.072 1994.454 3331.297 2594.827 6020.202 5176.934 3381.749 3197.915 4578.711 4026.857 4468.403 6029.800 3445.406 2289.647 3573.369 6542.034 3384.532 3578.018 1806.068 7554.683 3469.164 4031.075 3736.858 2909.747 3359.432 3370.614 4623.708 3218.992 1595.079 3901.394 3104.810 3171.803 7895.158 6718.815 8748.869 4103.451 3909.114 5410.872 4768.419 3554.761 3679.024 1928.041 5693.026 4728.033 2463.328 4199.021 3591.695 4566.311 3258.163 2759.327 2329.249 2498.192 0.000 5740.555 4447.089 4994.814 6654.319 3366.214 920.239 2418.016 3638.627 3894.631 4257.396 2092.944 2283.079 1677.470 3875.162 3357.173 4448.501 5431.120 4218.324 4269.095 1463.005 3350.360 1188.088 2147.832 2721.243 3178.921 4233.991 2327.083 4021.777
2684.894 3941.598 1932.571 4192.570 2976.448 5612.579 2553.007 5554.616 3349.775 3911.568 5082.115 1963.280 5559.691 7550.877 1278.738 1563.063 5717.147 3888.318 2027.483 2748.814 3988.747 6039.092 2411.105 3155.313 279.954 2061.315 2391.108 4032.502 2483.933 1715.684 4737.718 355.585 2298.436 3828.119 2168.135 4139.121 2811.093 2162.595 4307.306 5003.437 2836.257 1709.782 2133.750 3706.208 2689.813 2781.451 1869.249 3792.494 4697.133 1948.804 5438.261 4088.234 3065.499 1777.530 3018.627 1717.126 1928.571 6205.318 5962.908 2203.069 2070.624 3974.277 629.411 1498.459 3302.590 1557.314 2234.483 1272.397 2486.167 3612.718 4845.255 3313.860 5740.555 0.000 1925.981 990.212 3764.799 4976.122 4841.450 3800.545 2106.697 1883.794 1589.595 3795.019 3862.011 5012.968 3607.036 5269.681 5379.852 2933.982 1643.486 1569.155 4705.057 2696.882 5686.702 3653.415 3121.049 4032.020 4829.259 4711.766 1855.767
1832.592 2060.501 1034.895 2769.720 1453.865 5313.749 1701.732 4255.386 3763.693 2391.421 4977.231 490.722 3667.452 6341.270 863.586 850.054 3826.653 2116.993 852.081 2745.672 2069.924 5326.373 1616.172 2192.472 2154.942 829.931 1787.619 2138.459 680.942 1199.271 2852.654 2280.966 1414.255 2230.566 1381.379 2966.976 1093.224 1433.800 3500.548 6399.246 2748.915 1292.548 873.531 1897.895 2427.930 2582.116 180.872 1907.381 3103.624 1819.004 5188.519 2195.325 4949.950 2284.324 4570.526 828.019 1784.759 6621.430 6210.070 1255.008 1239.802 2524.302 2327.394 429.798 2365.955 1056.994 1040.486 852.640 1685.167 1877.185 3050.887 2480.244 4447.089 1925.981 0.000 937.611 5147.376 4879.670 3531.182 2149.879 1295.688 1011.240 752.843 2941.965 2252.516 3346.745 3840.728 5133.991 3474.981 4004.815 718.383 774.562 3820.369 2429.092 4093.751 2317.615 2398.955 2140.370 2920.940 2925.577 720.455
2037.572 2959.787 1165.125 3372.584 2089.619 5334.000 1894.511 4804.469 3395.133 3099.832 4893.456 1015.916 4576.661 6856.261 463.527 831.474 4734.745 2970.539 1172.948 2530.915 2998.786 5562.971 1763.070 2490.834 1230.013 1251.070 1829.983 3047.560 1533.332 1075.494 3772.894 1345.741 1597.800 2936.437 1492.265 3486.754 1862.113 1512.350 3755.403 5653.223 2578.440 1122.643 1267.967 2743.960 2328.939 2460.231 897.464 2809.362 3817.616 1576.604 5181.716 3103.646 4020.392 1854.027 3797.378 893.925 1544.951 6308.829 5972.847 1462.637 1359.239 3139.710 1416.197 515.058 2656.840 869.817 1404.247 446.108 1843.409 2671.853 3893.134 2714.460 4994.814 990.212 937.611 0.000 4395.797 4789.791 4077.761 2889.942 1410.235 1115.835 737.935 3206.476 2966.625 4108.308 3560.777 5068.536 4405.389 3356.598 776.735 727.687 4126.471 2333.471 4814.965 2855.526 2562.548 3047.669 3852.595 3761.930 978.979
4365.625 6589.949 4388.308 5822.309 5269.639 4646.336 4346.756 6528.507 2454.722 7487.678 3958.671 4853.910 8035.244 7910.404 4286.335 5197.240 8167.058 7260.315 4624.198 3235.612 6810.813 5730.163 4272.203 4617.992 3780.191 5646.605 4056.817 6714.825 5826.566 4097.083 7880.089 3584.608 4362.607 5886.607 4263.729 7856.300 5432.960 4205.216 4851.167 1257.500 3350.697 4005.854 4705.532 6204.338 3611.414 3518.002 5197.709 6481.265 6489.482 3613.702 4443.815 6757.102 2339.789 5449.801 5204.584 4425.471 3637.254 3644.926 3799.626 4423.438 4313.069 5730.592 3136.957 4832.546 4630.365 4153.633 4660.141 4298.813 4283.394 5986.717 7069.462 4488.562 6654.319 3764.799 5147.376 4395.797 0.000 3886.450 6046.984 5961.538 4291.346 4373.158 4432.231 4692.741 5930.039 6886.334 2799.878 4122.782 8418.373 1295.926 4481.677 4406.713 5198.884 3619.049 7251.167 5362.272 4280.398 6704.680 7876.758 6938.607 4597.032
3087.763 4998.681 3853.912 3467.247 3906.457 772.604 3201.264 3317.426 1794.879 7035.695 106.002 4391.493 5852.981 4149.184 4368.799 5505.739 5929.860 6453.579 4028.788 2266.880 5352.686 1893.866 3268.694 2880.611 5198.225 5696.283 3093.007 5120.455 5411.081 3775.607 6569.335 5095.470 3470.137 3939.494 3498.935 7780.084 4325.400 3448.515 1965.717 4481.593 2211.492 3703.418 4021.665 4589.051 2480.153 2337.547 5038.189 4975.896 4024.143 3213.560 566.727 5132.953 5793.088 6598.320 7741.175 4103.023 3245.653 2127.319 1529.998 3627.507 3642.370 3548.183 4568.447 4874.315 2741.993 3974.341 3864.796 4388.651 3205.034 4328.933 4855.864 2569.322 3366.214 4976.122 4879.670 4789.791 3886.450 0.000 3186.706 4087.129 3585.706 3884.966 4234.506 2299.180 3972.497 4372.503 1437.391 297.534 6851.219 2993.783 4239.409 4225.179 2055.287 2477.125 4355.335 3334.131 2553.570 5102.383 6431.136 4766.671 4167.397
2178.957 2377.368 2932.516 781.795 2077.438 3068.251 2299.785 728.663 3630.079 4841.957 3225.296 3142.764 2727.607 2810.116 3638.624 4378.484 2784.078 4103.507 2906.810 2873.361 2743.847 2338.850 2441.100 1722.064 5121.389 4272.577 2512.289 2461.401 3689.899 3125.779 3837.743 5138.593 2543.054 1421.797 2673.693 5740.801 2478.965 2682.462 1293.314 7035.924 2746.045 3135.369 2817.518 2091.610 2579.994 2617.953 3708.653 2437.029 942.709 3046.673 3079.084 2445.931 7112.421 5799.545 7842.040 3188.023 3051.073 5309.921 4692.112 2645.956 2773.409 1025.382 4823.758 3807.932 1609.719 3292.321 2673.825 3651.961 2371.049 1908.558 1798.049 1677.634 920.239 4841.450 3531.182 4077.761 6046.984 3186.706 0.000 1564.229 2735.252 2982.678 3341.021 1359.145 1422.836 1218.542 3351.242 3259.415 3934.098 4781.826 3301.044 3353.267 1133.832 2570.998 1231.533 1227.642 1906.197 2441.700 3631.136 1747.357 3103.099
1596.679 922.771 1912.479 804.498 830.828 4220.602 1629.104 2232.928 3817.048 3293.542 4157.276 1876.170 2074.410 4303.036 2522.419 2990.342 2205.646 2575.742 1776.519 2781.957 1290.894 3779.088 1726.265 1405.652 4071.575 2799.735 1920.483 1038.651 2172.821 2195.211 2491.968 4138.725 1698.181 158.275 1827.132 4182.142 1058.273 1870.004 2185.565 7107.098 2690.153 2248.490 1668.996 550.727 2378.167 2498.654 2312.868 932.073 954.312 2428.565 4169.232 1047.285 6503.467 4426.823 6676.653 2087.760 2414.917 6161.238 5606.531 1710.573 1850.979 601.181 3961.833 2505.639 1464.532 2289.507 1588.902 2529.675 1698.426 344.472 1129.924 1644.747 2418.016 3800.545 2149.879 2889.942 5961.538 4087.129 1564.229 0.000 1842.216 1955.715 2210.974 1789.767 143.334 1218.372 3675.041 4252.204 2776.115 4669.339 2157.535 2231.447 2315.040 2371.659 1944.961 756.541 1786.985 1019.943 2344.199 993.942 1944.958
627.744 2311.565 274.458 2099.528 1036.060 4042.633 484.446 3451.382 2546.626 3582.890 3683.967 812.751 3840.669 5472.587 947.721 1965.868 3985.678 3144.575 454.102 1482.966 2519.473 4168.339 357.694 1083.560 2386.648 2111.287 492.709 2433.330 1876.553 391.826 3617.803 2411.161 193.591 1826.877 89.142 4239.945 1142.178 138.426 2350.462 5501.422 1470.066 418.128 480.145 1949.242 1138.021 1294.142 1452.499 2195.356 2650.970 682.182 3909.377 2478.419 4661.259 3247.604 5110.296 549.361 656.097 5349.205 4921.475 136.545 57.498 1893.741 2151.924 1323.451 1247.373 563.076 378.790 964.486 437.371 1764.211 2964.317 1306.812 3638.627 2106.697 1295.688 1410.235 4291.346 3585.706 2735.252 1842.216 0.000 314.437 702.892 1797.924 1866.452 2999.745 2578.453 3843.180 4130.675 3040.218 688.789 703.389 2716.859 1138.538 3619.667 1554.835 1170.048 2424.472 3594.421 2827.297 582.520
934.320 2302.605 50.188 2310.410 1125.424 4353.279 791.062 3705.527 2771.889 3350.898 3984.195 551.168 3878.895 5745.272 660.272 1652.022 4028.802 2959.888 251.062 1736.270 2468.429 4479.695 670.656 1377.076 2162.083 1812.470 797.384 2417.407 1629.593 280.028 3507.295 2206.207 487.760 1964.430 403.253 3973.860 1102.922 442.923 2658.923 5601.937 1737.676 367.613 340.247 1975.918 1419.081 1572.205 1158.209 2173.432 2820.581 839.539 4217.961 2466.630 4579.887 2940.205 4861.125 235.602 807.006 5611.926 5199.178 346.802 257.762 2090.498 2006.678 1009.668 1545.122 334.771 367.250 675.165 749.502 1823.997 3052.591 1614.554 3894.631 1883.794 1011.240 1115.835 4373.158 3884.966 2982.678 1955.715 314.437 0.000 391.628 2103.877 2000.925 3150.003 2832.715 4145.877 4052.937 3153.734 374.524 394.764 3020.235 1420.590 3805.530 1775.319 1483.656 2410.911 3507.011 2915.930 291.392
1325.939 2422.290 438.141 2644.215 1389.013 4724.227 1182.653 4067.213 3024.503 3143.719 4335.235 443.248 4031.081 6118.650 312.294 1277.234 4185.376 2832.488 444.994 2035.957 2533.950 4870.764 1060.501 1766.025 1861.130 1488.603 1169.526 2526.410 1425.318 468.641 3479.584 1929.992 879.291 2241.284 790.412 3703.778 1243.687 823.331 3050.541 5677.999 2054.035 555.060 547.812 2143.858 1755.689 1903.150 862.541 2281.187 3115.522 1084.521 4584.385 2579.447 4434.800 2548.810 4518.289 158.423 1049.969 5902.745 5512.736 734.236 647.481 2415.208 1813.621 639.932 1935.125 304.517 669.955 321.247 1139.885 2030.821 3266.566 2006.177 4257.396 1589.595 752.843 737.935 4432.231 4234.506 3341.021 2210.974 702.892 391.628 0.000 2495.409 2274.368 3424.548 3121.699 4501.036 4063.390 3263.689 58.402 26.559 3411.215 1758.313 4109.555 2121.202 1872.813 2522.823 3510.055 3131.786 266.356
1170.414 2699.563 2057.436 1254.903 1692.323 2502.837 1313.872 1931.785 2300.769 4840.040 2371.931 2466.899 3669.030 3779.766 2743.034 3719.216 3767.329 4206.795 2136.053 1521.749 3055.098 2388.406 1443.407 749.880 4069.049 3766.079 1408.957 2821.298 3335.564 2144.385 4270.620 4049.826 1616.127 1644.842 1714.430 5647.696 2140.786 1695.203 560.014 5708.281 1392.832 2119.780 2083.636 2291.431 1267.335 1280.019 3119.984 2679.478 1898.769 1870.254 2424.118 2834.195 5802.904 5044.042 6810.272 2338.090 1884.237 4376.076 3816.782 1764.497 1850.900 1278.892 3661.331 3085.166 576.123 2343.390 1915.148 2760.371 1363.070 2032.265 2653.060 492.279 2092.944 3795.019 2941.965 3206.476 4692.741 2299.180 1359.145 1789.767 1797.924 2103.877 2495.409 0.000 1679.505 2289.398 2058.209 2475.810 4561.780 3423.166 2473.811 2498.334 921.109 1258.276 2560.422 1035.108 674.661 2803.253 4132.704 2546.845 2321.596
1573.514 1053.099 1956.019 661.169 885.602 4092.001 1618.196 2096.981 3752.448 3436.859 4040.968 1957.474 2116.281 4171.397 2586.599 3097.191 2241.402 2718.149 1834.609 2731.946 1423.712 3637.499 1723.854 1343.523 4135.179 2920.319 1907.538 1165.226 2300.944 2230.366 2617.259 4196.428 1712.553 43.433 1844.665 4325.242 1159.349 1883.840 2058.553 7064.278 2635.691 2278.554 1728.294 692.176 2332.539 2447.184 2418.734 1070.041 855.498 2428.014 4043.842 1170.232 6524.206 4534.063 6759.605 2145.436 2416.268 6054.947 5494.981 1738.073 1879.491 461.886 4002.352 2597.209 1387.540 2335.668 1636.527 2594.771 1689.803 486.001 1141.512 1564.761 2283.079 3862.011 2252.516 2966.625 5930.039 3972.497 1422.836 143.334 1866.452 2000.925 2274.368 1679.505 0.000 1151.286 3598.453 4132.567 2882.275 4635.689 2222.380 2293.840 2178.217 2325.677 1852.574 655.708 1719.730 1146.158 2462.485 1009.045 2009.665
2624.797 1585.561 3104.431 1066.186 2036.574 4286.448 2697.146 1541.346 4570.443 4043.285 4417.967 3094.159 1509.356 3396.086 3736.618 4173.508 1567.106 3270.267 2985.746 3650.744 1889.737 3506.289 2817.887 2282.556 5285.650 3934.134 2974.565 1616.695 3273.392 3372.684 2794.404 5347.710 2834.818 1186.285 2969.865 4971.068 2265.784 3003.425 2422.970 7961.667 3537.121 3415.955 2879.230 1502.490 3282.728 3368.681 3502.099 1704.274 397.761 3514.882 4293.683 1579.170 7638.169 5603.820 7892.598 3296.667 3507.387 6499.804 5890.906 2875.643 3017.210 1169.893 5146.203 3716.938 2256.377 3484.743 2786.882 3744.455 2771.863 1470.400 651.884 2399.792 1677.470 5012.968 3346.745 4108.308 6886.334 4372.503 1218.542 1218.372 2999.745 3150.003 3424.548 2289.398 1151.286 0.000 4346.395 4463.063 2784.567 5592.979 3372.033 3444.318 2338.107 3274.666 782.599 1545.465 2606.021 1599.640 2556.951 662.099 3159.275
2264.648 4495.493 2814.674 3297.587 3220.407 2173.193 2330.535 3760.720 386.137 6159.697 1540.350 3379.614 5683.117 5133.673 3186.579 4339.951 5791.900 5682.986 3030.442 1097.108 4804.611 3031.719 2342.434 2277.684 3812.110 4609.849 2121.271 4624.812 4453.633 2653.991 6004.152 3696.001 2523.747 3557.463 2503.725 6806.438 3558.856 2443.170 2091.506 3692.385 1114.010 2566.840 3055.649 4074.946 1460.375 1304.195 3976.021 4430.857 3953.555 2039.014 1973.744 4652.154 4437.796 5296.368 6307.689 3017.310 2073.515 2781.687 2412.073 2661.390 2628.762 3276.247 3158.181 3742.057 2211.505 2829.980 2925.805 3206.120 2303.403 3819.729 4669.938 2033.770 3875.162 3607.036 3840.728 3560.777 2799.878 1437.391 3351.242 3675.041 2578.453 2832.715 3121.699 2058.209 3598.453 4346.395 0.000 1733.848 6406.954 1679.955 3141.004 3106.502 2412.776 1462.178 4580.972 2952.760 1893.522 4609.642 5919.851 4553.726 3123.911
3327.766 5170.104 4113.421 3599.314 4117.383 526.317 3445.751 3325.083 2088.081 7258.550 193.504 4644.442 5957.465 4004.034 4643.145 5775.062 6027.653 6661.316 4282.063 2552.093 5529.120 1739.537 3519.243 3094.862 5493.200 5954.429 3350.804 5289.636 5651.806 4045.328 6741.971 5391.546 3721.148 4101.378 3755.648 8016.712 4544.356 3706.855 2092.417 4662.792 2492.189 3975.197 4270.798 4765.856 2750.547 2611.254 5295.047 5154.564 4128.183 3491.945 332.779 5299.488 6069.438 6883.516 8038.605 4366.845 3523.620 2064.380 1434.599 3879.597 3900.188 3697.084 4865.339 5140.945 2949.040 4245.738 4111.533 4662.971 3453.291 4507.499 4971.741 2781.467 3357.173 5269.681 5133.991 5068.536 4122.782 297.534 3259.415 4252.204 3843.180 4145.877 4501.036 2475.810 4132.567 4463.063 1733.848 0.000 7001.123 3269.931 4504.151 4492.463 2126.783 2747.114 4394.287 3505.547 2782.780 5271.206 6594.986 4888.515 4425.625
4185.950 1911.498 4034.269 3410.749 3219.218 6919.446 4159.073 4322.991 6504.548 2242.418 6917.105 3620.982 1486.895 5991.141 4290.378 3932.392 1561.204 1686.668 3802.570 5426.406 1623.524 6268.771 4200.476 4133.513 5583.735 3459.900 4429.941 1782.144 2904.163 4332.188 674.146 5729.918 4078.188 2917.256 4164.872 3036.684 2988.933 4225.565 4911.239 9631.940 5356.063 4420.187 3716.221 2332.091 5016.919 5157.751 3511.753 1984.161 2991.513 4812.212 6890.576 1755.744 8424.454 5032.113 7593.347 4033.402 4786.724 8936.687 8376.239 4001.248 4106.509 3304.686 5800.974 3890.334 4219.939 4305.937 3758.708 4284.693 4208.947 2588.804 2146.692 4402.582 4448.501 5379.852 3474.981 4405.389 8418.373 6851.219 3934.098 2776.115 4130.675 4052.937 4063.390 4561.780 2882.275 2784.567 6406.954 7001.123 0.000 7169.841 4007.538 4089.947 4957.780 5012.177 3349.632 3532.328 4516.628 1797.362 554.983 2186.854 3855.898
3075.129 5318.597 3163.251 4530.176 3992.759 3764.547 3061.860 5295.544 1298.117 6386.223 3084.387 3663.343 6743.652 6800.894 3164.166 4185.265 6874.258 6091.791 3402.776 1943.503 5553.269 4708.868 2993.784 3322.189 3033.268 4593.128 2773.890 5444.838 4684.763 2885.730 6652.922 2858.953 3096.108 4592.258 3005.101 6842.146 4180.992 2944.734 3625.749 2463.021 2061.202 2791.261 3476.158 4926.387 2315.620 2224.333 4078.646 5214.916 5196.546 2358.102 3558.928 5485.466 2799.648 4706.830 5071.266 3234.690 2384.315 3463.388 3389.985 3168.665 3066.929 4435.317 2326.661 3736.775 3336.614 2969.931 3415.395 3179.164 3000.559 4703.601 5774.396 3197.683 5431.120 2933.982 4004.815 3356.598 1295.926 2993.783 4781.826 4669.339 3040.218 3153.734 3263.689 3423.166 4635.689 5592.979 1679.955 3269.931 7169.841 0.000 3308.119 3239.538 3993.969 2323.287 5974.076 4066.528 2987.071 5433.983 6634.634 5643.877 3398.596
1306.296 2363.899 418.031 2599.481 1337.453 4721.288 1163.466 4027.887 3050.347 3106.597 4339.680 386.711 3972.845 6082.737 364.892 1280.517 4127.189 2785.721 398.344 2052.060 2476.011 4852.812 1045.100 1740.214 1914.078 1472.510 1164.576 2468.013 1385.461 487.474 3425.508 1985.072 859.013 2189.638 777.350 3677.276 1185.976 814.050 3030.298 5726.334 2066.568 577.826 498.514 2086.205 1762.884 1912.007 836.957 2222.787 3065.149 1107.251 4583.352 2521.046 4493.175 2572.458 4563.981 139.896 1072.769 5922.586 5527.556 709.715 632.276 2369.165 1871.939 639.323 1910.406 341.119 627.615 372.430 1123.744 1974.615 3210.158 1986.066 4218.324 1643.486 718.383 776.735 4481.677 4239.409 3301.044 2157.535 688.789 374.524 58.402 2473.811 2222.380 3372.033 3141.004 4504.151 4007.538 3308.119 0.000 84.223 3387.632 1765.221 4059.882 2079.197 1858.122 2464.422 3454.407 3075.500 212.758
1328.305 2447.645 442.376 2659.193 1408.318 4718.293 1184.901 4079.060 3006.770 3165.819 4326.098 469.778 4055.952 6128.586 293.874 1284.093 4210.150 2857.438 462.180 2022.197 2560.172 4871.727 1061.069 1771.182 1841.368 1503.381 1165.200 2551.998 1448.427 455.218 3506.012 1908.573 882.373 2260.531 790.250 3722.175 1267.824 821.372 3052.735 5652.746 2041.740 539.684 566.241 2167.886 1745.724 1892.435 881.212 2306.741 3133.886 1068.450 4577.615 2604.975 4409.099 2545.719 4503.131 166.239 1033.894 5887.211 5499.219 739.584 648.624 2430.972 1788.596 649.290 1939.695 284.383 684.364 303.941 1140.729 2053.430 3289.315 2008.491 4269.095 1569.155 774.562 727.687 4406.713 4225.179 3353.267 2231.447 703.389 394.764 26.559 2498.334 2293.840 3444.318 3106.502 4492.463 4089.947 3239.538 84.223 0.000 3414.994 1748.470 4127.435 2134.699 1872.598 2548.356 3536.608 3154.429 287.992
2089.133 3228.582 2973.093 1559.713 2475.498 1967.319 2232.423 1357.811 2744.166 5556.329 2091.871 3357.094 3839.029 2924.371 3663.180 4618.109 3904.514 4871.852 3038.763 2249.653 3600.681 1521.369 2363.667 1649.604 4976.971 4634.308 2326.949 3335.301 4157.451 3065.469 4775.910 4950.050 2532.761 2156.805 2634.206 6405.512 2928.752 2616.019 410.182 6092.726 2121.030 3040.010 2979.012 2863.027 2094.622 2064.394 4000.370 3247.111 2015.382 2765.906 1959.312 3333.946 6549.040 5959.812 7715.024 3253.330 2782.721 4176.385 3558.530 2677.976 2769.131 1716.802 4540.573 3989.889 1477.747 3264.410 2812.118 3680.384 2283.360 2625.106 2870.069 1413.281 1463.005 4705.057 3820.369 4126.471 5198.884 2055.287 1133.832 2315.040 2716.859 3020.235 3411.215 921.109 2178.217 2338.107 2412.776 2126.783 4957.780 3993.969 3387.632 3414.994 0.000 2085.984 2311.096 1656.554 1586.861 3315.817 4598.232 2797.629 3228.258
827.041 3108.725 1394.349 2217.537 1795.407 3000.863 874.172 3186.363 1496.551 4704.968 2578.494 1950.801 4441.410 5005.446 1898.221 3028.756 4566.963 4221.039 1592.328 415.421 3393.321 3343.315 880.327 998.953 2956.165 3231.445 662.286 3238.156 3011.675 1298.616 4573.534 2905.468 1064.724 2282.406 1057.715 5378.172 2104.267 1000.388 1676.036 4738.626 351.823 1228.282 1606.469 2695.482 9.077 158.355 2578.799 3028.026 2879.858 771.517 2848.641 3271.395 4549.348 4173.384 5669.019 1630.615 799.372 4215.540 3783.054 1208.071 1192.477 2112.668 2465.159 2397.749 1022.249 1498.651 1468.954 1917.988 842.397 2452.359 3458.138 904.398 3350.360 2696.882 2429.092 2333.471 3619.049 2477.125 2570.998 2371.659 1138.538 1420.590 1758.313 1258.276 2325.677 3274.666 1462.178 2747.114 5012.177 2323.287 1765.221 1748.470 2085.984 0.000 3704.165 1743.242 679.968 3224.624 4506.466 3329.572 1709.236
3164.905 2363.549 3757.694 1537.273 2725.837 4131.918 3259.382 1128.443 4852.623 4797.182 4383.051 3809.375 1917.177 2677.138 4421.303 4929.826 1911.876 4021.665 3665.314 4041.993 2654.036 3171.880 3391.452 2760.139 5963.243 4706.854 3516.273 2387.536 4050.578 4005.383 3463.289 6011.680 3441.316 1880.439 3577.713 5726.773 3003.219 3602.745 2520.584 8260.844 3918.736 4037.452 3561.800 2280.352 3712.863 3772.671 4254.333 2485.443 997.808 4063.639 4176.442 2346.932 8187.388 6364.242 8610.682 3972.583 4061.172 6458.335 5826.624 3505.160 3644.767 1726.378 5769.790 4448.774 2691.238 4137.379 3452.403 4430.799 3334.622 2228.433 1354.264 2800.318 1188.088 5686.702 4093.751 4814.965 7251.167 4355.335 1231.533 1944.961 3619.667 3805.530 4109.555 2560.422 1852.574 782.599 4580.972 4394.287 3349.632 5974.076 4059.882 4127.435 2311.096 3704.165 0.000 2081.096 3024.463 2371.201 3208.584 1405.851 3848.193
1090.272 1665.262 1725.561 546.788 874.556 3497.515 1178.741 1956.305 3122.279 3900.660 3405.990 1916.187 2736.735 4031.962 2423.627 3160.256 2852.238 3227.234 1682.819 2134.858 2023.842 3167.343 1310.382 744.422 3932.857 3085.669 1442.424 1786.371 2546.433 1945.743 3236.951 3964.658 1369.792 617.796 1505.509 4750.415 1310.090 1526.345 1465.753 6468.658 2029.503 1969.145 1591.388 1261.354 1750.914 1849.609 2496.976 1650.850 1159.688 1988.614 3435.574 1799.106 6117.359 4574.990 6634.622 1970.831 1984.376 5404.717 4851.076 1450.766 1585.844 375.630 3695.040 2581.267 751.923 2096.264 1451.665 2436.087 1254.051 1005.509 1732.069 921.780 2147.832 3653.415 2317.615 2855.526 5362.272 3334.131 1227.642 756.541 1554.835 1775.319 2121.202 1035.108 655.708 1545.465 2952.760 3505.547 3532.328 4066.528 2079.197 2134.699 1656.554 1743.242 2081.096 0.000 1097.335 1768.264 3097.678 1609.553 1878.276
566.749 2606.221 1440.702 1543.629 1377.213 2920.619 702.683 2549.421 2032.722 4482.343 2643.298 1910.235 3828.842 4450.453 2099.803 3128.933 3947.289 3915.799 1557.822 1045.071 2925.411 3001.565 813.023 384.162 3394.671 3228.800 741.829 2735.145 2874.318 1490.248 4136.075 3375.365 1004.699 1677.573 1082.442 5234.519 1776.580 1053.572 1198.753 5372.874 934.584 1457.970 1525.448 2184.991 688.603 762.750 2570.513 2548.507 2209.475 1198.442 2804.797 2760.965 5206.228 4411.491 6135.673 1719.127 1211.264 4499.495 3998.377 1162.471 1226.039 1455.475 2993.026 2487.577 350.360 1693.588 1358.845 2117.901 734.744 1927.953 2828.721 228.640 2721.243 3121.049 2398.955 2562.548 4280.398 2553.570 1906.197 1786.985 1170.048 1483.656 1872.813 674.661 1719.730 2606.021 1893.522 2782.780 4516.628 2987.071 1858.122 1872.598 1586.861 679.968 3024.463 1097.335 0.000 2719.564 4038.076 2704.699 1728.906
2401.806 116.120 2382.049 1764.325 1444.984 5238.158 2386.493 3012.084 4712.298 2454.676 5174.053 2093.938 1529.257 4983.044 2801.837 2860.737 1687.787 1689.434 2172.863 3639.855 304.034 4743.528 2441.955 2336.832 4277.668 2518.725 2666.664 19.769 1840.456 2687.841 1472.047 4386.713 2342.091 1173.797 2444.173 3378.513 1308.032 2501.245 3204.272 7895.438 3565.211 2766.001 2072.501 534.730 3229.725 3367.431 2250.899 241.725 1583.844 3093.111 5188.837 56.651 6957.068 4230.211 6670.641 2450.846 3071.075 7163.458 6617.439 2289.346 2410.259 1602.040 4334.626 2565.024 2427.625 2708.555 2074.267 2801.891 2441.672 792.694 1060.301 2610.424 3178.921 4032.020 2140.370 3047.669 6704.680 5102.383 2441.700 1019.943 2424.472 2410.911 2522.823 2803.253 1146.158 1599.640 4609.642 5271.206 1797.362 5433.983 2464.422 2548.356 3315.817 3224.624 2371.201 1768.264 2719.564 0.000 1331.728 975.168 2276.182
3679.455 1439.949 3489.629 3038.866 2711.117 6543.701 3644.772 4092.136 6002.245 1900.399 6501.467 3068.030 1515.808 5883.512 3735.525 3397.051 1635.127 1238.376 3256.230 4918.826 1115.436 5968.372 3679.196 3657.859 5036.059 2933.011 3909.894 1314.348 2359.091 3785.650 275.493 5180.153 3549.569 2493.691 3631.752 2771.636 2455.314 3693.108 4516.916 9095.132 4853.472 3874.558 3171.847 1859.308 4510.831 4654.864 2960.338 1489.813 2700.372 4276.575 6502.656 1298.673 7870.769 4540.371 7095.601 3482.310 4250.358 8495.104 7948.352 3466.769 3568.377 2905.607 5246.377 3337.604 3755.340 3755.207 3220.017 3729.790 3691.627 2120.352 1905.095 3938.039 4233.991 4829.259 2920.940 3852.595 7876.758 6431.136 3631.136 2344.199 3594.421 3507.011 3510.055 4132.704 2462.485 2556.951 5919.851 6594.986 554.983 6634.634 3454.407 3536.608 4598.232 4506.466 3208.584 3097.678 4038.076 1331.728 0.000 1912.655 3305.108
2581.489 984.214 2875.637 1304.470 1797.491 4764.945 2620.760 2180.733 4731.726 3392.577 4822.829 2751.954 1129.391 4054.916 3437.158 3716.302 1242.751 2617.654 2715.885 3732.099 1249.635 4082.686 2720.021 2338.093 4975.117 3426.240 2911.556 990.247 2751.327 3167.755 2141.791 5058.296 2689.436 1052.451 2816.605 4321.823 1902.220 2861.161 2801.706 8067.265 3631.827 3226.624 2607.760 1027.761 3336.644 3446.678 3064.473 1121.873 804.681 3422.507 4750.838 946.162 7485.206 5125.216 7496.091 3023.453 3408.792 6884.841 6296.263 2693.630 2832.447 1278.995 4919.359 3325.475 2361.399 3245.272 2549.530 3441.898 2690.905 1101.004 137.066 2530.138 2327.083 4711.766 2925.577 3761.930 6938.607 4766.671 1747.357 993.942 2827.297 2915.930 3131.786 2546.845 1009.045 662.099 4553.726 4888.515 2186.854 5643.877 3075.500 3154.429 2797.629 3329.572 1405.851 1609.553 2704.699 975.168 1912.655 0.000 2866.740
1166.180 2173.317 314.974 2393.663 1124.888 4622.279 1026.597 3830.911 3059.264 3066.854 4265.942 269.016 3776.413 5892.113 577.505 1401.658 3929.865 2697.539 197.100 2027.606 2301.932 4707.710 922.519 1578.710 2126.745 1529.014 1074.873 2280.589 1343.193 517.203 3289.054 2196.308 724.826 1977.001 670.537 3682.571 984.905 718.960 2880.734 5834.579 2028.708 613.257 289.194 1883.818 1707.951 1861.822 871.293 2035.078 2853.041 1120.017 4490.767 2332.685 4681.962 2740.709 4772.339 178.124 1086.616 5903.306 5489.616 566.439 525.439 2161.548 2069.018 763.721 1751.212 450.100 432.016 585.188 997.268 1765.740 3001.738 1839.793 4021.777 1855.767 720.455 978.979 4597.032 4167.397 3103.099 1944.958 582.520 291.392 266.356 2321.596 2009.665 3159.275 3123.911 4425.625 3855.898 3398.596 212.758 287.992 3228.258 1709.236 3848.193 1878.276 1728.906 2276.182 3305.108 2866.740 0.000
NODE_COORD_SECTION
1 135.757630 21.597263
2 1973.412920 1380.877369
3 -231.997549 830.581082
4 1734.483753 -285.438272
5 841.044327 685.153662
6 237.100614 -3460.512592
7 67.151967 147.591932
8 2563.748142 -1524.267905
9 -1513.703071 -1614.218021
10 1352.713566 3794.758334
11 -362.969805 -3120.010774
12 -23.012282 1355.723092
13 3587.583354 1267.039794
14 3745.571850 -3245.612173
15 -730.713229 1336.293041
16 -597.841554 2482.314721
17 3742.205228 1225.973214
18 1678.844761 3090.675987
19 -56.314718 994.540691
20 -802.875335 -789.444148
21 2033.800202 1748.892971
22 1481.098484 -3260.066983
23 -48.331814 230.218155
24 495.888218 -281.192157
25 -2188.727359 1860.070231
26 -132.682461 2670.348180
27 -213.392964 67.747507
28 2070.644627 1466.592072
29 451.117476 2324.351345
30 -527.941275 753.574475
31 2655.784386 2796.910090
32 -2310.289416 1703.030273
33 -41.881027 432.093759
34 1628.400340 358.905458
35 -172.350195 471.908741
36 965.224053 4640.039173
37 798.122945 1137.104024
38 -213.505224 423.827969
39 886.277008 -1531.134865
40 -4833.956564 -2385.591606
41 -677.721238 -826.115134
42 -588.252048 678.722575
43 50.441857 976.868306
44 1695.431695 1064.238187
45 -476.612694 -540.887495
46 -536.583566 -686.373353
47 -110.328335 2010.223537
48 1827.749001 1430.837828
49 2378.501341 -106.401732
50 -750.275983 174.356451
51 69.322490 -3341.168175
52 2125.486656 1450.338670
53 -4846.838953 690.063500
54 -1652.603525 3458.065868
55 -4201.675663 3722.162219
56 -354.743839 1083.023377
57 -740.998451 207.643752
58 -1926.453652 -4498.854984
59 -1340.273111 -4224.767608
60 -54.591358 591.489306
61 -193.902578 616.900222
62 1593.886524 -83.089107
63 -2255.755386 1153.644762
64 -463.557086 1854.089522
65 549.657665 -446.551437
66 -593.593842 949.721038
67 93.686860 813.683159
68 -731.480955 1356.143953
69 -6.920181 161.373754
70 1553.680396 844.508492
71 2775.347660 656.184148
72 435.284815 -589.150328
73 2686.891166 -1671.384794
74 -1954.720397 1706.398392
75 -33.829315 1846.325402
76 -964.959485 1736.275808
77 -3964.588222 -1477.018472
78 -397.461906 -3019.777174
79 2063.137953 -994.797078
80 1654.272696 515.051121
81 -187.400817 559.770624
82 -270.222232 863.104159
83 -443.154985 1214.482352
84 704.010047 -1001.612421
85 1669.636384 372.542966
86 2760.498409 4.469128
87 -1185.509450 -1817.664656
88 -258.290116 -3282.755985
89 3326.687993 2730.866837
90 -2716.863800 -1126.865821
91 -384.978980 1219.613462
92 -467.891463 1204.814392
93 1226.581033 -1760.138503
94 -467.968508 -543.655698
95 3235.459425 -617.522632
96 1218.816766 -103.602618
97 211.989932 -540.001849
98 2068.939970 1446.896284
99 2798.294865 2561.140746
100 2638.285703 655.190885
101 -186.768757 1142.290645
DEMAND_SECTION
1 0
2 83
3 9
4 6
5 7
6 10
7 1
8 58
9 9
10 1
11 10
12 2
13 6
14 9
15 10
16 2
17 8
18 74
19 7
20 3
21 10
22 9
23 9
24 4
25 5
26 9
27 2
28 10
29 9
30 7
31 3
32 8
33 63
34 9
35 2
36 9
37 4
38 2
39 7
40 5
41 1
42 2
43 6
44 3
45 5
46 2
47 85
48 2
49 4
50 3
51 99
52 3
53 8
54 5
55 6
56 8
57 4
58 8
59 3
60 83
61 3
62 8
63 10
64 2
65 7
66 1
67 9
68 10
69 7
70 9
71 9
72 2
73 4
74 5
75 90
76 4
77 5
78 2
79 7
80 3
81 8
82 97
83 1
84 8
85 9
86 9
87 61
88 8
89 5
90 2
91 2
92 4
93 7
94 97
95 8
96 8
97 1
98 3
99 1
100 8
101 9
DEPOT_SECTION
1
-1
EOF
