NAME : poryos-tokyo-n50-poi
COMMENT : Poryos2026 euclidean metric; city tokyo; 3-decimal seconds/meters; ENU ref in poryos-tokyo-n50-poi.vrp.json
TYPE : CVRP
DIMENSION : 51
EDGE_WEIGHT_TYPE : EXPLICIT
EDGE_WEIGHT_FORMAT : FULL_MATRIX
CAPACITY : 177
EDGE_WEIGHT_SECTION
0.000 9103.268 1312.164 5220.272 2612.677 3176.912 3119.640 7434.373 4922.689 14470.575 8147.469 2539.254 2819.720 7899.669 8474.619 3885.991 9616.441 8421.597 9576.575 7596.007 2406.117 3913.670 5399.471 1834.096 4024.933 9557.384 14368.789 3072.029 10486.158 2562.187 1877.867 7619.591 3195.100 3824.839 6999.621 11255.574 2908.013 6650.886 8035.933 3729.184 8044.870 3023.713 14575.704 5535.530 10669.880 4805.090 3839.382 3642.926 2140.368 3936.575 8058.081
9103.268 0.000 7884.523 4846.139 6741.536 11407.999 7047.004 6042.466 13983.159 5731.105 11065.225 9874.468 10986.766 16480.263 15811.623 8090.884 11813.243 4424.221 18087.369 5180.150 10294.391 7935.159 4730.656 10753.618 11489.685 8183.095 5582.920 10753.210 2092.986 6675.339 9913.405 6012.311 11637.488 5294.534 11227.972 15839.931 10211.557 15611.726 16672.954 5582.406 1324.241 11511.837 5799.991 4578.078 3374.033 5944.388 8034.925 12666.812 9402.636 8026.479 16757.451
1312.164 7884.523 0.000 3912.625 1301.266 3826.697 1948.440 6905.294 6216.530 13352.942 8469.046 2648.876 3412.139 9199.769 9615.979 3942.928 9892.969 7626.777 10875.200 6923.989 2802.601 3918.040 4555.368 2877.237 4373.409 9239.184 13242.166 3433.526 9365.015 1257.612 2294.023 7079.571 3959.745 2590.372 7500.534 11136.910 3062.612 7753.484 9340.442 2760.098 6784.767 3807.044 13452.058 4671.507 9359.409 3562.211 3879.609 4784.065 2120.595 3970.206 9031.918
5220.272 4846.139 3912.625 0.000 2613.594 6806.679 2402.208 7104.873 10057.419 10577.233 10678.035 5220.126 6401.804 13111.177 13323.145 6338.582 11892.489 6744.978 14785.642 6637.160 5709.911 6226.098 4365.796 6500.475 6725.780 9738.803 10427.921 6074.008 6776.431 2711.869 5424.725 7209.570 7084.879 2102.628 10160.501 11323.539 5511.024 11169.705 13253.042 3313.151 3539.879 6984.226 10645.102 4349.717 5521.894 1117.450 6264.225 8385.064 4811.165 6315.937 12129.054
2612.677 6741.536 1301.266 2613.594 0.000 4709.246 1085.227 6662.043 7497.013 12320.982 9023.274 3265.934 4284.741 10497.597 10810.853 4457.417 10382.768 7051.684 12172.085 6515.410 3605.405 4389.297 4037.139 4046.481 4992.496 9163.668 12199.323 4139.430 8348.612 261.366 3185.364 6818.326 4913.313 1548.297 8227.092 11108.878 3651.232 8874.786 10640.152 2248.393 5583.799 4780.869 12412.248 4118.465 8066.032 2370.946 4385.495 5962.799 2749.386 4462.233 10037.269
3176.912 11407.999 3826.697 6806.679 4709.246 0.000 4418.103 10585.873 4288.889 17028.493 11022.297 1593.762 424.600 7908.275 9641.811 7020.359 12506.595 11442.986 9494.066 10692.981 1113.712 7061.832 8375.141 1621.857 1184.756 12732.914 16904.968 841.248 13057.841 4828.808 1543.916 10768.555 374.092 6245.361 9717.062 8593.535 1385.725 4410.610 7940.136 6586.750 10192.665 427.275 17118.408 8494.761 12245.409 5934.757 6979.557 2144.238 2011.056 7076.647 5351.481
3119.640 7047.004 1948.440 2402.208 1085.227 4418.103 0.000 7663.162 7755.796 12736.649 10094.117 2845.265 4008.063 10967.650 11552.575 5523.199 11461.960 7906.161 12645.235 7457.335 3313.910 5460.549 4970.934 4143.244 4448.055 10199.183 12601.426 3716.208 8816.468 1346.134 3024.153 7812.566 4687.170 2296.018 9261.761 10105.073 3166.847 8767.705 11088.229 3248.817 5797.876 4583.602 12817.148 5034.083 7905.800 1715.261 5452.147 6001.944 2413.221 5531.172 9759.161
7434.373 6042.466 6905.294 7104.873 6662.043 10585.873 7663.162 0.000 11218.008 8989.480 5149.227 9554.133 10201.103 12571.609 10958.595 4067.091 5775.156 1976.913 13964.767 888.240 9663.459 3947.021 2773.554 9230.351 11268.476 2633.932 8978.417 10316.515 5759.396 6418.155 9130.918 192.142 10628.195 5470.726 5660.371 17764.436 9967.871 13732.905 12816.254 4419.033 6156.766 10457.548 9136.075 2764.739 9320.904 7931.280 4064.497 10804.147 9025.114 3987.993 15334.705
4922.689 13983.159 6216.530 10057.419 7497.013 4288.889 7755.796 11218.008 0.000 19183.037 9594.721 5506.629 4462.783 3630.270 5873.836 7151.123 10986.271 12658.266 5206.065 11648.070 4932.638 7271.884 9882.239 3647.180 5350.393 12677.499 19097.195 5070.193 15232.779 7474.128 4924.125 11409.634 3919.192 8738.063 8068.368 12105.935 5505.040 3019.675 3652.133 8462.111 12959.927 3879.217 19297.913 10036.848 15559.271 9463.200 7153.849 2150.523 5633.506 7230.081 4863.912
14470.575 5731.105 13352.942 10577.233 12320.982 17028.493 12736.649 8989.480 19183.037 0.000 13905.625 15533.035 16604.300 21224.258 19919.281 12497.785 14083.208 7048.809 22727.210 8201.360 15919.974 12345.661 9330.121 16222.710 17184.543 9740.733 211.674 16414.525 3988.323 12217.053 15505.041 8845.616 17232.349 10800.182 14629.621 21364.561 15885.709 21099.951 21447.336 10759.400 7044.252 17096.277 159.802 9171.357 7021.078 11672.999 12463.180 18105.965 15042.592 12420.435 22353.622
8147.469 11065.225 8469.046 10678.035 9023.274 11022.297 10094.117 5149.227 9594.721 13905.625 0.000 10686.710 10766.101 9417.812 6842.391 4572.491 1484.430 7095.139 10415.764 6035.161 10506.820 4634.179 6746.719 9403.655 12063.607 4444.885 13922.676 11150.802 10905.025 8769.521 10002.497 5239.927 10887.772 8605.651 1540.944 19401.960 11050.906 12576.451 9691.304 7369.362 10931.014 10718.727 14059.454 6851.129 14194.946 11112.859 4642.813 10214.942 10266.932 4562.961 14398.703
2539.254 9874.468 2648.876 5220.126 3265.934 1593.762 2845.265 9554.133 5506.629 15533.035 10686.710 0.000 1209.695 9027.089 10337.625 6356.578 12154.917 10215.268 10667.182 9558.537 578.648 6364.694 7148.916 2003.923 1746.536 11862.002 15403.817 881.528 11580.914 3425.054 765.595 9728.419 1901.781 4813.821 9522.518 8717.353 413.738 5997.875 9094.589 5328.074 8639.260 1831.862 15618.486 7253.480 10652.065 4341.773 6303.256 3476.377 535.549 6399.284 6914.848
2819.720 10986.766 3412.139 6401.804 4284.741 424.600 4008.063 10201.103 4462.783 16604.300 10766.101 1209.695 0.000 8055.490 9650.699 6688.769 12249.192 11033.884 9664.364 10294.423 695.480 6724.455 7964.426 1423.842 1313.490 12375.122 16480.989 616.100 12633.313 4404.398 1122.994 10382.746 692.205 5820.816 9489.558 8754.192 1069.326 4790.313 8100.812 6171.408 9774.634 632.776 16694.374 8082.648 11855.667 5547.296 6645.588 2352.971 1596.314 6742.822 5771.238
7899.669 16480.263 9199.769 13111.177 10497.597 7908.275 10967.650 12571.609 3630.270 21224.258 9417.812 9027.089 8055.490 0.000 3352.236 8730.002 10538.509 14313.493 1677.940 13196.609 8467.018 8880.775 11964.409 7065.300 8980.640 13365.872 21168.025 8669.146 17415.602 10414.371 8377.156 12751.713 7541.612 11489.137 7937.413 15519.247 9071.319 5591.962 274.882 10912.340 15618.084 7492.407 21354.279 12126.049 18484.136 12678.410 8762.571 5778.896 9078.377 8808.132 7186.106
8474.619 15811.623 9615.979 13323.145 10810.853 9641.811 11552.575 10958.595 5873.836 19919.281 6842.391 10337.625 9650.699 3352.236 0.000 7721.005 7708.303 12871.257 3742.392 11718.862 9854.318 7876.979 11090.252 8357.772 10816.260 11159.506 19894.339 10249.695 16363.291 10654.608 9590.740 11116.680 9319.978 11400.119 5563.504 17934.849 10507.574 8534.526 3599.559 10520.545 15178.019 9216.987 20061.722 11246.716 18299.540 13165.167 7776.699 7745.297 10216.031 7786.242 10274.859
3885.991 8090.884 3942.928 6338.582 4457.417 7020.359 5523.199 4067.091 7151.123 12497.785 4572.491 6356.578 6688.769 8730.002 7721.005 0.000 5964.572 5620.803 10234.295 4545.444 6288.359 156.891 3372.680 5498.285 7910.802 5784.078 12445.366 6956.106 8746.214 4206.644 5754.358 4258.617 6981.120 4236.794 3832.783 15033.226 6749.945 9724.456 8957.310 3085.411 7508.377 6806.102 12629.337 3530.679 10708.449 6626.787 74.583 6865.865 5885.633 80.288 11383.892
9616.441 11813.243 9892.969 11892.489 10382.768 12506.595 11461.960 5775.156 10986.271 14083.208 1484.430 12154.917 12249.192 10538.509 7708.303 5964.572 0.000 7600.129 11396.117 6652.364 11983.951 6011.262 7781.385 10888.074 13545.396 4354.967 14122.311 12630.020 11405.976 10125.584 11476.891 5821.554 12371.998 9855.766 2928.389 20871.996 12522.558 13985.468 10813.389 8611.731 11822.514 12203.038 14240.720 7866.538 15050.004 12397.756 6032.100 11679.948 11728.088 5947.061 15815.995
8421.597 4424.221 7626.777 6744.978 7051.684 11442.986 7906.161 1976.913 12658.266 7048.809 7095.139 10215.268 11033.884 14313.493 12871.257 5620.803 7600.129 0.000 15762.213 1152.554 10427.482 5478.612 3071.880 10255.602 11961.500 3758.883 7028.429 11044.707 3819.346 6844.530 9920.110 1861.509 11544.058 5610.143 7634.505 17912.615 10622.016 14972.493 14548.812 4887.515 4860.853 11381.750 7192.330 2962.033 7792.516 7740.347 5599.193 11980.503 9680.105 5540.813 16469.876
9576.575 18087.369 10875.200 14785.642 12172.085 9494.066 12645.235 13964.767 5206.065 22727.210 10415.764 10667.182 9664.364 1677.940 3742.392 10234.295 11396.117 15762.213 0.000 14630.391 10101.938 10387.982 13522.018 8721.204 10531.572 14560.730 22677.883 10274.263 18962.270 12086.093 10031.195 14139.715 9123.339 13144.073 9012.233 16808.749 10695.117 6721.613 1573.979 12535.147 17251.366 9085.276 22860.291 13683.662 20144.747 14356.251 10271.992 7351.756 10735.227 10310.734 8106.766
7596.007 5180.150 6923.989 6637.160 6515.410 10692.981 7457.335 888.240 11648.070 8201.360 6035.161 9558.537 10294.423 13196.609 11718.862 4545.444 6652.364 1152.554 14630.391 0.000 9719.757 4409.380 2486.695 9420.907 11295.132 3224.382 8180.456 10357.376 4879.939 6286.479 9197.663 832.974 10765.786 5193.172 6502.394 17551.099 9970.602 14051.087 13434.850 4277.106 5366.749 10598.938 8344.806 2427.515 8485.537 7538.950 4529.881 11081.806 9023.972 4465.156 15597.890
2406.117 10294.391 2802.601 5709.911 3605.405 1113.712 3313.910 9663.459 4932.638 15919.974 10506.820 578.648 695.480 8467.018 9854.318 6288.359 11983.951 10427.482 10101.938 9719.757 0.000 6310.669 7355.611 1496.634 1629.512 11899.836 15795.387 669.050 11952.672 3734.759 539.468 9842.181 1375.331 5147.300 9289.697 8912.201 654.982 5470.618 8530.352 5548.820 9079.754 1284.314 16009.064 7468.979 11174.204 4870.401 6240.015 2898.346 901.155 6337.043 6465.002
3913.670 7935.159 3918.040 6226.098 4389.297 7061.832 5460.549 3947.021 7271.884 12345.661 4634.179 6364.694 6724.455 8880.775 7876.979 156.891 6011.262 5478.612 10387.982 4409.380 6310.669 0.000 3216.039 5553.591 7936.049 5714.843 12292.627 6979.211 8590.397 4136.245 5774.870 4138.868 7030.555 4123.522 3937.161 15026.723 6761.011 9824.066 9107.306 2959.190 7357.442 6855.628 12476.937 3373.955 10561.209 6534.138 120.657 6951.266 5887.369 95.651 11473.860
5399.471 4730.656 4555.368 4365.796 4037.139 8375.141 4970.934 2773.554 9882.239 9330.121 6746.719 7148.916 7964.426 11964.409 11090.252 3372.680 7781.385 3071.880 13522.018 2486.695 7355.611 3216.039 0.000 7230.150 8894.229 5397.420 9256.527 7973.865 5453.168 3814.426 6849.121 2899.422 8483.995 2719.442 6634.967 15068.681 7557.263 12016.653 12176.021 1822.881 4278.685 8323.622 9451.404 161.690 7545.307 5158.873 3320.335 9008.866 6613.436 3305.424 13457.292
1834.096 10753.618 2877.237 6500.475 4046.481 1621.857 4143.244 9230.351 3647.180 16222.710 9403.655 2003.923 1423.842 7065.300 8357.772 5498.285 10888.074 10255.602 8721.204 9420.907 1496.634 5553.591 7230.150 0.000 2733.237 11261.287 16114.273 1951.990 12234.401 4083.410 1312.345 9417.631 1500.480 5463.895 8095.635 10176.290 2149.972 4878.049 7147.338 5529.802 9626.032 1326.941 16323.473 7364.456 12022.310 5835.640 5463.373 1917.073 2014.023 5559.533 6227.975
4024.933 11489.685 4373.409 6725.780 4992.496 1184.756 4448.055 11268.476 5350.393 17184.543 12063.607 1746.536 1313.490 8980.640 10816.260 7910.802 13545.396 11961.500 10531.572 11295.132 1629.512 7936.049 8894.229 2733.237 0.000 13526.958 17049.466 961.319 13255.263 5162.493 2168.776 11445.207 1497.073 6535.667 10799.360 7443.135 1344.425 4937.971 8995.593 7074.103 10224.151 1602.654 17265.201 8999.589 11995.414 5738.853 7863.640 3205.843 2281.415 7960.779 5499.662
9557.384 8183.095 9239.184 9738.803 9163.668 12732.914 10199.183 2633.932 12677.499 9740.733 4444.885 11862.002 12375.122 13365.872 11159.506 5784.078 4354.967 3758.883 14560.730 3224.382 11899.836 5714.843 5397.420 11261.287 13526.958 0.000 9786.340 12565.930 7352.502 8911.006 11360.561 2536.031 12725.065 8065.026 5597.856 20266.336 12272.844 15426.800 13629.933 6954.124 8540.634 12550.677 9898.946 5395.927 11549.710 10555.546 5811.521 12635.240 11346.935 5717.334 17132.612
14368.789 5582.920 13242.166 10427.921 12199.323 16904.968 12601.426 8978.417 19097.195 211.674 13922.676 15403.817 16480.989 21168.025 19894.339 12445.366 14122.311 7028.429 22677.883 8180.456 15795.387 12292.627 9256.527 16114.273 17049.466 9786.340 0.000 16285.171 3882.672 12098.830 15384.279 8837.616 17111.994 10683.124 14626.421 21184.522 15754.164 20992.152 21389.556 10663.547 6891.640 16977.052 217.290 9097.141 6818.231 11520.641 12409.678 18001.258 14915.786 12368.381 22234.617
3072.029 10753.210 3433.526 6074.008 4139.430 841.248 3716.208 10316.515 5070.193 16414.525 11150.802 881.528 616.100 8669.146 10249.695 6956.106 12630.020 11044.707 10274.263 10357.376 669.050 6979.211 7973.865 1951.990 961.319 12565.930 16285.171 0.000 12462.064 4290.531 1207.774 10494.183 1206.063 5687.717 9914.402 8291.245 570.504 5221.494 8712.371 6158.917 9513.541 1202.305 16499.875 8083.277 11467.700 5160.272 6908.098 2946.013 1390.953 7005.161 6055.099
10486.158 2092.986 9365.015 6776.431 8348.612 13057.841 8816.468 5759.396 15232.779 3988.323 10905.025 11580.914 12633.313 17415.602 16363.291 8746.214 11405.976 3819.346 18962.270 4879.939 11952.672 8590.397 5453.168 12234.401 13255.263 7352.502 3882.672 12462.064 0.000 8237.375 11528.762 5665.248 13254.685 6819.266 11351.600 17908.523 11942.296 17111.751 17628.583 6785.284 3372.466 13116.609 4090.227 5291.754 4881.525 7891.883 8703.415 14119.019 11082.574 8672.322 18372.703
2562.187 6675.339 1257.612 2711.869 261.366 4828.808 1346.134 6418.155 7474.128 12217.053 8769.521 3425.054 4404.398 10414.371 10654.608 4206.644 10125.584 6844.530 12086.093 6286.479 3734.759 4136.245 3814.426 4083.410 5162.493 8911.006 12098.830 4290.531 8237.375 0.000 3292.816 6576.043 5017.420 1418.350 7986.148 11358.464 3818.415 8936.953 10562.437 2012.210 5545.556 4879.509 12310.862 3900.657 8108.985 2561.736 4134.396 5999.913 2900.039 4210.139 10136.589
1877.867 9913.405 2294.023 5424.725 3185.364 1543.916 3024.153 9130.918 4924.125 15505.041 10002.497 765.595 1122.994 8377.156 9590.740 5754.358 11476.891 9920.110 10031.195 9197.663 539.468 5774.870 6849.121 1312.345 2168.776 11360.561 15384.279 1207.774 11528.762 3292.816 0.000 9310.287 1727.955 4711.004 8806.916 9403.560 1060.455 5753.089 8457.222 5051.022 8721.665 1598.434 15597.026 6965.506 10926.802 4657.250 5705.316 3007.954 709.459 5802.259 6852.085
7619.591 6012.311 7079.571 7209.570 6818.326 10768.555 7812.566 192.142 11409.634 8845.616 5239.927 9728.419 10382.746 12751.713 11116.680 4258.617 5821.554 1861.509 14139.715 832.974 9842.181 4138.868 2899.422 9417.631 11445.207 2536.031 8837.616 10494.183 5665.248 6576.043 9310.287 0.000 10812.836 5607.199 5792.404 17916.134 10142.146 13924.696 12997.003 4572.584 6168.092 10642.384 8993.101 2882.136 9310.013 8051.294 4256.268 10994.974 9198.694 4179.570 15525.391
3195.100 11637.488 3959.745 7084.879 4913.313 374.092 4687.170 10628.195 3919.192 17232.349 10887.772 1901.781 692.205 7541.612 9319.978 6981.120 12371.998 11544.058 9123.339 10765.786 1375.331 7030.555 8483.995 1500.480 1497.073 12725.065 17111.994 1206.063 13254.685 5017.420 1727.955 10812.836 0.000 6435.731 9555.881 8834.018 1733.300 4098.863 7571.083 6714.337 10436.556 175.034 17324.656 8608.085 12546.182 6238.724 6943.704 1772.156 2274.146 7040.360 5124.236
3824.839 5294.534 2590.372 2102.628 1548.297 6245.361 2296.018 5470.726 8738.063 10800.182 8605.651 4813.821 5820.816 11489.137 11400.119 4236.794 9855.766 5610.143 13144.073 5193.172 5147.300 4123.522 2719.442 5463.895 6535.667 8065.026 10683.124 5687.717 6819.266 1418.350 4711.004 5607.199 6435.731 0.000 8058.091 12359.326 5196.745 10333.782 11655.901 1244.262 4221.974 6297.359 10894.804 2766.017 7006.233 2569.391 4162.511 7374.085 4297.499 4213.497 11553.927
6999.621 11227.972 7500.534 10160.501 8227.092 9717.062 9261.761 5660.371 8068.368 14629.621 1540.944 9522.518 9489.558 7937.413 5563.504 3832.783 2928.389 7634.505 9012.233 6502.394 9289.697 3937.161 6634.967 8095.635 10799.360 5597.856 14626.421 9914.402 11351.600 7986.148 8806.916 5792.404 9555.881 8058.091 0.000 18201.594 9865.939 11060.695 8209.249 6870.078 10911.721 9390.826 14778.650 6764.614 14180.254 10453.383 3907.354 8774.059 9139.631 3849.273 12889.100
11255.574 15839.931 11136.910 11323.539 11108.878 8593.535 10105.073 17764.436 12105.935 21364.561 19401.960 8717.353 8754.192 15519.247 17934.849 15033.226 20871.996 17912.615 16808.749 17551.099 8912.201 15026.723 15068.681 10176.290 7443.135 20266.336 21184.522 8291.245 17908.523 11358.464 9403.560 17916.134 8834.018 12359.326 18201.594 0.000 8351.345 10117.582 15450.001 13345.518 14536.529 8976.758 21397.235 15123.652 14705.845 10240.490 14975.497 10210.651 9157.125 15069.715 9136.382
2908.013 10211.557 3062.612 5511.024 3651.232 1385.725 3166.847 9967.871 5505.040 15885.709 11050.906 413.738 1069.326 9071.319 10507.574 6749.945 12522.558 10622.016 10695.117 9970.602 654.982 6761.011 7557.263 2149.972 1344.425 12272.844 15754.164 570.504 11942.296 3818.415 1060.455 10142.146 1733.300 5196.745 9865.939 8351.345 0.000 5786.608 9126.662 5735.595 8964.183 1699.347 15969.284 7660.657 10897.246 4590.276 6697.645 3416.804 946.635 6793.948 6619.835
6650.886 15611.726 7753.484 11169.705 8874.786 4410.610 8767.705 13732.905 3019.675 21099.951 12576.451 5997.875 4790.313 5591.962 8534.526 9724.456 13985.468 14972.493 6721.613 14051.087 5470.618 9824.066 12016.653 4878.049 4937.971 15426.800 20992.152 5221.494 17111.751 8936.953 5753.089 13924.696 4098.863 10333.782 11060.695 10117.582 5786.608 0.000 5472.143 10379.886 14453.242 4188.412 21201.198 12159.118 16644.575 10337.545 9712.970 3010.519 6362.471 9799.265 1844.711
8035.933 16672.954 9340.442 13253.042 10640.152 7940.136 11088.229 12816.254 3652.133 21447.336 9691.304 9094.589 8100.812 274.882 3599.559 8957.310 10813.389 14548.812 1573.979 13434.850 8530.352 9107.306 12176.021 7147.338 8995.593 13629.933 21389.556 8712.371 17628.583 10562.437 8457.222 12997.003 7571.083 11655.901 8209.249 15450.001 9126.662 5472.143 0.000 11099.725 15798.266 7527.996 21576.655 12337.586 18644.123 12801.201 8988.697 5802.321 9161.358 9035.750 7029.988
3729.184 5582.406 2760.098 3313.151 2248.393 6586.750 3248.817 4419.033 8462.111 10759.400 7369.362 5328.074 6171.408 10912.340 10520.545 3085.411 8611.731 4887.515 12535.147 4277.106 5548.820 2959.190 1822.881 5529.802 7074.103 6954.124 10663.547 6158.917 6785.284 2012.210 5051.022 4572.584 6714.337 1244.262 6870.078 13345.518 5735.595 10379.886 11099.725 0.000 4725.058 6558.437 10868.163 1925.506 7779.195 3804.695 3012.660 7371.960 4792.782 3052.517 11748.012
8044.870 1324.241 6784.767 3539.879 5583.799 10192.665 5797.876 6156.766 12959.927 7044.252 10931.014 8639.260 9774.634 15618.084 15178.019 7508.377 11822.514 4860.853 17251.366 5366.749 9079.754 7357.442 4278.685 9626.032 10224.151 8540.634 6891.640 9513.541 3372.466 5545.556 8721.665 6168.092 10436.556 4221.974 10911.721 14536.529 8964.183 14453.242 15798.266 4725.058 0.000 10317.350 7108.912 4147.111 3272.718 4629.054 7445.553 11543.105 8182.088 7452.064 15543.731
3023.713 11511.837 3807.044 6984.226 4780.869 427.275 4583.602 10457.548 3879.217 17096.277 10718.727 1831.862 632.776 7492.407 9216.987 6806.102 12203.038 11381.750 9085.276 10598.938 1284.314 6855.628 8323.622 1326.941 1602.654 12550.677 16977.052 1202.305 13116.609 4879.509 1598.434 10642.384 175.034 6297.359 9390.826 8976.758 1699.347 4188.412 7527.996 6558.437 10317.350 0.000 17189.420 8448.578 12457.662 6154.714 6768.715 1744.827 2174.320 6865.366 5257.566
14575.704 5799.991 13452.058 10645.102 12412.248 17118.408 12817.148 9136.075 19297.913 159.802 14059.454 15618.486 16694.374 21354.279 20061.722 12629.337 14240.720 7192.330 22860.291 8344.806 16009.064 12476.937 9451.404 16323.473 17265.201 9898.946 217.290 16499.875 4090.227 12310.862 15597.026 8993.101 17324.656 10894.804 14778.650 21397.235 15969.284 21201.198 21576.655 10868.163 7108.912 17189.420 0.000 9292.307 7012.762 11737.918 12594.253 18209.245 15129.948 12552.145 22446.969
5535.530 4578.078 4671.507 4349.717 4118.465 8494.761 5034.083 2764.739 10036.848 9171.357 6851.129 7253.480 8082.648 12126.049 11246.716 3530.679 7866.538 2962.033 13683.662 2427.515 7468.979 3373.955 161.690 7364.456 8999.589 5395.927 9097.141 8083.277 5291.754 3900.657 6965.506 2882.136 8608.085 2766.017 6764.614 15123.652 7660.657 12159.118 12337.586 1925.506 4147.111 8448.578 9292.307 0.000 7416.669 5169.158 3478.850 9150.468 6718.237 3462.972 13592.263
10669.880 3374.033 9359.409 5521.894 8066.032 12245.409 7905.800 9320.904 15559.271 7021.078 14194.946 10652.065 11855.667 18484.136 18299.540 10708.449 15050.004 7792.516 20144.747 8485.537 11174.204 10561.209 7545.307 12022.310 11995.414 11549.710 6818.231 11467.700 4881.525 8108.985 10926.802 9310.013 12546.182 7006.233 14180.254 14705.845 10897.246 16644.575 18644.123 7779.195 3272.718 12457.662 7012.762 7416.669 0.000 6310.820 10642.701 13904.118 10286.637 10656.615 17486.195
4805.090 5944.388 3562.211 1117.450 2370.946 5934.757 1715.261 7931.280 9463.200 11672.999 11112.859 4341.773 5547.296 12678.410 13165.167 6626.787 12397.756 7740.347 14356.251 7538.950 4870.401 6534.138 5158.873 5835.640 5738.853 10555.546 11520.641 5160.272 7891.883 2561.736 4657.250 8051.294 6238.724 2569.391 10453.383 10240.490 4590.276 10337.545 12801.201 3804.695 4629.054 6154.714 11737.918 5169.158 6310.820 0.000 6552.506 7661.891 3992.804 6617.239 11198.809
3839.382 8034.925 3879.609 6264.225 4385.495 6979.557 5452.147 4064.497 7153.849 12463.180 4642.813 6303.256 6645.588 8762.571 7776.699 74.583 6032.100 5599.193 10271.992 4529.881 6240.015 120.657 3320.335 5463.373 7863.640 5811.521 12409.678 6908.098 8703.415 4134.396 5705.316 4256.268 6943.704 4162.511 3907.354 14975.497 6697.645 9712.970 8988.697 3012.660 7445.553 6768.715 12594.253 3478.850 10642.701 6552.506 0.000 6846.058 5830.191 97.252 11366.757
3642.926 12666.812 4784.065 8385.064 5962.799 2144.238 6001.944 10804.147 2150.523 18105.965 10214.942 3476.377 2352.971 5778.896 7745.297 6865.865 11679.948 11980.503 7351.756 11081.806 2898.346 6951.266 9008.866 1917.073 3205.843 12635.240 18001.258 2946.013 14119.019 5999.913 3007.954 10994.974 1772.156 7374.085 8774.059 10210.651 3416.804 3010.519 5802.321 7371.960 11543.105 1744.827 18209.245 9150.468 13904.118 7661.891 6846.058 0.000 3696.529 6936.859 4531.182
2140.368 9402.636 2120.595 4811.165 2749.386 2011.056 2413.221 9025.114 5633.506 15042.592 10266.932 535.549 1596.314 9078.377 10216.031 5885.633 11728.088 9680.105 10735.227 9023.972 901.155 5887.369 6613.436 2014.023 2281.415 11346.935 14915.786 1390.953 11082.574 2900.039 709.459 9198.694 2274.146 4297.499 9139.631 9157.125 946.635 6362.471 9161.358 4792.782 8182.088 2174.320 15129.948 6718.237 10286.637 3992.804 5830.191 3696.529 0.000 5925.508 7361.645
3936.575 8026.479 3970.206 6315.937 4462.233 7076.647 5531.172 3987.993 7230.081 12420.435 4562.961 6399.284 6742.822 8808.132 7786.242 80.288 5947.061 5540.813 10310.734 4465.156 6337.043 95.651 3305.424 5559.533 7960.779 5717.334 12368.381 7005.161 8672.322 4210.139 5802.259 4179.570 7040.360 4213.497 3849.273 15069.715 6793.948 9799.265 9035.750 3052.517 7452.064 6865.366 12552.145 3462.972 10656.615 6617.239 97.252 6936.859 5925.508 0.000 11456.253
8058.081 16757.451 9031.918 12129.054 10037.269 5351.481 9759.161 15334.705 4863.912 22353.622 14398.703 6914.848 5771.238 7186.106 10274.859 11383.892 15815.995 16469.876 8106.766 15597.890 6465.002 11473.860 13457.292 6227.975 5499.662 17132.612 22234.617 6055.099 18372.703 10136.589 6852.085 15525.391 5124.236 11553.927 12889.100 9136.382 6619.835 1844.711 7029.988 11748.012 15543.731 5257.566 22446.969 13592.263 17486.195 11198.809 11366.757 4531.182 7361.645 11456.253 0.000
NODE_COORD_SECTION
1 -2164.012052 1974.697434
2 -5087.277454 -6646.439595
3 -2131.163637 662.944799
4 -1659.138693 -3221.103177
5 -2036.193986 -634.850627
6 796.484039 3127.187234
7 -987.657983 -914.652342
8 -8606.806781 -1734.789608
9 -1364.297900 6831.993073
10 -9129.645538 -10709.052133
11 -10225.782234 3153.303468
12 347.156668 1598.076144
13 534.294528 2793.208664
14 -3512.534173 9758.414541
15 -6793.910415 9072.810546
16 -6006.083515 1392.104674
17 -11710.107948 3135.728816
18 -8387.132609 -3699.459739
19 -3862.635543 11399.423650
20 -8262.652509 -2553.647330
21 234.515358 2165.654220
22 -6007.185202 1235.217504
23 -5843.819927 -1976.669524
24 -822.402702 3225.294712
25 1821.905496 2533.759282
26 -11183.197788 -1187.245048
27 -8917.975132 -10707.813180
28 891.654407 2291.339450
29 -7079.513642 -7287.988299
30 -2292.616649 -584.260266
31 -286.878723 2027.185956
32 -8741.350582 -1871.962467
33 657.253962 3474.405007
34 -3136.090038 -1724.553617
35 -8888.298069 3918.577632
36 9005.475551 585.276842
37 734.742942 1742.838297
38 1588.028860 7466.188644
39 -3297.959726 9930.223062
40 -4229.306074 -1130.359347
41 -4028.447077 -5851.145743
42 489.515740 3424.398505
43 -9074.136494 -10858.903987
44 -5871.334584 -2136.001671
45 -2404.398160 -8692.474531
46 -723.909738 -2609.513868
47 -5950.893340 1341.938881
48 -185.354904 5033.426437
49 -120.703705 1337.463162
50 -6046.193160 1322.553059
51 3402.000850 7801.546696
DEMAND_SECTION
1 0
2 1
3 80
4 9
5 6
6 9
7 8
8 8
9 6
10 7
11 8
12 4
13 9
14 3
15 3
16 3
17 1
18 5
19 3
20 3
21 10
22 6
23 9
24 4
25 1
26 7
27 9
28 5
29 2
30 100
31 2
32 10
33 5
34 4
35 8
36 69
37 7
38 10
39 3
40 10
41 9
42 7
43 1
44 8
45 10
46 60
47 9
48 3
49 9
50 5
51 5
DEPOT_SECTION
1
-1
EOF
