NAME : poryos-hong_kong-n25-hyb
COMMENT : Poryos2026 euclidean metric; city hong_kong; 3-decimal seconds/meters; ENU ref in poryos-hong_kong-n25-hyb.vrp.json
TYPE : CVRP
DIMENSION : 26
EDGE_WEIGHT_TYPE : EXPLICIT
EDGE_WEIGHT_FORMAT : FULL_MATRIX
CAPACITY : 131
EDGE_WEIGHT_SECTION
0.000 4316.215 3374.466 6282.980 6887.017 11131.369 3440.585 6037.197 7115.020 3550.454 8021.474 11706.750 4597.664 6616.415 7603.850 4248.406 6956.787 9116.558 11561.183 14782.000 6250.219 3298.350 12628.534 4142.103 3660.080 7026.034
4316.215 0.000 1930.273 2047.858 4714.393 12257.565 2045.354 1818.388 3264.268 6212.487 6583.029 7877.552 346.422 2834.001 4763.098 1639.423 3720.359 12899.181 13981.632 18902.324 1945.391 2232.112 15347.754 7457.811 7797.685 3784.014
3374.466 1930.273 0.000 3849.613 3790.318 13152.206 149.084 3649.552 3803.589 4378.291 5352.353 9756.176 2270.429 3303.228 4311.878 903.241 3586.994 12458.872 12051.498 17326.960 3625.901 301.921 15575.371 7249.432 7034.207 3656.541
6282.980 2047.858 3849.613 0.000 5465.915 12620.887 3935.109 248.077 2871.113 8213.921 7450.451 5916.098 1720.348 2712.844 5050.074 3245.777 3918.966 14456.174 15810.295 20944.851 434.515 4143.660 16349.862 8977.223 9614.302 3958.877
6887.017 4714.393 3790.318 5465.915 0.000 16841.977 3665.795 5424.182 3045.880 6051.872 1985.294 10739.894 4884.987 2897.331 1185.793 3263.098 1787.350 15967.907 11616.078 19000.381 5042.240 3723.766 19348.456 10954.014 10427.950 1790.762
11131.369 12257.565 13152.206 12620.887 16841.977 0.000 13294.284 12477.371 15296.007 14542.105 18504.325 13510.143 12191.242 14962.372 17019.505 13578.938 15968.815 8847.228 21906.797 20686.872 12981.456 13305.600 5772.590 7776.710 9890.471 16030.486
3440.585 2045.354 149.084 3935.109 3665.795 13294.284 0.000 3739.805 3780.620 4311.732 5210.042 9847.086 2382.215 3281.500 4213.321 892.835 3516.209 12538.430 11940.421 17296.488 3699.075 216.320 15691.792 7350.432 7097.592 3585.448
6037.197 1818.388 3649.552 248.077 5424.182 12477.371 3739.805 0.000 2933.826 8003.636 7405.151 6107.340 1485.669 2734.900 5061.195 3078.781 3927.381 14218.894 15638.999 20707.801 505.361 3945.994 16151.242 8739.694 9366.714 3970.819
7115.020 3264.268 3803.589 2871.113 3045.880 15296.007 3780.620 2933.826 0.000 7752.914 4958.318 7695.833 3208.741 500.733 2300.001 2900.623 1265.030 16049.095 14414.516 20902.020 2445.851 3973.222 18606.723 10661.451 10757.359 1274.131
3550.454 6212.487 4378.291 8213.921 6051.872 14542.105 4311.732 8003.636 7752.914 0.000 6280.204 14089.983 6558.369 7291.415 7139.378 5135.500 7017.000 10898.821 8117.436 13156.206 8003.902 4096.484 15320.694 7042.958 5543.640 7072.677
8021.474 6583.029 5352.353 7450.451 1985.294 18504.325 5210.042 7405.151 4958.318 6280.204 0.000 12640.145 6785.667 4861.923 2753.415 5024.916 3696.306 16870.605 10337.218 18580.585 7027.396 5205.126 20642.731 12162.944 11323.829 3684.209
11706.750 7877.552 9756.176 5916.098 10739.894 13510.143 9847.086 6107.340 7695.833 14089.983 12640.145 0.000 7531.614 7876.944 9911.488 9151.423 8960.129 18351.354 21705.246 26482.780 6198.663 10053.215 18607.953 13177.857 14471.934 8965.403
4597.664 346.422 2270.429 1720.348 4884.987 12191.242 2382.215 1485.669 3208.741 6558.369 6785.667 7531.614 0.000 2810.383 4854.642 1918.885 3779.762 13071.935 14321.602 19224.569 1652.762 2572.345 15403.623 7613.323 8032.933 3840.548
6616.415 2834.001 3303.228 2712.844 2897.331 14962.372 3281.500 2734.900 500.733 7291.415 4861.923 7876.944 2810.383 0.000 2338.812 2400.148 1213.598 15565.589 14080.733 20432.687 2278.434 3475.361 18181.203 10189.930 10261.062 1249.097
7603.850 4763.098 4311.878 5050.074 1185.793 17019.505 4213.321 5061.195 2300.001 7139.378 2753.415 9911.488 4854.642 2338.812 0.000 3592.292 1133.944 16720.370 12761.983 20156.787 4615.561 4323.310 19845.229 11561.307 11221.433 1091.305
4248.406 1639.423 903.241 3245.777 3263.098 13578.938 892.835 3078.781 2900.623 5135.500 5024.916 9151.423 1918.885 2400.148 3592.292 0.000 2760.305 13293.699 12564.519 18174.302 2956.277 1099.315 16253.440 8018.340 7906.865 2830.212
6956.787 3720.359 3586.994 3918.966 1787.350 15968.815 3516.209 3927.381 1265.030 7017.000 3696.306 8960.129 3779.762 1213.598 1133.944 2760.305 0.000 16043.081 13280.614 20156.418 3484.560 3666.212 18953.226 10776.495 10612.911 69.912
9116.558 12899.181 12458.872 14456.174 15967.907 8847.228 12538.430 14218.894 16049.095 10898.821 16870.605 18351.354 13071.935 15565.589 16720.370 13293.699 16043.081 0.000 15817.464 12035.797 14597.460 12408.268 5596.784 5479.242 5555.818 16112.830
11561.183 13981.632 12051.498 15810.295 11616.078 21906.797 11940.421 15638.999 14414.516 8117.436 10337.218 21705.246 14321.602 14080.733 12761.983 12564.519 13280.614 15817.464 0.000 10448.182 15507.932 11749.599 21219.550 14130.400 12049.340 13306.499
14782.000 18902.324 17326.960 20944.851 19000.381 20686.872 17296.488 20707.801 20902.020 13156.206 18580.585 26482.780 19224.569 20432.687 20156.787 18174.302 20156.418 12035.797 10448.182 0.000 20831.425 17082.585 17306.790 14352.678 12414.830 20209.561
6250.219 1945.391 3625.901 434.515 5042.240 12981.456 3699.075 505.361 2445.851 8003.902 7027.396 6198.663 1652.762 2278.434 4615.561 2956.277 3484.560 14597.460 15507.932 20831.425 0.000 3912.079 16620.246 9119.999 9661.059 3524.373
3298.350 2232.112 301.921 4143.660 3723.766 13305.600 216.320 3945.994 3973.222 4096.484 5205.126 10053.215 2572.345 3475.361 4323.310 1099.315 3666.212 12408.268 11749.599 17082.585 3912.079 0.000 15624.808 7255.284 6948.452 3734.971
12628.534 15347.754 15575.371 16349.862 19348.456 5772.590 15691.792 16151.242 18606.723 15320.694 20642.731 18607.953 15403.623 18181.203 19845.229 16253.440 18953.226 5596.784 21219.550 17306.790 16620.246 15624.808 0.000 8489.776 9801.872 19021.659
4142.103 7457.811 7249.432 8977.223 10954.014 7776.710 7350.432 8739.694 10661.451 7042.958 12162.944 13177.857 7613.323 10189.930 11561.307 8018.340 10776.495 5479.242 14130.400 14352.678 9119.999 7255.284 8489.776 0.000 2195.696 10846.332
3660.080 7797.685 7034.207 9614.302 10427.950 9890.471 7097.592 9366.714 10757.359 5543.640 11323.829 14471.934 8032.933 10261.062 11221.433 7906.865 10612.911 5555.818 12049.340 12414.830 9661.059 6948.452 9801.872 2195.696 0.000 10681.951
7026.034 3784.014 3656.541 3958.877 1790.762 16030.486 3585.448 3970.819 1274.131 7072.677 3684.209 8965.403 3840.548 1249.097 1091.305 2830.212 69.912 16112.830 13306.499 20209.561 3524.373 3734.971 19021.659 10846.332 10681.951 0.000
NODE_COORD_SECTION
1 1438.942575 -1211.855723
2 2854.090999 -5289.485434
3 1064.730310 -4565.508184
4 4135.942078 -6886.538572
5 -1291.427586 -7534.520196
6 11628.232688 3269.857197
7 923.626381 -4613.631347
8 4060.200084 -6650.307221
9 1650.430894 -8323.731675
10 -2096.642136 -1536.455502
11 -3269.283285 -7706.210746
12 9158.652102 -10012.655047
13 3141.704469 -5482.583833
14 1591.151434 -7826.520165
15 -640.676540 -8525.795925
16 1223.021177 -5454.771332
17 406.870232 -8091.660322
18 3895.017294 7567.627211
19 -10047.765793 98.291207
20 -7824.829985 10307.260476
21 3725.391552 -7028.847295
22 787.775746 -4445.289215
23 9396.927948 8593.772059
24 3941.763288 2088.584272
25 1773.235849 2432.926155
26 387.033116 -8158.699173
DEMAND_SECTION
1 0
2 7
3 100
4 8
5 4
6 3
7 7
8 7
9 7
10 8
11 1
12 76
13 3
14 5
15 1
16 7
17 55
18 3
19 93
20 2
21 5
22 10
23 5
24 8
25 2
26 2
DEPOT_SECTION
1
-1
EOF
