NAME : poryos-paris-n25-hyb
COMMENT : Poryos2026 shortest metric; city paris; 3-decimal seconds/meters; ENU ref in poryos-paris-n25-hyb.vrp.json
TYPE : CVRP
DIMENSION : 26
EDGE_WEIGHT_TYPE : EXPLICIT
EDGE_WEIGHT_FORMAT : FULL_MATRIX
CAPACITY : 122
EDGE_WEIGHT_SECTION
0.000 7127.721 1048.971 1387.557 5934.853 2089.110 2347.344 7267.151 3006.766 4635.263 6147.746 2301.908 8691.322 5675.994 3654.807 5873.791 3593.114 6585.733 7372.420 6677.246 9819.683 505.157 8178.834 4967.048 6969.121 5738.606
7159.894 0.000 6304.120 8108.744 3425.193 7979.391 6024.959 6572.033 7843.030 11531.725 6642.219 4822.752 14940.212 12354.602 9235.417 5879.450 10489.576 13500.537 6195.962 11931.804 14776.567 7147.701 3308.727 3576.705 673.930 5591.905
989.237 6380.068 0.000 2092.309 5061.717 2382.975 1408.546 6939.683 3193.461 5410.743 6133.790 1554.256 9384.967 6338.167 4001.650 5546.323 4368.594 7479.764 7044.952 7370.892 10513.328 843.581 7305.698 4219.395 6221.469 5411.137
1936.680 8021.297 1751.483 0.000 6150.765 1338.556 3049.775 7215.655 2904.368 3490.788 6008.082 3195.485 7686.712 4497.614 2476.427 5822.295 2448.639 5407.353 7320.924 7267.315 10571.417 1901.789 8812.351 5860.624 7862.697 5687.110
5247.343 3650.213 4391.570 5986.885 0.000 5209.899 3715.688 4386.582 4714.842 9477.673 4226.335 3854.657 13516.884 9356.363 6107.229 3017.817 8435.525 10502.298 4364.087 10977.881 14120.317 5235.151 3540.780 5140.421 3347.974 2730.272
2436.459 7852.710 2128.874 1234.678 5081.691 0.000 3217.847 6146.581 1835.293 4725.466 4928.181 3572.876 8921.390 4970.332 1818.458 4753.221 3683.317 6116.267 6251.850 8323.207 11610.572 2290.803 7743.277 6238.015 7490.021 4618.035
2288.037 5781.948 1432.264 3027.579 3846.258 2601.401 0.000 6178.087 2940.723 6518.367 5522.725 1426.782 10557.578 7273.437 4419.860 4784.726 5476.218 8419.372 6266.140 8417.336 11559.772 2275.845 6090.239 3978.307 5542.832 4632.325
7138.250 6848.775 6830.665 7173.271 4054.397 6062.970 6486.321 0.000 4594.140 10293.408 1671.946 6700.886 14174.816 9062.818 6405.967 1876.405 9546.948 10208.752 2278.556 13519.905 16662.341 6992.594 5647.926 8308.207 6546.536 2238.896
3479.243 7706.944 3171.658 3160.279 4679.607 2049.978 3437.547 4512.430 0.000 6608.842 3291.517 4032.845 10804.766 5970.534 2721.400 3396.755 5608.919 7116.469 4913.965 9860.897 13003.334 3333.587 7250.595 6475.402 7404.704 3280.151
4871.036 11583.135 5313.321 4034.137 9712.603 4701.904 6611.613 10584.925 6466.206 0.000 9364.012 6757.323 4749.837 3266.820 4709.350 9384.133 1922.360 3510.699 10882.762 6320.765 10013.232 5255.632 12374.189 9422.462 11424.535 9248.948
5777.672 6405.247 5470.087 5812.693 3219.711 4702.393 5228.352 2222.360 3233.563 8932.831 0.000 5442.918 13084.419 7972.421 5045.389 752.281 8186.371 9118.355 2576.342 12159.327 15301.763 5632.016 5537.460 7255.634 6103.007 1186.323
2337.142 5186.331 1481.369 3285.992 4225.285 3576.658 1461.794 6701.528 3797.745 6708.973 6120.069 0.000 10284.567 7531.850 5195.333 5308.168 5666.825 8677.785 6789.581 7725.108 10867.544 2324.950 6469.267 3025.658 4977.183 5155.766
8505.411 14629.836 9433.822 8296.521 14054.319 9082.238 10565.117 14297.557 10846.540 5239.476 13561.262 10421.374 0.000 5799.720 9042.562 13764.468 5461.135 4755.813 15263.097 5412.728 7919.346 8890.007 16298.300 12469.163 14488.948 13629.282
5493.399 12205.498 5935.684 4656.500 10334.966 5274.121 7233.976 9718.602 6528.642 2671.201 8899.887 7379.686 5111.998 0.000 4344.631 9256.334 3291.954 1619.850 10885.204 8294.150 11986.618 5877.995 12996.553 10044.825 12046.899 9251.390
3385.676 8964.765 3078.091 2135.601 6193.746 1112.055 4329.903 6280.225 2315.531 4661.416 5059.312 4522.093 8857.341 4091.268 0.000 5154.884 3914.956 5237.203 6672.094 9058.483 12362.586 3240.020 8855.332 7187.232 8602.076 5038.280
5986.241 5999.668 5678.656 6021.262 2814.132 4910.961 5028.169 1811.614 3942.891 9469.825 1533.767 5242.735 13665.749 8681.749 5582.383 0.000 8469.901 9827.684 2165.596 12290.361 15432.797 5840.585 5131.881 6850.055 5697.428 780.744
3407.154 10127.345 4335.565 3060.243 8874.741 4001.452 5697.494 9884.473 5628.344 1651.660 8663.559 5652.059 5411.959 4011.308 4008.898 8546.271 0.000 4255.187 10044.901 5479.913 9026.610 3791.751 11528.985 7966.672 9986.458 8411.086
6718.039 13430.139 7160.324 5881.141 11554.198 6472.507 8458.617 10435.240 7684.423 3600.455 9698.945 8604.326 5138.999 2019.833 5500.412 10176.595 4516.595 0.000 11884.185 8807.750 12500.218 7102.636 14215.784 11269.465 13271.539 10407.171
7786.122 6466.573 7403.565 7821.144 4082.347 6710.843 6727.684 2040.481 5873.408 11269.706 2985.866 6942.249 15465.631 10612.266 7382.265 2370.763 10269.783 11758.201 0.000 13989.876 17132.312 7640.466 4498.411 8549.570 6164.333 2346.848
7152.508 13225.828 8080.919 7526.435 12701.417 8528.725 9212.215 14299.099 10038.714 5160.870 13179.694 9068.472 3478.014 7435.250 8978.483 12905.739 5254.815 7359.479 14404.368 0.000 7241.887 7537.105 14945.398 11065.155 13084.940 12770.554
9456.748 14694.715 10385.159 10236.467 14495.499 11238.757 11006.297 16603.339 12342.954 9773.957 15483.934 10778.952 7598.998 12048.336 12329.135 15209.979 8758.648 12227.530 16708.608 5830.103 0.000 9841.345 16663.606 12207.617 14553.828 15074.793
368.911 6984.127 641.297 1756.468 5701.251 2458.021 2048.080 7579.217 3336.386 4744.275 6477.366 2158.314 8718.499 6044.905 4023.719 6185.856 3702.126 6954.644 7684.486 6704.424 9846.860 0.000 7945.232 4823.454 6825.527 6050.671
7897.527 3211.957 7041.754 8637.069 2910.672 8120.571 6365.872 5647.174 7625.515 12127.857 5952.490 6300.169 15998.535 12267.035 9017.901 5189.721 11085.709 13412.970 4400.603 13439.075 16581.511 7885.335 0.000 6114.813 3205.657 4902.176
5195.913 3438.332 4340.140 6144.764 4255.170 6435.429 4232.003 7957.316 6567.954 9567.745 7797.070 2858.772 12789.922 10390.622 8054.105 6588.552 8376.704 11536.556 7934.821 9781.515 12572.138 5183.721 5615.423 0.000 3363.083 6301.006
7046.622 840.204 6190.849 7786.164 3047.119 7469.400 5514.967 6193.959 7464.956 11276.952 6264.145 4821.481 14938.941 12032.023 8857.343 5501.376 10234.804 13177.957 5818.019 11930.534 14775.297 7034.430 3101.013 3673.797 0.000 5213.831
6246.367 5416.352 5863.810 6281.388 2542.591 5171.087 5187.928 1656.310 4434.288 9729.951 1546.746 5402.493 13925.875 9091.643 5842.509 927.496 8730.027 10237.577 1633.815 12450.120 15592.556 6100.711 4512.119 7009.814 5114.112 0.000
NODE_COORD_SECTION
1 -500.874011 70.822412
2 4532.192554 3564.094497
3 166.984340 335.141569
4 -588.944601 -792.968899
5 4120.443653 654.122726
6 415.314351 -1288.544346
7 1105.266364 713.285891
8 5163.088515 -2340.546063
9 1662.220133 -1711.921113
10 -3498.227137 -1950.945654
11 4204.133521 -2188.207592
12 799.973175 1567.271729
13 -7412.432748 -2185.927410
14 -2811.179308 -3538.729095
15 227.780222 -2321.220408
16 4505.568424 -1655.403667
17 -2850.446418 -1005.567118
18 -3710.334449 -4482.090006
19 6130.390267 -1434.990247
20 -5875.321694 627.847685
21 -8626.614990 3587.161089
22 -324.785551 278.688697
23 6228.987345 1883.450036
24 1919.382643 3826.279340
25 4278.097632 3078.283647
26 4615.996590 -1306.279882
DEMAND_SECTION
1 0
2 2
3 3
4 2
5 8
6 4
7 4
8 10
9 8
10 3
11 65
12 2
13 61
14 8
15 57
16 1
17 10
18 99
19 7
20 51
21 7
22 5
23 2
24 4
25 71
26 95
DEPOT_SECTION
1
-1
EOF
