NAME : mamut-hong_kong-n25-poi
COMMENT : Mamut2026 shortest metric; city hong_kong; 3-decimal seconds/meters; ENU ref in mamut-hong_kong-n25-poi.vrp.json
TYPE : CVRP
DIMENSION : 26
EDGE_WEIGHT_TYPE : EXPLICIT
EDGE_WEIGHT_FORMAT : FULL_MATRIX
CAPACITY : 141
EDGE_WEIGHT_SECTION
0.000 18570.626 9373.847 8484.256 3475.674 4114.990 7009.041 9154.839 8810.798 16068.468 5833.380 6646.356 8750.395 9144.672 13533.988 16115.840 9324.732 14199.422 10511.651 13360.988 18892.087 6194.656 4328.839 10019.467 5489.852 8518.647
18904.667 0.000 11025.527 25854.189 19776.122 20368.996 19358.509 26524.771 26180.731 27050.813 18225.748 13565.078 26120.328 26514.604 11190.744 27098.185 26694.665 31569.355 27881.584 27430.197 811.541 18544.123 21698.772 20863.768 22859.785 25888.580
9556.801 10838.320 0.000 16506.322 10671.404 12049.390 11104.594 17176.905 16832.864 17648.848 9971.833 4157.607 16772.461 17166.738 7069.227 17696.219 17346.798 22221.488 18533.717 19176.283 11159.781 10290.209 12350.905 11461.803 13511.918 16540.713
8705.119 25770.387 16658.640 0.000 7873.133 6296.782 9898.190 1326.194 1106.818 21379.798 10300.097 13931.148 703.746 1953.693 20324.203 21427.170 2431.768 6362.393 3994.356 6386.849 26091.849 10290.066 5456.677 15772.543 5031.490 1613.828
3214.354 18596.982 10397.514 7253.673 0.000 1728.773 4320.722 7924.255 7580.214 17490.043 3516.368 8177.326 7519.811 7914.088 13150.798 17537.415 8094.149 12968.839 9707.993 11967.943 18918.443 3506.337 3525.181 11882.789 4468.533 7288.064
3855.319 19589.785 11390.317 6307.877 1692.530 0.000 4246.718 6978.459 6634.419 17589.061 4119.494 8818.292 6574.016 6968.292 14143.601 17636.433 7148.353 12023.043 8890.224 11184.609 19911.246 4109.463 3166.631 11981.807 3522.737 6342.268
6890.709 19472.902 11273.435 9820.873 5632.263 4390.874 0.000 10491.455 10147.415 21528.794 3846.307 11128.992 10087.012 10481.288 14026.718 21576.165 10661.349 15536.039 12403.219 8155.735 19794.364 2041.614 7106.364 15921.539 7035.733 9855.264
9224.782 26290.051 17178.303 1356.790 8392.796 6816.445 10417.853 0.000 608.065 21899.461 10819.760 14450.812 1461.666 663.154 20843.867 21946.833 1458.862 6424.473 2762.272 7524.885 26611.512 10809.729 5976.340 16292.207 5551.154 817.637
8993.359 26058.628 16946.880 1207.634 8161.374 6585.023 10186.431 503.793 0.000 21668.039 10588.338 14219.389 1418.719 922.708 20612.444 21715.410 1477.490 6739.942 2959.144 7237.245 26380.089 10578.306 5744.918 16060.784 5319.731 655.199
16067.908 26669.702 17354.067 21604.430 18035.839 17973.950 21367.851 22275.012 21930.971 0.000 20563.497 16374.211 21870.568 22179.381 22655.525 160.797 21831.320 26212.117 20781.202 26481.161 26991.163 20553.466 16070.557 7279.543 17313.087 21638.821
5902.266 18565.297 10365.829 10214.074 4763.670 4689.174 3449.059 10884.656 10540.616 20884.714 0.000 10140.549 10480.213 10874.489 13119.113 20932.086 11054.550 15929.240 12796.420 11218.922 18886.758 2634.673 6740.430 14942.066 7428.934 10248.465
6956.874 13401.381 4157.503 13906.395 8071.477 9449.463 10660.109 14576.977 14232.937 16604.566 9468.971 0.000 14172.534 14566.810 8317.643 16651.937 14746.871 19621.561 15933.790 18728.926 13722.842 9845.723 9750.978 10417.521 10911.991 13940.786
9798.733 26864.002 17752.254 1777.237 8966.747 7390.396 10991.804 1857.518 2078.335 22473.412 11393.711 15024.762 0.000 2485.017 21417.817 22520.784 3308.677 6976.223 4584.136 7393.147 27185.463 11383.680 6550.291 16866.158 6125.104 2599.702
9579.796 26645.065 17533.317 1867.655 8747.810 7171.459 10772.867 663.154 941.691 22099.961 11174.774 14805.826 2089.166 0.000 21198.881 22147.333 1249.681 7051.972 2099.119 7897.267 26966.526 11164.743 6331.354 16515.734 5906.168 831.903
14242.469 11799.730 7653.965 20730.270 14612.497 15205.371 14194.885 21400.853 21056.812 23395.725 13062.123 8843.275 20996.409 21390.686 0.000 23443.097 21570.746 26445.436 23219.386 22266.573 12121.192 13380.499 17036.573 17208.680 17945.131 20764.662
16013.779 26615.572 17299.937 21550.300 17981.710 17919.820 21313.722 22220.882 21876.842 160.797 20509.367 16320.081 21816.439 22125.251 22601.396 0.000 21777.190 26157.987 20727.072 26427.032 26937.034 20499.336 16016.427 7225.413 17258.958 21584.691
9504.978 26570.247 17458.499 2105.722 8672.993 7096.642 10698.050 1083.089 1274.586 21805.691 11099.956 14731.008 2509.101 419.935 21124.063 21853.063 0.000 7471.907 1926.877 7972.677 26891.708 11089.925 6256.537 16221.464 5831.350 1053.317
13907.717 30972.986 21861.238 6050.219 13075.732 11499.381 15100.789 5974.520 6195.338 26263.151 15502.696 19133.747 6155.095 6602.020 25526.802 26310.522 7066.095 0.000 7192.923 12218.314 31294.448 15492.664 10659.276 20678.924 10234.089 6716.705
10814.741 27965.041 18768.262 4001.861 10407.325 8992.781 12594.189 2979.228 3170.725 20768.519 12907.079 16040.771 4405.240 2316.074 22868.646 20815.891 1968.013 8255.056 0.000 9868.816 28286.502 12897.048 6857.577 15184.292 7133.996 2949.456
14218.218 27388.379 19188.911 6279.501 12993.349 11751.960 8719.938 7458.821 6979.421 26892.897 11761.784 19044.469 6579.725 7735.393 21942.195 26940.269 7915.453 12495.021 9657.324 0.000 27709.840 10059.222 10969.776 21285.643 10544.590 7103.591
19050.131 689.784 11170.990 25999.652 19921.585 20514.459 19503.972 26670.234 26326.194 27196.276 18371.211 13710.542 26265.791 26660.068 11336.207 27243.648 26840.128 31714.818 28027.047 27575.661 0.000 18689.587 21844.235 21009.231 23005.248 26034.043
6334.684 18916.877 10717.410 9264.848 5076.238 3834.849 1122.092 9935.430 9591.390 20972.769 3290.282 10572.967 9530.987 9925.263 13470.693 21020.140 10105.324 14980.014 11847.195 9153.778 19238.339 0.000 6550.339 15365.514 6479.708 9299.239
4405.571 21555.871 12359.092 6110.063 3998.155 3040.275 7063.558 6780.645 6436.604 16372.319 6497.909 9631.601 6376.201 6770.478 16459.476 16419.690 6950.538 11825.228 6660.237 10986.794 21877.332 6487.878 0.000 10765.064 1963.028 6144.454
10200.197 20374.641 11059.006 15757.064 12188.473 12126.583 15520.485 16427.646 16083.605 6916.595 14716.131 10079.150 16023.202 16332.014 16360.464 6963.967 15983.954 20364.751 14933.836 20633.795 20696.102 14706.099 10223.191 0.000 11465.721 15791.455
5366.897 22517.197 13320.418 5017.927 4800.211 3223.860 6825.268 5688.509 5344.469 17313.349 7227.175 10592.927 5284.066 5678.342 17251.281 17360.721 5858.403 10733.093 6969.473 9894.659 22838.658 7217.144 1468.189 11729.122 0.000 5052.318
8977.936 26043.205 16931.457 1266.068 8145.950 6569.600 10171.007 1142.635 798.594 21652.616 10572.914 14203.966 1872.239 1030.208 20597.021 21699.987 1218.386 7329.971 2960.257 7295.679 26364.666 10562.883 5729.494 16045.361 5304.308 0.000
NODE_COORD_SECTION
1 1438.942575 -1211.855723
2 606.034796 10526.327715
3 3450.936963 4916.363532
4 2412.065493 -8187.728259
5 3264.032303 -2622.794823
6 3014.637515 -3322.311967
7 5763.251601 -3927.862086
8 1392.931499 -8628.895293
9 1657.151202 -8331.127986
10 -10408.836804 1725.461763
11 5843.925895 -1958.182873
12 2844.425478 2192.634833
13 2490.775824 -8792.788096
14 846.798385 -8315.690576
15 7561.666621 7858.721942
16 -10396.118462 1615.913891
17 497.007702 -8167.233631
18 -525.316509 -11485.933225
19 -934.915477 -7640.894735
20 6824.799442 -8201.209743
21 687.515044 11057.865037
22 5775.898317 -2998.184849
23 1064.730310 -4565.508184
24 -4551.942348 2130.487420
25 1603.968974 -5599.975802
26 1413.584964 -8172.503541
DEMAND_SECTION
1 0
2 1
3 9
4 7
5 4
6 9
7 71
8 84
9 100
10 1
11 1
12 82
13 8
14 1
15 4
16 3
17 5
18 8
19 79
20 87
21 3
22 4
23 99
24 5
25 3
26 4
DEPOT_SECTION
1
-1
EOF
