NAME : mamut-san_francisco-n25-hyb
COMMENT : Mamut2026 fastest metric; city san_francisco; 3-decimal seconds/meters; ENU ref in mamut-san_francisco-n25-hyb.vrp.json
TYPE : CVRP
DIMENSION : 26
EDGE_WEIGHT_TYPE : EXPLICIT
EDGE_WEIGHT_FORMAT : FULL_MATRIX
CAPACITY : 129
EDGE_WEIGHT_SECTION
0.000 708.206 139.602 121.079 279.684 281.129 832.278 164.406 773.601 94.531 181.010 58.591 138.720 604.744 682.955 543.167 298.422 671.868 373.540 657.565 715.184 376.596 101.928 225.615 602.743 929.419
734.815 0.000 694.767 817.564 863.766 987.904 124.072 841.417 147.078 727.481 815.134 735.593 773.570 1188.825 1278.729 1138.941 893.038 1267.642 1050.551 1241.647 1299.266 971.211 795.654 792.179 255.145 248.430
144.228 686.332 0.000 167.863 355.066 354.291 810.404 157.050 751.727 57.209 133.170 101.914 245.325 680.126 770.030 630.242 378.972 758.942 366.184 732.948 790.567 457.145 208.533 257.504 580.870 907.545
113.719 795.687 186.324 0.000 357.655 214.770 919.759 101.051 861.082 141.252 176.311 122.579 172.086 682.714 713.896 576.533 395.076 703.342 284.371 735.536 793.155 473.249 88.914 329.417 690.225 1016.900
285.657 856.561 367.729 368.000 0.000 526.325 980.633 411.327 921.955 349.703 427.931 313.763 264.444 344.635 520.000 380.212 134.321 508.913 620.461 397.456 455.075 175.391 309.583 333.360 751.098 1077.774
263.821 966.481 360.481 211.399 507.346 0.000 1090.553 254.795 1031.875 315.409 343.339 284.227 320.031 832.405 565.204 492.690 544.767 554.650 337.955 878.275 842.108 622.940 239.016 479.518 861.018 1187.694
853.918 133.802 813.870 936.666 982.868 1107.006 0.000 960.519 125.391 846.583 934.236 854.695 892.672 1307.928 1397.831 1258.044 1012.141 1386.744 1169.654 1360.749 1418.368 1090.314 914.756 911.282 375.259 198.280
150.826 807.489 152.445 110.612 394.761 282.945 931.561 0.000 872.884 161.370 88.544 150.425 218.576 719.821 762.811 623.024 432.183 751.724 222.778 772.642 830.261 510.356 181.784 357.266 702.026 1028.702
783.786 155.729 743.738 866.535 912.737 1036.875 124.765 890.388 0.000 776.452 864.105 784.564 822.541 1237.796 1327.700 1187.912 942.009 1316.613 1099.522 1290.618 1348.237 1020.182 844.625 841.150 309.581 244.674
106.203 709.969 78.324 129.838 353.532 316.265 834.041 165.234 775.363 0.000 162.936 63.888 207.299 678.592 751.534 611.747 372.271 740.447 374.368 731.414 789.033 450.444 170.508 266.469 604.506 931.182
173.795 788.607 133.563 164.083 417.730 350.511 912.679 93.136 854.002 156.932 0.000 173.394 241.545 742.790 785.780 645.993 448.757 774.693 285.612 795.612 853.231 526.930 204.753 327.289 683.144 1009.820
50.933 727.024 117.660 96.932 320.660 256.983 851.096 140.260 792.418 72.588 156.864 0.000 148.017 645.719 692.252 552.465 339.398 681.165 349.394 698.541 756.160 417.571 111.225 252.155 621.561 948.237
119.931 762.464 234.074 168.382 251.406 326.018 886.536 223.693 827.858 205.239 240.297 173.108 0.000 576.465 556.333 416.545 290.446 545.246 432.827 629.287 686.906 368.619 109.277 250.500 657.001 983.677
526.754 1097.657 608.826 609.096 268.713 767.421 1221.729 652.424 1163.052 590.800 669.028 554.860 505.540 0.000 712.108 571.977 312.842 700.677 861.558 400.324 457.943 353.912 550.680 533.151 992.195 1318.870
665.263 1263.970 775.138 713.714 507.800 567.757 1388.042 769.025 1329.365 750.570 785.629 719.388 556.226 592.846 0.000 140.131 593.014 128.533 859.915 521.635 476.068 659.210 654.608 715.764 1158.508 1485.183
525.132 1123.839 635.007 573.583 367.669 459.189 1247.911 628.894 1189.234 610.439 645.498 579.257 416.095 457.794 140.131 0.000 452.883 128.701 751.348 400.162 354.596 519.079 514.477 575.633 1018.377 1345.052
305.720 854.646 353.065 388.062 134.024 546.387 978.718 431.389 920.041 352.253 447.994 316.313 284.506 394.641 588.470 448.683 0.000 577.383 640.523 447.463 505.082 111.239 329.645 262.104 749.184 1075.859
652.017 1250.724 761.893 700.468 494.554 554.511 1374.796 755.779 1316.119 737.324 772.383 706.142 542.980 509.040 107.547 126.885 579.768 0.000 846.669 437.828 392.262 645.965 641.362 702.519 1145.262 1471.937
378.111 1028.685 373.641 312.549 622.046 350.700 1152.757 231.792 1094.080 388.655 290.049 377.710 445.861 947.106 860.373 787.858 659.468 849.819 0.000 999.927 1057.546 737.641 378.186 567.367 923.223 1249.898
609.758 1180.662 691.830 692.101 351.717 828.823 1304.733 735.428 1246.056 673.804 752.032 637.864 588.545 146.541 513.527 396.465 395.846 439.677 944.562 0.000 172.274 436.916 633.684 616.155 1075.199 1401.874
712.684 1283.588 794.756 795.027 454.643 821.436 1407.660 838.354 1348.982 776.730 854.958 740.790 691.471 249.468 479.308 362.247 498.773 405.459 1047.488 172.221 0.000 539.842 736.610 719.081 1178.125 1504.801
383.365 932.292 430.711 465.708 175.329 624.033 1056.364 509.035 997.687 429.898 525.639 393.959 362.152 435.946 664.372 524.241 111.239 652.941 718.169 488.768 546.387 0.000 407.291 339.749 826.830 1153.505
85.654 793.257 216.033 85.889 302.408 245.446 917.329 186.941 858.651 170.962 206.020 139.779 115.093 627.468 659.328 519.540 339.830 648.241 358.323 680.289 737.908 418.003 0.000 308.418 687.794 1014.470
256.063 734.138 232.557 322.232 354.534 482.283 858.210 358.318 799.532 244.381 328.517 225.300 253.368 617.826 721.907 582.120 266.522 710.820 564.159 670.648 728.267 344.695 314.469 0.000 628.675 955.351
645.567 244.829 605.519 728.315 774.517 898.656 368.901 752.168 310.224 638.232 725.885 646.344 684.321 1099.577 1189.480 1049.693 803.790 1178.393 961.303 1152.398 1210.017 881.963 706.405 702.931 0.000 466.042
939.186 249.120 899.137 1021.934 1068.136 1192.274 189.240 1045.787 240.709 931.851 1019.504 939.963 977.940 1393.195 1483.099 1343.311 1097.408 1472.012 1254.921 1446.017 1503.636 1175.582 1000.024 996.549 464.980 0.000
NODE_COORD_SECTION
1 27567.380647 -311.862562
2 38257.799860 9676.787791
3 28538.966090 1016.693012
4 25888.914386 405.943791
5 28540.425734 -6244.715858
6 21553.927040 -512.874100
7 38424.235110 11826.298885
8 25872.749559 1715.523159
9 36957.000240 11166.634803
10 27910.377166 859.836616
11 27055.629237 2556.391717
12 27590.995832 222.692284
13 26855.440353 -2190.735905
14 30079.263644 -12410.035017
15 21628.207005 -11634.268768
16 23001.815504 -10624.798929
17 29894.807566 -5655.919675
18 22355.373881 -12033.672188
19 25092.789939 2582.964149
20 28326.578033 -14918.053311
21 27502.683222 -15445.102092
22 30311.322838 -6472.820801
23 26415.372131 -694.666816
24 30234.935720 -1177.051005
25 38289.055259 5129.499080
26 36230.288805 14740.874347
DEMAND_SECTION
1 0
2 2
3 4
4 2
5 3
6 5
7 52
8 7
9 5
10 7
11 70
12 4
13 1
14 79
15 10
16 3
17 1
18 82
19 4
20 9
21 9
22 6
23 62
24 9
25 86
26 2
DEPOT_SECTION
1
-1
EOF
