NAME : mamut-paris-n25-poi
COMMENT : Mamut2026 euclidean metric; city paris; 3-decimal seconds/meters; ENU ref in mamut-paris-n25-poi.vrp.json
TYPE : CVRP
DIMENSION : 26
EDGE_WEIGHT_TYPE : EXPLICIT
EDGE_WEIGHT_FORMAT : FULL_MATRIX
CAPACITY : 167
EDGE_WEIGHT_SECTION
0.000 5291.261 735.180 2386.266 706.510 4063.503 3511.859 3866.817 4788.616 4470.037 4238.511 2330.230 4139.744 6895.093 2768.786 1047.313 9695.076 3140.699 6003.636 4853.211 2354.058 1042.022 5651.516 2572.353 3756.644 3911.411
5291.261 0.000 5958.423 7541.694 4745.342 9255.640 8611.224 6263.171 2094.881 9653.391 8281.893 5599.624 7817.261 10153.612 8010.030 6332.658 14111.746 7848.539 4384.635 822.266 4673.647 4657.198 10675.805 7535.336 6321.382 3401.423
735.180 5958.423 0.000 1992.596 1435.708 3340.921 2777.234 4298.711 5522.830 3969.937 4253.106 2169.494 4268.103 6988.459 2254.800 589.732 9440.682 2981.978 6274.569 5554.982 2484.956 1747.144 5229.344 1849.855 3530.216 4259.098
2386.266 7541.694 1992.596 0.000 2804.717 2718.691 2602.920 3860.739 6656.734 2113.778 2714.587 4046.399 2987.852 5454.569 585.515 1415.288 7460.376 1253.743 8266.953 7003.999 4473.204 2894.739 3267.850 2440.602 5271.714 6235.485
706.510 4745.342 1435.708 2804.717 0.000 4733.342 4204.571 3433.128 4105.276 4918.421 4215.981 2770.977 4008.892 6750.248 3265.163 1633.443 9864.446 3321.477 5947.187 4249.344 2560.416 373.568 6012.700 3278.691 4191.071 3813.484
4063.503 9255.640 3340.921 2718.691 4733.342 0.000 746.776 6577.868 8838.126 2522.196 5144.261 4242.264 5566.424 7670.368 2179.245 3131.134 8297.605 3755.604 8687.659 8889.629 5075.038 4985.270 3799.768 1822.075 4834.392 7015.370
3511.859 8611.224 2777.234 2602.920 4204.571 746.776 0.000 6383.013 8300.049 2972.538 5223.335 3500.789 5571.525 7862.250 2158.967 2671.083 8850.457 3775.889 7941.035 8279.622 4346.196 4487.242 4322.524 1102.059 4101.855 6283.619
3866.817 6263.171 4298.711 3860.739 3433.128 6577.868 6383.013 0.000 4494.038 5273.248 2497.253 6174.749 1861.285 3893.037 4421.814 3980.502 8053.184 3076.420 8988.357 5477.531 5976.946 3097.192 5641.747 5877.259 7603.384 6891.277
4788.616 2094.881 5522.830 6656.734 4105.276 8838.126 8300.049 4494.038 0.000 8689.192 6770.061 5953.015 6223.967 8317.545 7200.088 5719.816 12523.091 6647.869 6152.435 1296.354 5160.223 3865.450 9518.548 7323.245 7033.605 4623.890
4470.037 9653.391 3969.937 2113.778 4918.421 2522.196 2972.538 5273.248 8689.192 0.000 3169.920 5761.352 3752.197 5336.388 1716.059 3445.328 5905.170 2212.622 10168.831 9102.808 6358.827 5000.257 1385.766 3553.821 6760.107 8216.189
4238.511 8281.893 4253.106 2714.587 4215.981 5144.261 5223.335 2497.253 6770.061 3169.920 0.000 6420.867 658.210 2764.353 3066.172 3704.508 5831.371 1465.185 10161.985 7563.771 6591.356 4047.235 3215.596 5152.962 7771.875 8029.448
2330.230 5599.624 2169.494 4046.399 2770.977 4242.264 3500.789 6174.749 5953.015 5761.352 6420.867 0.000 6407.784 9145.562 4140.235 2738.401 11487.343 5136.227 4478.075 5494.458 941.502 3135.671 7114.593 2435.793 1429.173 2808.731
4139.744 7817.261 4268.103 2987.852 4008.892 5566.424 5571.525 1861.285 6223.967 3752.197 658.210 6407.784 0.000 2756.364 3421.748 3762.490 6312.711 1811.646 9938.507 7076.679 6483.801 3791.121 3871.384 5379.738 7796.306 7800.965
6895.093 10153.612 6988.459 5454.569 6750.248 7670.368 7862.250 3893.037 8317.545 5336.388 2764.353 9145.562 2756.364 0.000 5741.113 6455.156 4686.349 4201.773 12648.282 9361.770 9240.120 6511.159 4686.242 7894.058 10517.182 10513.436
2768.786 8010.030 2254.800 585.515 3265.163 2179.245 2158.967 4421.814 7200.088 1716.059 3066.172 4140.235 3421.748 5741.113 0.000 1733.226 7359.685 1617.917 8485.244 7500.314 4673.066 3393.961 2997.622 2219.321 5263.533 6507.520
1047.313 6332.658 589.732 1415.288 1633.443 3131.134 2671.083 3980.502 5719.816 3445.328 3704.508 2738.401 3762.490 6455.156 1733.226 0.000 8852.676 2399.885 6854.637 5872.864 3073.001 1856.938 4671.649 1928.508 4067.459 4821.233
9695.076 14111.746 9440.682 7460.376 9864.446 8297.605 8850.457 8053.184 12523.091 5905.170 5831.371 11487.343 6312.711 4686.349 7359.685 8852.676 0.000 6561.531 15690.128 13384.502 11925.539 9766.556 4530.210 9442.218 12610.201 13605.792
3140.699 7848.539 2981.978 1253.743 3321.477 3755.604 3775.889 3076.420 6647.869 2212.622 1465.185 5136.227 1811.646 4201.773 1617.917 2399.885 6561.531 0.000 9144.173 7215.413 5431.570 3268.853 2871.732 3694.343 6432.705 7046.832
6003.636 4384.635 6274.569 8266.953 5947.187 8687.659 7941.035 8988.357 6152.435 10168.831 10161.985 4478.075 9938.507 12648.282 8485.244 6854.637 15690.128 9144.173 0.000 4953.553 3812.389 6147.478 11482.448 6906.104 4063.174 2137.543
4853.211 822.266 5554.982 7003.999 4249.344 8889.629 8279.622 5477.531 1296.354 9102.808 7563.771 5494.458 7076.679 9361.770 7500.314 5872.864 13384.502 7215.413 4953.553 0.000 4607.868 4110.202 10068.136 7231.605 6379.711 3656.137
2354.058 4673.647 2484.956 4473.204 2560.416 5075.038 4346.196 5976.946 5160.223 6358.827 6591.356 941.502 6483.801 9240.120 4673.066 3073.001 11925.539 5431.570 3812.389 4607.868 0.000 2880.397 7670.531 3252.990 1900.406 1941.865
1042.022 4657.198 1747.144 2894.739 373.568 4985.270 4487.242 3097.192 3865.450 5000.257 4047.235 3135.671 3791.121 6511.159 3393.961 1856.938 9766.556 3268.853 6147.478 4110.202 2880.397 0.000 6034.515 3596.999 4551.286 4009.964
5651.516 10675.805 5229.344 3267.850 6012.700 3799.768 4322.524 5641.747 9518.548 1385.766 3215.596 7114.593 3871.384 4686.242 2997.622 4671.649 4530.210 2871.732 11482.448 10068.136 7670.531 6034.515 0.000 4939.494 8142.408 9488.173
2572.353 7535.336 1849.855 2440.602 3278.691 1822.075 1102.059 5877.259 7323.245 3553.821 5152.962 2435.793 5379.738 7894.058 2219.321 1928.508 9442.218 3694.343 6906.104 7231.605 3252.990 3596.999 4939.494 0.000 3221.603 5193.663
3756.644 6321.382 3530.216 5271.714 4191.071 4834.392 4101.855 7603.384 7033.605 6760.107 7771.875 1429.173 7796.306 10517.182 5263.533 4067.459 12610.201 6432.705 4063.174 6379.711 1900.406 4551.286 8142.408 3221.603 0.000 3057.209
3911.411 3401.423 4259.098 6235.485 3813.484 7015.370 6283.619 6891.277 4623.890 8216.189 8029.448 2808.731 7800.965 10513.436 6507.520 4821.233 13605.792 7046.832 2137.543 3656.137 1941.865 4009.964 9488.173 5193.663 3057.209 0.000
NODE_COORD_SECTION
1 -500.874011 70.822412
2 -2638.609714 -4769.377340
3 -534.659987 805.225976
4 1249.268362 1692.940602
5 -340.997373 -617.360523
6 -6.643186 4104.157400
7 -540.964367 3582.452921
8 2879.533506 -1806.708002
9 -544.368886 -4717.595754
10 2428.495472 3447.215231
11 3710.670732 548.177392
12 -2704.014527 829.864944
13 3635.106014 -105.680901
14 6391.390445 -126.648250
15 1176.237289 2273.883026
16 30.630105 973.245588
17 8290.789685 4157.525942
18 2416.239014 1234.627219
19 -6104.551525 -2083.809897
20 -1834.953986 -4595.427885
21 -2848.692915 -100.454890
22 -75.965872 -880.630446
23 3777.784804 3763.072543
24 -1020.431392 2590.159626
25 -4014.327699 1400.490430
26 -4010.111381 -1656.715570
DEMAND_SECTION
1 0
2 9
3 7
4 3
5 7
6 6
7 1
8 6
9 52
10 9
11 4
12 8
13 9
14 65
15 10
16 7
17 7
18 7
19 10
20 5
21 8
22 2
23 9
24 7
25 10
26 10
DEPOT_SECTION
1
-1
EOF
