NAME : mamut-tokyo-n10-poi
COMMENT : Mamut2026 shortest metric; city tokyo; 3-decimal seconds/meters; ENU ref in mamut-tokyo-n10-poi.vrp.json
TYPE : CVRP
DIMENSION : 11
EDGE_WEIGHT_TYPE : EXPLICIT
EDGE_WEIGHT_FORMAT : FULL_MATRIX
CAPACITY : 81
EDGE_WEIGHT_SECTION
0.000 1257.124 16562.125 13621.694 3682.601 4450.300 12983.458 4626.289 4703.430 983.768 4968.785
1415.864 0.000 16203.289 13338.881 4786.717 5582.551 12674.292 4785.778 3458.479 968.281 3723.834
16679.510 16403.879 0.000 3731.639 15846.831 18964.290 3827.102 20944.764 15418.115 15913.135 15682.315
13726.373 13516.030 3739.128 0.000 12893.694 16011.153 1352.058 18056.479 12579.242 12959.999 12843.442
3644.679 4737.285 15955.151 13014.721 0.000 3402.674 12376.485 6697.844 7316.580 3988.675 7679.726
4345.477 5500.186 19104.028 16163.598 3594.935 0.000 15525.362 5309.131 8811.103 5300.596 9008.449
13308.579 12838.307 3751.414 1245.946 12545.431 15662.890 0.000 17379.192 11852.543 12483.682 12116.743
4280.284 4640.536 20656.648 17716.217 6395.030 4900.015 17077.982 0.000 6799.216 5216.729 6936.441
4832.256 3752.200 15334.607 12781.024 7327.255 8779.483 11805.610 7147.339 0.000 4016.393 476.491
1125.677 1075.069 15791.363 12850.932 3962.761 5413.126 12212.697 5615.954 4041.784 0.000 4337.967
5020.319 3940.262 15621.776 13068.194 7516.158 8899.240 12092.780 7207.202 375.372 4204.455 0.000
NODE_COORD_SECTION
1 -2164.012052 1974.697434
2 -2368.539979 2915.978558
3 9776.578345 10419.041124
4 8331.450764 7800.840154
5 -322.013761 -202.150546
6 -2927.457662 -1444.524479
7 7514.637438 8013.310529
8 -5883.661613 1377.121806
9 -2548.544214 5788.997489
10 -1610.435490 2670.890212
11 -2767.872459 5965.912599
DEMAND_SECTION
1 0
2 2
3 7
4 9
5 4
6 4
7 7
8 4
9 5
10 5
11 5
DEPOT_SECTION
1
-1
EOF
