NAME : mamut-hong_kong-n100-hyb
COMMENT : Mamut2026 fastest metric; city hong_kong; 3-decimal seconds/meters; ENU ref in mamut-hong_kong-n100-hyb.vrp.json
TYPE : CVRP
DIMENSION : 101
EDGE_WEIGHT_TYPE : EXPLICIT
EDGE_WEIGHT_FORMAT : FULL_MATRIX
CAPACITY : 153
EDGE_WEIGHT_SECTION
0.000 555.324 378.461 209.891 530.521 251.739 200.353 290.725 423.978 208.825 257.808 722.844 238.600 186.499 410.058 495.579 325.852 174.875 276.741 385.736 200.414 230.765 182.418 201.627 533.634 624.989 607.505 508.595 401.451 418.977 429.150 159.165 401.518 224.999 267.941 446.436 185.016 494.070 773.299 280.983 802.506 649.491 485.625 265.245 419.316 297.878 456.775 393.754 377.925 296.306 423.882 471.682 513.337 721.844 474.663 497.471 469.411 1078.222 228.646 401.972 472.038 361.379 475.309 295.358 510.989 323.380 375.389 279.039 690.762 731.261 582.361 436.535 353.834 473.652 674.007 725.066 748.126 823.874 396.522 427.403 477.758 580.429 1003.123 387.061 555.592 506.486 764.092 415.503 826.099 401.580 660.436 442.899 795.511 493.110 348.427 449.706 234.296 901.487 425.750 690.760 724.895
547.529 0.000 208.718 479.691 389.949 618.098 530.815 603.902 229.052 399.075 376.589 1155.899 600.795 467.039 255.065 355.518 758.906 464.564 408.114 210.372 405.764 392.255 528.952 481.021 425.726 1040.708 1023.224 368.534 268.366 311.069 366.898 493.104 242.316 517.220 389.326 317.665 407.398 432.243 1206.353 422.859 1115.683 166.235 356.854 392.414 674.983 430.510 795.754 285.846 212.556 441.161 248.995 346.896 837.697 613.936 799.022 930.525 803.125 1419.102 661.700 367.870 811.846 588.876 809.023 518.763 927.256 683.058 714.368 692.231 582.854 1164.316 998.628 776.343 699.754 812.631 566.099 617.157 640.218 1137.051 201.595 860.457 816.737 996.149 1339.327 545.217 893.453 444.234 1179.811 833.933 1259.153 740.559 728.180 814.888 1228.565 574.880 688.235 788.685 435.126 1237.691 750.109 582.851 616.987
390.282 259.031 0.000 322.445 219.488 460.851 373.569 446.656 89.577 241.829 219.343 998.652 443.549 309.793 67.978 185.057 601.660 307.318 250.868 19.906 248.518 235.009 371.705 323.775 260.222 883.462 865.978 198.073 77.901 140.260 241.578 335.857 52.626 359.973 232.080 135.403 250.152 252.608 1049.107 265.612 958.437 353.198 174.592 235.168 517.737 273.264 638.508 120.342 47.995 283.914 76.246 156.431 680.450 448.432 641.776 773.279 645.879 1261.856 504.454 231.837 654.599 431.629 651.777 361.517 770.010 525.811 557.121 534.985 417.350 1007.069 841.382 619.096 542.508 655.385 400.595 451.654 474.714 979.805 97.883 703.211 659.490 838.903 1182.081 387.971 736.207 286.208 1022.565 676.687 1101.907 583.313 562.676 657.641 1071.319 409.376 530.989 631.439 277.880 1080.445 592.863 417.348 451.483
210.721 483.765 306.902 0.000 458.963 244.815 212.377 231.360 352.419 137.679 186.249 788.585 227.512 148.600 338.500 424.432 422.099 141.714 175.182 314.177 129.267 159.619 210.513 162.582 462.076 667.426 649.941 437.448 329.893 347.419 358.003 109.704 329.959 135.000 196.383 374.878 111.950 422.924 839.040 209.836 743.140 577.932 414.066 194.099 326.373 197.578 498.014 322.196 306.366 225.160 352.323 400.123 552.121 650.285 513.447 593.717 510.650 1124.137 324.893 330.825 513.277 288.841 516.547 202.416 553.974 364.619 416.628 318.948 619.203 797.133 625.346 477.773 381.316 514.891 602.449 653.507 676.567 764.508 324.963 523.650 518.996 622.866 1044.362 315.914 596.831 435.339 806.528 515.494 891.840 442.819 587.898 514.886 861.252 420.572 389.666 490.945 98.995 942.726 464.534 619.201 653.337
531.609 400.094 234.691 463.772 0.000 602.178 464.152 587.983 184.826 366.573 360.670 1139.979 584.876 420.412 173.151 96.895 742.987 437.038 392.195 212.204 368.655 376.336 462.289 422.074 400.758 1024.789 1007.305 109.911 270.199 296.335 140.179 477.184 192.970 501.300 373.406 112.617 391.479 188.573 1190.434 393.530 1099.764 494.262 121.988 376.494 659.064 414.591 674.741 271.112 240.293 386.084 186.975 174.870 716.683 588.967 678.009 914.606 682.112 1298.089 645.781 195.385 690.832 572.956 688.010 502.844 911.337 602.815 593.354 676.311 557.885 1148.396 982.709 655.329 619.340 691.618 541.130 592.189 615.249 1121.131 219.812 844.538 695.723 980.229 1218.314 424.204 772.440 210.247 1163.892 796.014 1243.234 619.545 703.211 693.874 1212.646 549.912 567.222 667.672 419.206 1116.678 629.096 557.883 592.019
216.436 582.499 405.636 210.989 557.696 0.000 316.693 125.819 451.153 265.967 284.983 625.947 98.863 252.916 437.233 523.265 380.591 241.292 272.399 412.911 257.555 287.907 298.878 268.045 428.013 504.787 487.303 536.281 428.626 446.152 486.291 169.304 428.693 120.202 297.719 473.611 240.238 551.212 676.402 331.331 637.599 676.666 512.800 305.422 385.522 294.795 566.326 420.929 405.100 349.554 451.057 498.856 622.887 616.222 584.213 456.133 578.961 1021.706 283.385 459.114 581.588 196.472 584.859 171.425 391.335 432.930 484.939 190.299 585.140 634.495 462.707 546.085 463.384 583.202 568.386 619.444 642.504 658.967 423.697 386.065 587.308 460.228 1112.674 444.203 665.142 563.628 643.890 531.963 729.202 511.130 495.529 552.450 698.614 328.203 457.977 559.256 196.212 1011.037 535.300 585.138 619.274
180.446 513.568 336.705 175.711 424.088 302.637 0.000 289.182 382.223 118.554 216.052 791.421 285.334 56.210 368.303 387.082 395.329 65.482 227.663 343.980 110.143 140.494 40.066 55.469 491.879 705.288 687.804 400.098 359.696 377.222 320.652 152.448 359.763 192.822 217.625 361.775 107.181 385.573 841.876 190.712 800.963 607.736 381.325 174.974 387.139 250.059 338.824 351.999 336.169 198.816 382.127 415.286 401.458 680.089 362.783 566.048 351.460 964.947 308.945 293.475 354.087 346.663 357.358 263.181 591.287 205.429 257.438 354.181 649.007 799.838 662.659 318.584 222.126 355.701 632.252 683.310 706.371 822.330 354.766 495.980 359.807 660.728 885.172 284.314 437.641 397.989 844.390 381.123 894.676 283.629 645.720 346.594 864.088 478.394 230.476 331.755 202.119 783.536 313.870 649.004 683.140
296.144 618.642 441.779 247.132 593.839 227.588 352.302 0.000 487.296 302.110 321.126 723.200 210.286 288.526 473.376 559.408 460.299 276.902 308.542 449.054 293.698 324.050 350.439 303.654 447.767 602.040 584.556 572.424 464.769 482.295 522.434 220.559 464.836 175.665 333.862 509.754 276.381 587.355 773.655 367.474 555.506 712.809 548.943 341.565 421.665 330.938 641.793 457.072 441.243 385.697 487.200 535.000 695.900 635.977 657.225 553.386 654.429 1118.959 363.093 495.257 657.055 216.227 660.326 191.294 488.588 508.398 560.406 301.721 604.895 731.748 559.960 621.552 525.094 658.670 588.140 639.198 662.259 576.874 459.840 483.318 662.775 557.480 1188.141 480.346 740.610 599.771 741.143 611.671 826.455 586.597 515.284 632.158 795.867 347.958 533.445 634.723 232.355 1086.504 608.313 604.892 639.028
414.978 254.700 70.041 347.140 187.132 485.547 398.264 471.351 0.000 266.524 244.038 1023.347 468.244 334.488 35.115 152.700 626.355 332.013 275.563 62.844 273.213 259.704 396.400 348.470 294.361 908.157 890.673 165.716 120.839 179.704 209.467 360.553 31.615 384.669 256.775 112.152 274.847 229.356 1073.802 290.308 983.132 348.867 151.341 259.863 542.432 297.959 663.203 154.480 90.933 308.610 19.944 153.659 705.145 482.570 666.471 797.974 670.574 1286.551 529.149 208.586 679.295 456.324 676.472 386.212 794.705 550.507 581.817 559.680 451.488 1031.765 866.077 643.791 567.203 680.080 434.733 485.792 508.852 1004.500 74.418 727.906 684.185 863.598 1206.776 412.666 760.902 252.988 1047.260 701.382 1126.602 608.008 596.814 682.336 1096.014 443.515 555.684 656.134 302.575 1105.140 617.558 451.486 485.622
209.109 434.791 257.928 142.457 354.643 302.709 156.416 289.254 303.445 0.000 137.275 817.479 285.406 92.640 289.525 317.636 420.487 99.748 148.885 265.203 31.365 52.822 154.552 106.622 413.101 719.624 702.140 330.652 280.918 298.444 251.207 162.797 280.985 192.894 138.847 292.329 57.227 316.128 867.934 111.934 801.035 528.958 311.879 96.196 384.268 171.281 440.211 273.221 257.392 118.364 303.349 345.841 482.153 601.311 443.478 592.106 447.582 1066.333 323.281 224.029 456.302 329.647 453.479 259.534 605.624 308.658 358.824 365.818 570.229 825.896 676.996 420.799 325.355 457.088 553.474 604.533 627.593 822.402 275.989 522.038 461.193 675.064 986.559 209.118 537.909 328.543 858.727 459.534 920.734 385.015 628.704 458.925 890.146 461.378 332.692 433.141 173.957 884.922 394.566 570.227 604.362
245.536 417.429 240.566 177.699 392.627 337.951 228.971 324.496 286.084 97.231 0.000 853.906 320.649 165.195 272.164 358.196 456.914 162.572 50.569 247.841 103.920 90.411 227.107 179.177 395.740 756.051 738.567 371.212 263.557 281.083 315.291 199.224 263.623 228.136 68.987 308.542 105.406 380.212 904.361 83.807 836.277 511.597 347.730 91.148 398.393 79.190 493.910 255.860 240.030 102.030 285.988 333.787 535.852 583.950 497.178 628.533 501.281 1117.258 359.708 288.114 510.001 312.285 507.179 241.549 642.051 381.213 412.523 402.245 552.868 862.324 713.423 474.498 397.910 510.787 536.113 587.171 610.231 857.645 258.627 558.465 514.892 711.492 1037.483 243.373 591.609 392.628 895.154 532.089 957.161 438.714 611.343 513.043 926.573 444.017 386.391 486.841 158.536 935.847 448.265 552.865 587.001
736.524 1174.179 997.316 811.602 1149.376 735.235 823.607 713.521 1042.833 827.681 876.663 0.000 714.531 805.354 1028.913 1114.434 543.484 793.730 873.012 1004.591 819.269 849.620 805.673 820.482 1013.380 487.945 470.460 1127.450 1020.306 1037.833 1048.005 778.172 1020.373 734.290 886.796 1065.291 803.871 1112.925 98.087 899.838 1225.301 1268.346 1104.480 884.100 986.135 895.408 879.172 1012.609 996.780 915.161 1042.737 1090.537 1009.231 1201.590 948.649 476.367 906.120 412.015 535.704 1020.827 931.094 781.839 912.018 756.907 449.550 819.275 871.283 834.183 1170.507 283.345 520.922 894.848 849.728 912.856 1153.753 1204.811 1227.871 1246.669 1015.377 459.179 914.467 443.385 522.922 1005.916 992.302 1125.341 627.047 876.387 190.623 840.784 1080.897 820.123 160.035 913.571 844.322 888.910 796.825 685.516 921.644 1170.505 1204.641
239.534 605.597 428.734 234.087 580.794 145.781 339.791 189.423 474.251 289.065 308.081 689.552 0.000 276.015 460.331 546.363 403.689 264.390 295.497 436.009 280.654 311.005 321.976 291.143 491.618 568.392 550.908 559.379 451.724 469.251 509.389 192.402 451.791 143.300 320.817 496.709 263.336 574.310 740.007 354.429 701.204 699.764 535.898 328.520 408.620 317.894 589.424 444.027 428.198 372.652 474.155 521.955 645.985 679.827 607.311 519.738 602.059 1085.311 306.483 482.212 604.686 260.077 607.957 235.030 454.940 456.028 508.037 184.058 648.745 698.100 526.312 569.183 486.482 606.300 631.990 683.049 706.109 722.572 446.795 449.670 610.406 523.833 1135.772 467.301 688.240 586.726 707.495 555.061 792.807 534.228 559.134 575.548 762.219 391.808 481.075 582.354 219.310 1034.135 558.398 648.743 682.879
161.580 477.492 300.629 139.818 403.840 266.745 75.165 253.290 346.146 82.478 179.976 769.950 249.442 0.000 332.227 366.834 372.958 29.405 191.587 307.904 74.066 104.418 73.301 39.498 455.803 672.095 654.611 379.850 323.620 341.146 300.404 116.556 323.686 156.930 181.549 341.527 71.105 365.325 820.405 154.635 765.071 571.660 361.077 138.898 351.247 213.983 372.059 315.923 300.093 169.092 346.050 393.850 434.692 644.013 396.018 544.577 384.694 998.181 275.752 273.227 387.321 310.771 390.592 227.289 558.095 238.664 290.672 318.289 612.930 778.367 629.467 351.818 255.360 388.936 596.176 647.234 670.294 786.438 318.690 474.509 393.041 627.535 918.407 259.847 470.875 377.741 811.198 380.509 873.205 316.863 609.828 379.829 842.617 442.502 263.711 364.989 166.227 816.770 347.105 612.928 647.064
404.525 267.879 85.629 336.687 165.669 475.094 387.811 460.898 52.610 256.071 233.585 1012.894 457.791 324.035 0.000 131.237 615.902 321.560 265.110 63.142 262.760 249.251 385.947 338.017 283.908 897.704 880.220 144.253 121.137 169.251 188.004 350.100 43.908 374.216 246.322 87.263 264.394 204.467 1063.349 279.855 972.679 362.046 126.452 249.410 531.979 287.506 652.750 144.027 91.231 298.157 37.913 129.613 694.692 472.117 656.018 787.521 660.121 1276.098 518.696 183.697 668.842 445.871 666.019 375.759 784.252 540.054 571.364 549.227 441.035 1021.312 855.624 633.338 556.750 669.627 424.280 475.339 498.399 994.047 87.597 717.453 673.732 853.145 1196.323 402.213 750.449 231.525 1036.807 690.929 1116.149 597.555 586.361 671.883 1085.561 433.062 545.231 645.681 292.122 1094.687 607.105 441.033 475.169
480.339 398.958 232.013 413.686 68.632 573.939 398.091 560.484 183.690 300.512 347.302 1087.658 556.636 354.351 172.015 0.000 686.135 370.978 378.827 211.067 302.595 311.549 396.228 356.013 371.029 990.854 973.369 44.642 265.442 282.968 115.667 434.027 191.834 464.124 354.383 98.827 328.457 121.246 1138.113 327.469 1072.264 493.125 112.869 311.732 645.696 401.223 608.680 257.745 231.476 320.023 185.839 155.917 650.622 559.239 611.948 862.285 616.051 1232.028 594.511 129.324 624.771 555.628 621.949 489.464 876.853 536.754 527.293 637.048 528.156 1096.076 948.225 589.268 553.279 625.557 511.402 562.460 585.520 1093.632 218.676 792.217 629.662 946.294 1152.253 358.143 706.379 197.935 1129.956 729.953 1190.913 553.485 673.482 627.813 1160.325 520.183 501.161 601.611 405.839 1050.617 563.035 528.154 562.290
333.584 771.238 594.375 425.806 737.569 392.182 409.925 431.168 639.892 424.740 473.722 532.090 379.043 402.413 625.973 700.563 0.000 390.789 492.656 601.650 416.328 446.680 408.061 417.541 733.362 422.084 404.600 713.579 617.366 634.892 634.133 375.231 617.432 392.084 483.856 662.351 400.930 699.054 582.545 496.897 942.949 865.406 694.806 481.160 635.230 513.793 534.450 609.669 593.839 512.221 639.796 687.596 592.992 921.572 554.317 306.716 549.066 927.849 95.824 606.956 551.692 501.822 554.963 476.775 308.083 403.035 455.043 436.782 890.490 540.507 379.455 516.189 433.489 553.307 873.735 924.794 947.854 964.317 612.436 236.649 557.412 377.524 1024.507 597.795 635.247 711.470 561.186 516.262 635.345 481.234 800.879 475.401 604.757 633.553 428.082 529.361 450.210 922.871 505.404 890.488 924.623
199.909 463.923 287.060 126.932 390.271 287.185 129.985 273.730 332.577 68.909 166.407 808.279 269.882 66.209 318.657 353.264 411.286 0.000 178.017 294.335 60.497 90.848 128.121 80.191 442.233 709.796 692.311 366.280 310.050 327.576 286.835 152.074 310.117 177.369 167.979 327.957 57.454 351.756 858.733 141.066 785.510 558.090 347.507 125.328 368.743 200.413 415.623 302.353 286.523 155.523 332.481 380.280 469.730 630.443 431.055 582.905 428.258 1041.745 314.080 259.657 430.885 331.211 434.156 244.786 596.343 282.227 334.236 356.618 599.361 816.696 667.715 395.382 298.924 432.499 582.606 633.665 656.725 806.878 305.120 512.837 436.605 665.236 961.971 246.277 514.439 364.171 848.898 433.103 911.533 360.427 630.268 432.494 880.945 462.942 307.274 408.553 158.433 860.334 382.142 599.359 633.494
283.248 399.556 222.693 177.675 374.754 311.062 260.881 296.867 268.210 129.140 85.824 854.833 293.759 197.104 254.291 340.322 494.626 204.212 0.000 229.968 135.829 122.320 259.017 211.086 377.867 733.673 716.189 353.338 245.684 263.210 347.201 186.068 245.750 210.184 98.444 290.669 154.946 407.873 905.287 113.264 808.647 493.724 329.857 122.479 374.744 47.028 525.820 237.987 222.157 131.487 268.114 315.914 567.762 566.077 529.087 666.245 533.191 1149.167 397.420 320.023 541.911 309.712 539.088 204.015 620.221 413.123 444.433 385.195 534.994 863.380 691.593 506.408 429.820 542.696 518.240 569.298 592.358 830.015 240.754 596.177 546.802 689.113 1069.393 275.282 623.518 424.537 872.775 563.998 958.087 470.624 608.769 544.953 927.499 441.443 418.300 518.750 122.429 967.756 480.175 534.992 569.128
391.994 239.125 61.723 324.157 223.083 462.563 375.281 448.368 93.390 243.541 221.055 1000.364 445.261 311.505 71.791 188.651 603.372 309.029 252.580 0.000 250.230 236.721 373.417 325.487 258.124 885.174 867.690 201.667 57.995 120.354 245.172 337.569 56.438 361.685 233.791 138.998 251.864 256.202 1050.819 267.324 960.149 333.293 178.186 236.880 519.449 274.976 640.220 108.304 28.089 285.626 80.059 158.142 682.162 446.333 643.488 774.991 647.591 1263.568 506.166 235.432 656.311 433.341 653.489 363.229 771.722 527.523 558.833 536.696 415.251 1008.781 843.094 620.808 544.220 657.097 398.496 449.555 472.615 981.516 77.977 704.923 661.202 840.614 1183.793 389.683 737.918 289.803 1024.277 678.399 1103.619 585.024 560.577 659.353 1073.031 407.278 532.701 633.151 279.591 1082.156 594.575 415.249 449.385
204.058 403.426 226.563 137.406 356.846 297.658 151.365 284.203 272.080 19.625 105.910 812.428 280.356 87.589 258.160 319.840 415.436 94.697 117.520 233.838 0.000 30.937 149.502 101.571 381.737 714.573 697.089 332.856 249.553 267.080 253.410 157.746 249.620 187.843 107.483 294.533 52.176 318.331 862.883 80.569 795.984 497.593 314.083 64.832 379.217 139.917 437.003 241.856 226.027 109.254 271.984 319.784 484.356 569.946 445.682 587.055 449.639 1063.126 318.230 226.233 452.265 298.282 455.536 228.169 600.573 303.608 355.616 360.767 538.864 820.846 671.945 416.762 320.304 453.880 522.109 573.168 596.228 817.352 244.624 516.987 457.985 670.014 983.351 200.008 535.820 330.747 853.676 454.483 915.683 381.807 597.339 453.875 885.095 430.013 328.655 429.933 144.532 881.714 396.769 538.862 572.998
227.364 430.472 253.609 160.711 347.394 320.964 173.571 307.509 299.126 36.953 132.956 835.734 303.661 110.894 285.206 310.388 438.741 118.002 144.567 260.884 49.619 0.000 171.707 113.401 408.783 737.879 720.394 323.404 276.600 294.126 243.958 181.052 276.666 211.148 112.937 285.081 75.482 308.879 886.189 86.024 819.289 524.639 304.631 70.286 402.522 166.963 432.335 268.903 253.073 91.043 299.030 338.593 474.277 596.992 435.602 610.360 439.706 1055.682 341.536 216.781 448.426 325.328 445.603 255.215 623.878 314.664 350.948 384.073 565.910 844.151 695.250 412.923 331.361 449.212 549.155 600.214 623.274 840.657 271.670 540.292 453.317 693.319 975.908 181.797 530.033 321.295 876.981 477.788 938.989 377.139 624.385 451.468 908.400 457.059 324.816 425.265 171.578 874.271 386.690 565.908 600.044
164.962 538.468 361.605 200.693 457.219 305.766 67.636 314.165 407.122 143.454 240.952 775.937 292.627 89.341 393.202 420.213 390.667 90.381 252.563 368.880 135.042 165.393 0.000 88.600 516.779 689.804 672.320 433.229 384.596 402.122 353.783 177.431 384.662 217.804 242.525 394.906 132.081 418.704 826.392 215.611 825.945 632.635 414.456 199.874 412.121 274.959 367.116 376.899 361.069 230.068 407.026 448.417 430.508 704.988 391.833 550.564 379.751 993.238 293.461 326.606 382.378 371.646 385.649 288.164 575.803 233.720 285.729 350.366 673.906 784.354 647.175 346.875 250.417 383.992 657.151 708.210 731.270 847.313 379.666 480.496 388.098 645.244 913.464 317.445 465.932 431.120 828.906 365.639 879.192 311.920 670.703 374.885 848.604 503.377 258.767 360.046 227.101 811.827 342.921 673.904 708.040
179.256 495.352 318.489 157.494 421.700 284.421 67.455 270.965 364.006 100.338 197.836 787.626 267.118 52.316 350.086 384.693 390.634 47.265 209.447 325.764 91.926 122.277 65.591 0.000 473.663 689.771 672.286 397.709 341.480 359.006 318.264 134.232 341.546 174.605 199.409 359.387 88.965 383.185 838.081 172.495 782.746 589.519 378.937 156.758 368.922 231.843 364.349 333.783 317.953 186.952 363.910 411.710 426.983 661.872 388.308 562.252 376.985 990.472 293.428 291.087 379.612 328.447 382.882 244.965 575.770 230.954 282.962 335.965 630.790 796.043 647.142 344.108 247.651 381.226 614.035 665.094 688.154 804.114 336.550 492.185 385.331 645.211 910.697 277.707 463.166 395.600 828.873 380.281 890.881 309.154 627.504 372.119 860.292 460.178 256.001 357.280 183.902 809.061 339.395 630.788 664.924
563.801 430.430 253.567 495.964 406.685 516.907 547.088 448.548 299.085 415.348 392.862 1009.285 499.604 483.312 290.240 372.254 749.617 480.837 424.387 242.817 422.037 408.528 545.224 497.294 0.000 888.125 870.641 385.270 244.780 227.140 415.571 493.011 275.537 452.598 405.598 322.600 423.671 439.805 1059.740 439.131 891.254 524.598 361.789 408.687 601.177 446.783 812.027 175.141 235.067 457.433 299.157 324.281 853.969 212.389 815.295 839.471 819.398 1405.044 652.411 405.831 828.118 299.038 825.296 391.339 774.673 699.330 730.640 591.040 181.306 1017.833 846.045 792.615 716.027 828.904 170.892 228.068 245.327 912.622 271.628 769.403 833.009 843.565 1355.600 561.490 909.726 473.405 1027.228 850.206 1112.540 756.832 416.892 831.160 1081.952 263.593 704.508 804.958 444.195 1253.964 766.382 187.644 221.780
598.909 1018.570 841.707 647.060 993.767 570.693 701.076 548.979 887.224 690.066 721.054 456.313 549.989 667.739 873.304 959.336 394.756 656.115 708.470 848.982 681.654 712.005 689.689 682.867 848.838 0.000 108.637 972.352 864.697 882.223 910.390 620.487 864.764 569.748 733.790 909.682 666.256 975.310 506.768 762.223 1060.759 1112.737 948.871 741.493 821.593 730.866 778.868 857.000 841.171 777.546 887.128 934.928 884.143 1037.048 845.469 427.962 805.816 852.072 386.976 883.212 830.790 617.297 811.714 592.365 163.640 694.186 746.195 669.641 1005.965 464.861 235.012 794.544 724.640 812.552 989.211 1040.269 1063.329 1082.127 859.768 357.895 814.163 54.873 962.980 868.301 891.997 987.726 335.497 776.083 559.568 740.479 916.355 719.819 528.980 749.028 719.233 788.606 632.283 1125.573 796.556 1005.963 1040.099
610.313 1029.974 853.111 658.464 1005.171 582.097 712.480 560.383 898.628 701.470 732.458 467.718 561.393 679.143 884.708 970.740 406.160 667.519 719.874 860.386 693.058 723.409 701.093 694.271 860.242 121.160 0.000 983.756 876.101 893.627 921.794 631.891 876.168 581.152 745.194 921.086 677.660 986.714 518.172 773.627 1072.163 1124.141 960.275 752.897 832.997 742.270 790.272 868.404 852.575 788.950 898.532 946.332 895.547 1048.452 856.873 439.366 817.220 863.476 398.380 894.616 842.194 628.701 823.118 603.769 175.044 705.590 757.599 681.045 1017.369 476.265 246.416 805.948 736.044 823.956 1000.615 1051.673 1074.733 1093.531 871.172 369.299 825.567 76.600 974.384 879.705 903.401 999.130 346.921 787.487 570.972 751.883 927.759 731.223 540.384 760.433 730.638 800.010 643.687 1136.977 807.960 1017.367 1051.503
491.126 359.611 194.208 423.288 58.899 561.695 419.154 547.500 144.343 321.574 320.186 1099.496 544.392 375.413 132.668 28.908 702.504 392.040 351.711 171.720 323.657 332.611 417.290 377.075 364.846 984.306 966.821 0.000 229.715 255.852 71.025 436.701 152.487 460.817 332.923 100.200 349.519 142.309 1149.951 348.531 1059.280 453.778 110.904 332.794 618.580 374.107 629.743 230.629 199.809 341.086 146.492 144.513 671.685 553.056 633.010 874.122 637.114 1253.090 605.298 145.197 645.834 532.473 643.011 462.360 870.854 557.817 548.356 635.828 521.974 1107.913 942.226 610.331 574.341 646.619 505.219 556.277 579.338 1080.648 179.329 804.055 650.725 939.746 1173.315 379.205 727.441 153.293 1123.408 751.016 1202.751 574.547 667.300 648.876 1172.162 514.000 522.223 622.673 378.723 1071.679 584.097 521.971 556.107
386.229 252.858 75.995 318.392 233.131 456.798 369.516 442.603 121.512 237.775 215.290 994.599 439.495 305.739 112.668 198.699 597.607 303.264 246.814 65.244 244.464 230.956 367.652 319.721 265.612 879.409 861.925 211.715 0.000 135.186 255.220 331.804 97.964 355.920 228.026 149.046 246.099 266.250 1045.054 261.559 954.383 347.025 188.234 231.114 513.684 269.211 634.455 123.136 57.494 279.861 121.585 174.291 676.397 453.822 637.722 769.225 641.826 1257.802 500.401 245.480 650.546 427.576 647.723 357.463 765.957 521.758 553.068 530.931 422.740 1003.016 837.329 615.043 538.455 651.332 405.985 457.043 480.103 975.751 94.056 699.158 655.437 834.849 1178.028 383.917 732.153 299.851 1018.511 672.633 1097.854 579.259 568.065 653.588 1067.266 414.766 526.936 627.385 273.826 1076.391 588.810 422.737 456.873
435.381 292.142 114.739 367.543 282.282 505.950 418.668 491.755 158.450 286.927 264.441 1043.751 488.647 354.891 152.941 247.851 646.759 352.416 295.966 104.868 293.616 280.107 416.804 368.873 221.293 928.561 911.076 260.867 98.486 0.000 295.551 380.956 137.588 405.072 277.178 198.197 295.251 315.402 1094.206 310.711 998.108 386.309 237.386 280.266 562.835 318.362 683.607 71.473 79.207 329.013 161.209 204.261 725.549 409.503 686.874 818.377 690.978 1306.954 549.553 285.811 699.698 405.893 696.875 406.615 815.109 570.910 602.220 580.083 378.421 1052.168 886.481 664.195 587.607 700.483 361.666 412.725 435.785 1019.476 130.993 748.309 704.589 884.001 1227.179 433.069 781.305 349.002 1067.663 721.785 1147.006 628.411 523.747 702.740 1116.417 370.447 576.087 676.537 322.978 1125.543 637.961 378.419 412.554
452.451 363.798 254.060 385.799 118.751 546.051 370.204 532.596 204.195 272.624 346.514 1059.771 528.749 326.463 192.520 86.219 658.248 343.090 358.124 231.573 274.707 283.661 368.340 328.126 424.699 962.966 945.482 99.235 289.568 315.704 0.000 406.139 212.339 436.236 326.495 153.420 300.569 175.839 1110.226 299.581 1044.377 513.631 167.462 283.844 624.994 380.521 580.793 290.481 259.662 292.136 206.344 204.365 622.735 612.908 584.060 834.397 588.164 1204.140 566.623 83.548 596.884 533.642 594.061 461.576 848.966 508.867 499.406 609.160 581.826 1068.188 920.338 561.381 525.392 597.669 565.071 616.130 639.190 1065.745 239.181 764.330 601.775 918.407 1124.366 330.255 678.491 82.268 1102.069 702.066 1163.026 525.597 727.152 599.926 1132.438 573.852 473.273 573.723 385.136 1022.729 535.148 581.824 615.959
160.905 497.105 320.242 109.948 472.303 191.416 203.231 199.889 365.759 160.806 199.589 735.187 174.114 139.455 351.839 437.871 362.938 127.831 187.006 327.517 152.394 182.745 201.367 154.583 475.416 614.027 596.543 450.887 343.232 360.759 381.130 0.000 343.299 103.529 212.325 388.218 136.996 446.051 785.642 232.963 711.670 591.272 427.406 217.226 295.838 209.402 492.722 335.535 319.706 248.286 365.663 413.463 546.829 663.625 508.154 534.557 505.357 1118.845 265.732 353.952 507.984 257.370 511.255 171.881 500.575 359.327 411.335 265.549 632.543 743.735 571.947 472.481 376.023 509.599 615.788 666.847 689.907 733.038 338.303 464.489 513.704 569.467 1039.070 339.041 591.539 458.466 753.130 505.333 838.442 437.526 556.428 507.895 807.853 389.102 384.374 485.652 110.818 937.433 459.242 632.541 666.677
400.890 248.676 44.423 333.053 196.756 471.459 384.177 457.264 53.271 252.436 229.951 1009.260 454.156 320.401 43.586 162.324 612.268 317.925 261.476 46.076 259.125 245.617 382.313 334.382 280.273 894.070 876.586 175.340 104.071 165.616 219.091 346.465 0.000 370.581 242.687 119.701 260.760 236.905 1059.715 276.220 969.044 342.843 158.889 245.775 528.345 283.872 649.116 140.393 72.825 294.522 39.940 139.572 691.058 468.483 652.383 783.886 656.487 1272.463 515.062 216.135 665.207 442.237 662.384 372.124 780.618 536.419 567.729 545.592 437.401 1017.677 851.990 629.704 553.116 665.993 420.646 471.704 494.764 990.412 68.394 713.819 670.098 849.510 1192.689 398.578 746.814 262.612 1033.172 687.294 1112.515 593.920 582.726 668.249 1081.927 429.427 541.597 642.046 288.487 1091.052 603.471 437.398 471.534
210.644 519.177 342.314 147.667 494.375 145.731 253.371 160.586 387.832 202.646 221.661 689.501 128.428 189.595 373.912 459.944 379.456 177.971 209.078 349.589 194.234 224.586 251.508 204.723 449.608 568.342 550.858 472.960 365.305 382.831 422.970 121.522 365.372 0.000 234.398 410.290 176.917 487.891 739.956 268.010 672.366 613.345 449.479 242.100 322.201 231.474 542.862 357.608 341.778 286.233 387.736 435.535 596.969 637.817 558.295 519.687 555.498 1085.260 282.250 395.792 558.124 218.067 561.395 193.135 454.890 409.467 461.475 219.864 606.735 698.049 526.262 522.621 426.164 559.739 589.981 641.039 664.099 693.734 360.375 449.620 563.844 523.782 1089.210 380.881 641.679 500.306 707.444 530.828 792.756 487.666 517.124 551.315 762.168 349.798 434.514 535.793 132.891 987.574 509.382 606.733 640.869
263.896 390.472 213.609 196.058 365.670 334.465 238.986 320.269 259.126 107.246 86.693 872.266 317.162 175.210 245.207 331.238 475.273 180.931 112.680 220.884 113.935 100.426 237.123 189.192 368.783 757.076 739.591 344.254 236.600 254.126 317.686 209.471 236.666 233.587 0.000 281.585 123.765 382.607 922.720 92.217 832.050 484.639 320.773 66.622 391.350 128.582 496.305 228.903 213.073 110.440 259.030 306.830 538.247 556.993 499.573 646.892 503.676 1119.653 378.067 290.509 512.397 305.243 509.574 235.130 643.623 391.229 414.919 408.598 525.910 880.683 714.995 476.893 407.925 513.182 509.156 560.214 583.274 853.418 231.670 576.824 517.287 712.516 1039.878 245.768 594.004 395.023 896.178 542.104 975.520 441.110 604.300 515.438 944.932 436.974 388.786 489.236 151.493 938.242 450.660 525.908 560.044
419.415 309.979 133.186 351.578 140.466 489.984 402.702 475.789 94.711 270.961 248.476 1027.785 472.681 338.926 83.036 106.035 630.793 336.450 280.001 114.853 277.650 264.142 400.838 352.907 297.404 912.595 895.111 119.051 166.615 184.141 159.137 364.990 95.619 389.106 261.212 0.000 279.285 171.763 1078.240 294.745 987.569 404.147 112.517 264.300 546.870 302.397 628.753 158.918 132.650 313.047 96.860 77.071 670.695 485.614 632.021 802.412 636.124 1252.101 533.587 149.397 644.844 460.762 642.022 390.649 799.143 554.944 547.366 564.117 454.531 1036.202 870.515 609.341 571.641 645.630 437.777 488.835 511.895 1008.937 129.697 732.344 649.735 868.035 1172.326 378.216 726.451 207.186 1051.698 705.819 1131.040 573.557 599.857 647.886 1100.452 446.558 521.234 621.683 307.012 1070.689 583.108 454.529 488.665
184.942 448.441 271.578 113.258 384.581 273.510 142.215 260.055 317.096 60.821 150.925 793.312 256.208 78.438 303.176 347.575 396.320 72.791 166.421 278.853 52.410 82.761 140.351 92.420 426.752 695.457 677.973 360.591 294.569 312.095 281.145 138.399 294.636 163.695 159.892 322.268 0.000 346.066 843.767 132.979 771.836 542.609 341.818 117.241 355.069 187.558 427.852 286.872 271.042 148.302 317.000 364.799 481.959 614.962 443.285 567.939 440.488 1053.975 299.114 253.968 443.114 317.536 446.385 231.111 581.456 294.457 346.465 341.651 583.880 801.729 652.828 407.611 311.154 444.729 567.125 618.183 641.244 793.204 289.639 497.871 448.834 650.897 974.200 239.057 526.669 358.482 834.560 445.332 896.567 372.656 616.594 444.724 865.979 449.268 319.504 420.783 144.758 872.564 394.372 583.877 618.013
503.766 450.421 273.628 437.114 125.784 597.366 421.519 583.911 235.153 323.939 388.917 1111.086 580.063 377.778 223.478 88.777 709.562 394.405 409.439 255.294 326.022 334.976 419.655 379.440 412.644 1014.281 996.797 101.793 307.057 324.583 147.639 457.454 236.061 487.551 377.810 140.442 351.884 0.000 1161.540 350.896 1095.692 544.588 154.484 335.159 676.308 431.835 632.107 299.360 273.091 343.451 237.302 197.532 674.049 600.854 635.375 885.712 639.478 1255.455 617.938 152.751 648.199 584.957 645.376 512.891 900.280 560.181 550.721 660.475 569.771 1119.503 971.652 612.696 576.706 648.984 553.017 604.075 627.135 1117.059 270.139 815.644 653.090 969.721 1175.680 381.570 729.806 224.976 1153.384 753.381 1214.340 576.912 715.097 651.240 1183.752 561.798 524.588 625.038 436.451 1074.044 586.462 569.769 603.905
763.907 1201.562 1024.699 838.985 1176.760 762.619 850.991 740.904 1070.216 855.064 904.046 78.821 741.915 832.737 1056.297 1141.817 570.868 821.113 900.396 1031.974 846.652 877.003 833.056 847.865 1040.763 515.328 497.844 1154.833 1047.690 1065.216 1075.388 805.555 1047.756 761.673 914.180 1092.675 831.254 1140.309 0.000 927.221 1252.685 1295.729 1131.863 911.484 1013.518 922.792 906.556 1039.993 1024.163 942.545 1070.120 1117.920 1036.615 1228.973 976.032 513.570 933.504 438.650 563.088 1048.210 958.477 809.223 939.401 784.291 476.934 846.658 898.666 861.567 1197.891 320.547 548.306 922.231 877.112 940.239 1181.136 1232.195 1255.255 1274.053 1042.760 486.562 941.850 470.768 549.557 1033.299 1019.685 1152.724 654.431 903.770 174.484 868.167 1108.280 847.507 167.040 940.954 871.705 916.293 824.209 712.151 949.028 1197.889 1232.024
280.624 426.181 249.318 213.971 396.592 370.173 227.931 355.978 294.835 96.190 88.094 888.994 352.871 164.154 280.915 359.586 492.001 171.262 114.081 256.593 102.879 89.371 226.067 178.136 404.492 791.139 773.654 372.602 272.309 289.835 293.156 234.312 272.375 264.408 66.887 317.294 128.742 358.077 939.449 0.000 867.759 520.348 353.829 65.495 427.059 129.983 472.642 264.612 248.782 41.308 294.739 342.539 514.584 592.701 475.909 663.620 480.013 1095.989 394.796 265.979 488.733 340.951 485.910 270.839 677.138 380.173 391.255 437.333 561.619 897.411 748.510 453.230 396.870 489.518 544.864 595.923 618.983 889.127 267.379 593.552 493.624 746.579 1016.214 222.104 570.340 370.493 930.241 531.048 992.249 417.446 640.009 491.775 961.660 472.683 365.122 465.572 187.202 914.578 426.996 561.617 595.753
819.606 1142.103 965.240 770.593 1117.301 751.050 875.764 594.394 1010.757 825.572 844.587 1246.661 733.747 811.987 996.837 1082.869 983.760 800.363 832.004 972.515 817.160 847.511 873.900 827.115 914.247 1125.501 1108.017 1095.885 988.231 1005.757 1045.896 744.021 988.297 699.126 857.324 1033.216 799.842 1110.816 1297.116 890.936 0.000 1236.270 1072.404 865.026 945.126 854.400 1165.254 970.704 964.704 909.158 1010.661 1058.461 1219.361 1102.457 1180.687 1076.847 1177.890 1642.420 886.554 1018.718 1180.517 739.688 1183.787 714.756 1012.049 1031.859 1083.867 825.183 1071.375 1255.209 1083.421 1145.013 1048.556 1182.131 1054.620 1105.678 1128.738 21.368 983.301 1006.779 1186.236 1080.942 1711.602 1003.807 1264.071 1123.232 1264.604 1135.132 1349.916 1110.059 655.275 1155.619 1319.328 780.868 1056.906 1158.185 755.816 1609.966 1131.774 1071.372 1105.508
554.424 131.213 215.614 486.587 396.844 624.993 537.711 610.798 235.947 405.970 383.484 1162.794 607.690 473.934 261.960 362.413 765.802 471.459 415.009 217.267 412.659 399.150 535.847 487.916 432.622 1047.604 1030.120 375.429 275.262 317.965 419.180 499.999 249.212 524.115 396.221 324.561 414.294 439.138 1213.249 429.754 1122.578 0.000 363.749 399.309 681.879 437.406 802.650 292.741 219.451 448.056 255.891 353.792 844.592 620.831 805.917 937.420 810.021 1425.997 668.596 420.995 818.741 595.771 815.918 525.658 934.152 689.953 721.263 699.126 589.749 1171.211 1005.524 783.238 706.650 819.527 572.994 624.053 647.113 1143.946 208.491 867.353 823.632 1003.044 1346.223 552.112 900.348 462.701 1186.706 840.828 1266.049 747.454 735.075 821.783 1235.461 581.776 695.131 795.580 442.021 1244.586 757.005 589.747 623.883
473.949 355.437 187.719 406.111 173.734 544.518 420.431 530.322 140.168 322.851 303.009 1082.318 527.215 376.690 128.494 136.728 685.326 390.984 334.534 167.546 324.934 318.675 418.567 378.352 342.674 967.128 949.644 149.744 221.148 238.675 161.404 419.524 148.313 443.640 315.746 54.533 333.818 171.717 1132.773 349.279 1042.103 449.604 0.000 318.834 601.403 356.930 631.020 213.451 187.183 342.363 142.318 116.786 672.962 530.884 634.287 856.945 638.391 1254.367 588.120 151.663 647.111 515.295 644.288 445.183 853.676 559.094 549.633 618.651 499.802 1090.736 925.048 611.608 575.618 647.896 483.047 534.106 557.166 1063.471 175.155 786.877 652.002 922.569 1174.592 380.482 728.718 238.740 1106.231 752.293 1185.573 575.824 645.128 650.153 1154.985 491.828 523.500 623.950 361.546 1072.956 585.374 499.800 533.935
300.362 466.042 289.179 233.709 420.745 393.555 247.669 379.360 334.697 115.928 144.950 908.732 376.252 183.892 320.777 383.738 511.739 191.000 170.936 296.454 122.617 109.108 245.805 197.874 444.353 810.876 793.392 396.754 312.170 329.696 317.309 254.050 312.236 284.146 123.743 357.155 148.479 382.230 959.186 56.856 891.140 560.210 377.981 0.000 450.441 186.839 495.928 304.473 288.643 98.164 334.601 382.400 537.870 632.563 499.195 683.358 503.299 1119.275 414.533 290.131 512.019 364.333 509.196 294.220 696.876 399.911 414.541 457.071 601.481 917.149 768.248 476.516 416.608 512.804 584.726 635.784 658.844 912.508 307.240 613.290 516.910 766.317 1039.501 245.390 593.626 394.645 949.979 550.786 1011.986 440.732 663.390 515.061 981.398 496.064 388.408 488.858 210.583 937.864 450.283 601.478 635.614
434.135 668.405 491.542 312.891 643.602 423.994 436.670 409.799 537.059 367.870 370.889 967.765 406.691 372.894 523.139 609.171 636.168 361.269 358.305 498.817 359.458 389.810 434.806 388.022 626.768 846.605 829.121 622.187 514.532 532.058 588.194 299.000 514.599 314.769 383.625 559.517 342.141 653.115 1018.219 417.237 921.579 762.572 598.706 391.328 0.000 380.701 726.161 506.835 491.006 435.460 536.963 584.763 780.267 814.977 741.593 797.951 738.796 1352.283 538.962 561.016 741.423 395.227 744.694 270.657 733.153 592.765 644.774 498.127 783.895 976.312 804.525 705.920 609.462 743.037 767.140 818.199 841.259 942.947 509.603 727.883 747.143 802.045 1272.508 544.131 824.977 665.530 985.707 739.788 1071.019 670.965 694.284 741.334 1040.431 526.958 617.812 719.091 282.118 1170.872 692.680 783.893 818.029
278.315 440.976 264.113 210.477 416.174 358.099 261.749 343.904 309.631 130.009 69.062 886.684 340.796 197.973 295.711 381.743 489.692 195.350 61.691 271.388 136.698 123.189 259.885 211.955 419.287 780.710 763.226 394.758 287.104 304.630 348.069 232.003 287.170 257.221 81.683 332.089 138.184 412.990 937.139 96.502 855.684 535.144 371.277 124.264 417.042 0.000 526.688 279.407 263.577 114.725 309.535 357.334 568.630 607.497 529.956 661.311 534.059 1150.036 392.486 320.892 542.779 330.934 539.957 250.608 667.258 413.991 445.301 432.232 576.415 895.102 738.630 507.276 430.688 543.565 559.660 610.718 633.778 877.052 282.174 591.243 547.670 736.150 1070.261 276.151 624.387 425.406 919.812 564.867 989.939 471.493 629.991 545.821 959.351 462.665 419.169 519.619 169.022 968.625 481.043 576.412 610.548
453.705 814.372 637.509 499.714 666.935 587.437 333.694 621.006 683.026 414.876 516.856 872.811 574.298 367.716 669.107 629.928 530.917 397.122 528.467 644.784 416.959 436.815 331.830 366.976 792.683 811.226 793.741 642.944 660.500 678.026 563.499 484.273 660.566 524.646 496.837 604.621 430.236 628.420 923.265 469.924 1132.787 908.539 624.171 454.186 718.963 550.863 0.000 652.803 636.973 462.478 682.930 658.133 303.710 980.893 218.069 647.437 175.541 776.395 461.258 536.321 171.950 663.993 181.439 591.927 697.225 273.666 149.800 632.038 949.810 881.228 768.597 196.871 210.461 92.083 933.056 984.114 1007.174 1154.155 655.570 577.369 183.888 766.666 703.337 528.367 261.722 640.835 950.328 601.906 976.065 92.518 963.050 128.121 945.477 795.724 125.102 68.137 531.214 601.701 216.122 949.808 983.944
431.293 297.922 121.059 363.456 278.195 501.862 414.580 487.667 166.577 282.840 260.354 1039.663 484.560 350.804 157.732 243.764 642.671 348.329 291.879 110.309 289.529 276.020 412.716 364.786 194.794 924.473 906.989 256.780 110.468 53.826 291.464 376.868 143.029 400.984 273.091 194.110 291.163 311.314 1090.118 306.623 971.609 392.090 233.299 276.179 558.748 314.275 679.519 0.000 91.188 324.925 166.649 200.174 721.461 383.004 682.787 814.290 686.890 1302.867 545.465 281.724 695.610 379.394 692.788 402.528 811.021 566.822 598.132 575.995 351.922 1048.080 882.393 660.107 583.519 696.396 335.167 386.225 409.286 992.977 139.120 744.222 700.501 879.914 1223.092 428.982 777.218 344.915 1063.576 717.698 1142.918 624.324 497.248 698.652 1112.330 343.948 572.000 672.450 318.891 1121.456 633.874 351.919 386.055
384.418 218.645 41.242 316.580 238.640 454.987 367.705 440.792 84.953 235.964 213.478 992.788 437.684 303.928 90.193 204.208 595.796 301.453 245.003 42.895 242.653 229.144 365.841 317.910 251.255 877.598 860.113 217.224 61.693 113.486 260.729 329.993 74.840 354.109 226.215 154.555 244.288 271.759 1043.243 259.748 952.572 312.812 193.743 229.303 511.873 267.399 632.644 101.435 0.000 278.050 98.461 179.420 674.586 439.465 635.911 767.414 640.015 1255.991 498.590 250.989 648.735 425.765 645.912 355.652 764.146 519.947 551.257 529.120 408.383 1001.205 835.518 613.232 536.644 649.520 391.628 442.686 465.747 973.940 57.496 697.347 653.626 833.038 1176.217 382.106 730.342 305.360 1016.700 670.822 1096.043 577.448 553.709 651.777 1065.454 400.409 525.124 625.574 272.015 1074.580 586.998 408.380 442.516
299.118 462.089 285.226 232.466 419.501 392.312 246.425 378.116 330.743 114.685 129.591 907.488 375.009 182.649 316.823 382.495 510.496 189.757 155.578 292.501 121.374 107.865 244.562 196.631 440.400 809.633 792.149 395.511 308.216 325.743 316.066 252.806 308.283 282.903 108.384 353.201 147.236 380.986 957.943 41.497 889.897 556.256 376.738 83.989 449.197 171.480 494.685 300.519 284.690 0.000 330.647 378.447 536.627 628.609 497.952 682.115 502.056 1118.032 413.290 288.888 510.776 363.090 507.953 292.977 695.633 398.668 413.298 455.827 597.527 915.906 767.005 475.273 415.364 511.561 580.772 631.831 654.891 911.265 303.287 612.047 515.667 765.074 1038.257 244.147 592.383 393.402 948.736 549.543 1010.743 439.489 662.147 513.818 980.155 494.821 387.165 487.615 209.340 936.621 449.039 597.525 631.661
419.465 236.744 77.207 351.628 174.359 490.034 402.752 475.839 21.476 271.011 248.526 1027.835 472.731 338.976 33.600 139.927 630.843 336.500 280.051 72.653 277.700 264.192 400.888 352.957 297.663 912.645 895.161 152.943 130.647 183.006 196.694 365.040 48.003 389.156 261.262 110.637 279.335 216.653 1078.290 294.795 987.619 330.912 146.410 264.350 546.920 302.447 667.691 157.783 81.044 313.097 0.000 152.987 709.633 485.872 670.958 802.461 675.062 1291.038 533.637 207.071 683.782 460.812 680.959 390.699 799.193 554.994 586.304 564.167 454.790 1036.252 870.565 648.279 571.691 684.568 438.035 489.094 512.154 1008.987 56.462 732.394 688.673 868.085 1211.264 417.153 765.389 240.215 1051.747 705.869 1131.090 612.495 600.116 686.824 1100.502 446.817 560.172 660.621 307.062 1109.627 622.046 454.788 488.924
457.430 348.064 170.234 389.593 193.471 527.999 440.717 513.804 147.716 308.976 286.491 1065.800 510.697 376.941 136.041 159.040 668.808 374.465 318.016 147.747 315.666 302.157 438.853 390.923 308.947 950.610 933.126 172.056 202.687 220.213 197.139 403.005 128.514 427.121 299.227 92.099 317.300 209.765 1116.255 332.760 1025.585 442.231 158.150 302.316 584.885 340.412 666.755 194.990 170.665 351.062 149.865 0.000 708.697 497.157 670.022 840.427 674.126 1290.102 571.602 187.399 682.846 493.547 680.023 428.665 837.158 592.959 585.368 602.132 466.075 1074.217 908.530 647.343 609.656 683.632 449.320 500.379 523.439 1046.952 182.702 770.359 687.737 906.050 1210.328 416.217 764.453 260.191 1089.713 743.835 1169.055 611.559 611.401 685.888 1138.467 458.101 559.236 659.685 345.027 1108.691 621.110 466.073 500.208
512.291 858.195 681.332 556.986 710.758 646.023 404.400 682.705 726.850 466.221 560.679 991.026 632.884 429.415 712.930 673.752 589.503 458.821 572.290 688.607 468.303 488.160 402.536 428.675 836.506 905.323 887.838 686.768 704.323 721.849 607.322 545.972 704.390 586.345 540.661 648.445 487.508 672.243 1041.481 513.747 1194.486 952.363 667.995 498.010 780.662 594.686 300.160 696.626 680.796 506.301 726.754 701.956 0.000 1024.716 207.964 765.653 212.067 812.313 519.844 580.145 304.907 707.816 217.965 635.750 791.322 339.253 218.773 690.623 993.634 999.443 862.694 282.662 249.542 317.036 976.879 1027.937 1050.998 1215.854 699.393 695.585 248.676 860.763 732.538 572.191 263.134 684.658 1044.425 660.491 1094.281 244.964 1006.873 319.293 1063.693 839.547 194.554 293.090 588.486 630.901 148.776 993.631 1027.767
743.137 609.766 432.903 675.299 586.021 696.242 726.423 627.883 478.420 594.683 572.197 1188.620 678.940 662.647 469.575 551.589 928.952 660.172 603.722 422.152 601.372 587.863 724.560 676.629 223.079 1067.460 1049.976 564.605 424.115 406.475 594.907 672.346 454.872 631.933 584.934 501.936 603.006 619.140 1239.075 618.467 1070.589 703.933 541.124 588.022 780.513 626.118 991.362 354.476 414.402 636.769 478.492 503.616 1033.305 0.000 994.630 1018.806 998.733 1584.379 831.747 585.166 1007.454 478.374 1004.631 570.674 954.008 878.666 909.976 770.375 221.128 1197.168 1025.380 971.951 895.362 1008.239 210.714 329.749 442.082 1091.957 450.963 948.738 1012.345 1022.901 1534.935 740.825 1089.061 652.741 1206.563 1029.541 1291.875 936.167 596.228 1010.496 1261.287 442.928 883.843 984.293 623.530 1433.299 945.717 227.466 261.602
483.271 836.697 659.834 527.966 689.260 617.003 376.098 653.685 705.351 437.201 539.181 957.148 603.864 400.395 691.431 652.253 560.483 429.801 550.792 667.109 439.284 459.140 374.234 399.655 815.008 876.303 858.818 665.269 682.825 700.351 585.824 516.952 682.891 557.325 519.162 626.946 458.488 650.744 1007.603 492.249 1165.466 930.864 646.496 476.511 751.642 573.188 222.897 675.128 659.298 484.803 705.255 680.458 224.514 1003.217 0.000 731.775 101.969 795.577 490.824 558.646 280.403 686.317 107.867 614.251 762.302 314.749 194.268 661.603 972.135 965.565 833.674 258.157 225.037 239.774 955.380 1006.439 1029.499 1186.834 677.895 661.707 111.780 831.743 715.802 550.692 165.499 663.160 1015.405 631.471 1060.403 164.751 985.375 239.080 1029.815 818.049 170.049 215.828 559.466 614.166 136.242 972.133 1006.269
565.444 1003.099 826.236 657.666 978.296 624.042 652.527 608.741 871.753 656.600 705.583 522.407 609.752 634.274 857.833 943.354 372.404 622.650 724.516 833.511 648.189 678.540 634.593 649.402 908.600 518.249 500.765 956.370 849.226 866.752 876.924 607.092 849.293 623.945 715.716 894.211 632.791 941.845 582.043 728.758 1120.522 1097.266 933.400 713.020 867.091 745.653 708.092 841.529 825.699 744.081 871.657 919.456 838.151 1096.810 777.568 0.000 735.040 912.847 364.624 849.747 760.014 677.060 740.938 652.128 404.249 648.194 700.203 668.642 1065.728 421.895 475.621 723.768 678.648 741.776 1048.973 1100.032 1123.092 1141.890 844.297 288.099 743.387 473.690 1023.755 834.836 821.221 954.261 657.352 705.307 673.357 669.703 976.117 649.043 642.769 808.791 673.242 717.830 682.071 1096.513 750.564 1065.726 1099.861
452.496 813.163 636.300 498.504 665.725 586.228 332.484 619.797 681.817 413.666 515.647 881.358 573.089 366.507 667.897 628.719 529.708 395.912 527.257 643.575 415.749 435.606 330.621 365.766 791.473 819.773 802.288 641.735 659.290 676.816 562.289 483.063 659.357 523.436 495.628 603.412 429.026 627.210 931.813 468.714 1131.577 907.330 622.962 452.977 717.753 549.653 147.107 651.593 635.763 461.269 681.721 656.924 214.690 979.683 84.665 655.984 0.000 737.764 460.048 535.112 215.521 662.783 16.328 590.717 705.772 272.456 148.590 630.828 948.601 889.775 777.144 200.999 209.252 163.984 931.846 982.904 1005.965 1152.945 654.360 585.917 51.948 775.213 657.990 527.158 128.318 639.626 958.875 600.696 984.613 88.961 961.840 163.290 954.024 794.514 123.893 140.037 530.005 556.353 126.418 948.598 982.734
1054.368 1427.867 1251.004 1113.209 1280.430 1188.100 947.189 1227.087 1296.521 1028.371 1130.351 1365.999 1174.961 981.211 1282.602 1243.423 1031.806 1010.617 1141.962 1258.279 1030.454 1050.310 945.325 980.471 1406.178 1304.414 1286.930 1256.439 1273.995 1291.521 1176.994 1097.768 1274.061 1138.141 1110.332 1218.116 1043.731 1241.915 1416.454 1083.419 1738.867 1522.035 1237.666 1067.681 1332.458 1164.358 761.896 1266.298 1250.468 1075.973 1296.425 1271.628 800.722 1594.388 779.461 1140.626 750.948 0.000 962.731 1149.816 824.538 1277.488 756.846 1205.422 1190.414 887.161 763.295 1232.700 1563.305 1374.416 1261.786 800.849 823.956 778.772 1546.551 1597.609 1620.669 1760.235 1269.065 1070.558 765.645 1259.854 142.730 1141.863 751.382 1254.330 1443.517 1202.568 1469.254 710.007 1576.545 693.782 1438.666 1409.219 738.597 754.826 1144.709 305.323 756.038 1563.303 1597.439
241.789 679.443 502.580 334.011 654.641 300.387 334.124 339.373 548.098 332.945 381.927 523.032 287.248 310.618 534.178 619.698 97.206 298.994 400.861 509.855 324.533 354.885 332.260 325.746 641.567 413.026 395.541 632.714 525.571 543.097 553.269 283.436 525.637 300.289 392.061 570.556 309.135 618.190 573.486 405.102 851.154 773.611 609.744 389.365 543.435 421.998 458.649 517.874 502.044 420.426 548.002 595.801 517.191 829.777 478.516 297.658 473.265 918.790 0.000 526.091 475.891 410.027 479.162 384.980 299.025 327.234 379.242 344.987 798.695 531.449 370.397 440.388 357.688 477.506 781.940 832.999 856.059 872.522 520.641 227.590 481.611 368.466 948.706 511.180 559.446 630.605 552.128 440.461 626.286 405.433 709.084 399.600 595.698 541.758 352.281 453.559 358.415 847.070 429.603 798.693 832.828
368.904 400.037 247.455 302.251 178.796 462.503 286.656 449.048 208.980 189.076 262.966 976.223 445.201 242.915 197.305 141.790 574.700 259.542 274.577 229.121 191.159 200.114 284.792 244.578 385.973 879.418 861.934 154.806 280.884 298.410 75.361 322.592 209.888 352.688 242.947 114.269 217.021 140.281 1026.678 216.034 960.829 518.415 133.819 200.296 541.446 296.973 497.245 273.187 246.918 208.588 211.129 168.361 539.187 574.183 500.513 750.850 504.616 1120.592 483.075 0.000 513.336 450.094 510.513 378.028 765.418 425.319 415.858 525.613 543.101 984.640 836.790 477.833 441.844 514.122 526.346 577.404 600.464 982.197 243.966 680.782 518.227 834.859 1040.818 246.707 594.943 152.697 1018.521 618.518 1079.478 442.049 688.426 516.378 1048.890 535.127 389.726 490.175 301.588 939.181 451.600 543.098 577.234
469.684 830.351 653.488 515.693 682.913 603.416 349.673 636.985 699.005 430.855 532.835 926.243 590.277 383.695 685.085 645.907 546.896 413.100 544.445 660.763 432.937 452.794 347.809 382.954 808.662 862.716 845.231 658.923 676.478 694.005 579.478 500.251 676.545 540.625 512.816 620.600 446.214 644.398 976.698 485.902 1148.765 924.518 640.150 470.165 734.942 566.841 173.214 668.781 652.952 478.457 698.909 674.112 321.575 996.871 282.072 700.870 239.543 829.828 477.237 552.300 0.000 679.971 245.441 607.905 748.715 289.644 167.665 648.016 965.789 934.660 820.087 196.303 228.327 165.415 949.034 1000.093 1023.153 1170.133 671.549 630.802 247.890 818.156 776.677 544.346 325.725 656.814 1001.818 617.884 1029.498 174.207 979.028 200.025 998.910 811.702 139.827 121.263 547.193 675.041 233.988 965.787 999.922
343.933 558.097 381.234 265.372 534.352 275.377 387.705 207.018 426.751 310.950 283.850 767.755 258.074 323.929 417.907 499.921 508.087 312.305 271.267 370.483 311.939 304.131 385.842 339.057 246.350 646.595 629.111 512.937 372.447 354.807 493.222 251.481 403.203 211.068 296.587 450.267 294.621 558.143 818.210 330.199 649.824 652.264 489.456 304.289 359.647 293.663 665.147 302.807 362.733 348.422 426.824 451.948 707.089 434.560 668.415 597.941 672.518 1163.514 410.881 466.045 681.238 0.000 678.416 149.809 533.143 543.801 583.760 349.510 403.477 776.303 604.515 645.735 560.497 682.024 386.723 437.781 460.841 671.192 399.295 527.873 686.129 602.035 1208.720 414.610 762.845 570.559 785.698 659.459 871.010 609.951 313.867 679.946 840.422 146.541 557.628 658.077 202.665 1107.083 619.502 403.475 437.611
467.641 828.308 651.445 513.650 680.870 601.373 347.630 634.942 696.962 428.812 530.792 896.503 588.234 381.652 683.042 643.864 544.853 411.057 542.402 658.720 430.894 450.751 345.766 380.911 806.619 834.918 817.434 656.880 674.435 691.962 577.435 498.208 674.502 538.582 510.773 618.557 444.171 642.355 946.958 483.859 1146.722 922.475 638.107 468.122 732.899 564.798 162.252 666.738 650.909 476.414 696.866 672.069 229.835 994.828 99.810 671.129 15.145 752.910 475.194 550.257 230.667 677.928 0.000 605.862 720.918 287.601 163.735 645.973 963.746 904.920 792.290 216.145 224.397 179.129 946.991 998.050 1021.110 1168.090 669.506 601.062 67.093 790.358 673.135 542.303 143.463 654.771 974.021 615.841 999.758 104.106 976.985 178.435 969.170 809.659 139.038 155.182 545.150 571.498 141.563 963.744 997.879
302.455 550.469 373.606 193.893 525.666 256.962 299.064 210.239 419.123 248.872 252.953 770.976 239.660 235.288 405.203 491.235 492.881 223.663 230.857 380.881 240.460 270.811 297.200 250.416 413.859 649.816 632.332 504.251 396.596 414.123 458.035 167.321 396.663 122.426 265.689 441.581 223.142 522.956 821.431 299.302 722.019 644.636 480.770 273.392 299.315 251.709 588.554 388.899 373.070 317.524 419.027 466.827 642.661 602.069 603.987 601.162 601.190 1166.735 395.675 430.858 603.817 182.318 607.088 0.000 536.364 455.159 507.168 331.095 570.986 779.524 607.736 568.314 471.856 605.431 554.232 605.290 628.350 743.387 391.667 531.094 609.537 605.257 1134.902 379.423 687.371 535.372 788.919 602.181 874.231 533.359 481.376 603.728 843.643 314.050 480.206 581.485 163.374 1033.266 555.074 570.984 605.120
511.488 931.346 754.483 559.836 906.544 483.470 612.842 461.755 800.001 602.645 633.830 447.349 462.766 580.318 786.081 872.113 306.522 568.694 621.247 761.758 594.233 624.584 602.269 595.446 761.615 199.989 193.754 885.129 777.474 795.000 822.969 533.264 777.541 482.524 646.567 822.459 578.835 887.890 497.803 674.802 973.536 1025.514 861.648 654.269 734.370 643.643 690.635 769.777 753.947 690.126 799.905 847.704 795.910 949.824 757.235 339.729 717.583 843.107 298.742 795.791 742.556 530.074 723.480 505.142 0.000 605.953 657.961 582.418 918.742 455.896 94.848 706.310 636.406 724.318 901.987 953.046 976.106 994.904 772.544 269.661 725.929 155.429 954.015 780.880 803.764 900.305 350.341 687.849 550.603 652.246 829.131 631.585 520.015 661.805 631.000 700.372 545.060 1079.055 708.322 918.740 952.876
384.660 745.327 568.464 430.669 597.889 518.392 264.649 551.961 613.981 345.831 447.811 845.961 505.253 298.671 600.061 560.883 461.872 328.076 459.421 575.739 347.913 367.770 262.785 297.930 723.638 777.692 760.207 573.899 591.454 608.981 494.454 415.227 591.521 455.601 427.792 535.576 361.190 559.374 896.416 400.878 1063.741 839.494 555.126 385.141 649.918 481.817 192.619 583.757 567.928 393.433 613.885 589.088 217.629 911.847 178.955 620.587 183.058 816.840 392.213 467.276 182.163 594.947 188.956 522.881 663.691 0.000 111.232 562.992 880.765 854.378 735.063 129.741 78.715 209.496 864.010 915.069 938.129 1085.109 586.525 550.520 213.601 733.132 738.967 459.322 273.386 571.790 916.794 532.860 949.216 137.423 894.005 181.517 918.627 726.678 83.394 185.550 462.169 637.331 130.042 880.763 914.898
386.776 747.443 570.580 432.784 600.005 520.508 266.765 554.077 616.097 347.946 449.927 826.738 507.369 300.787 602.177 562.999 463.988 330.192 461.537 577.855 350.029 369.886 264.901 300.046 725.753 765.153 747.669 576.015 593.570 611.096 496.569 417.343 593.637 457.717 429.908 537.692 363.306 561.490 877.193 402.994 1065.857 841.610 557.242 387.257 652.033 483.933 81.387 585.873 570.043 395.549 616.001 591.204 236.780 913.963 136.550 601.365 94.022 708.436 394.328 469.392 149.801 597.063 99.920 524.997 651.153 206.736 0.000 565.108 882.881 835.155 722.525 138.230 143.532 98.264 866.126 917.185 940.245 1087.225 588.640 531.297 102.369 720.594 628.662 461.438 180.203 573.906 904.256 534.976 929.993 26.191 896.120 100.520 899.405 728.794 58.173 74.317 464.285 527.025 149.193 882.879 917.014
764.519 1087.017 910.154 715.507 1062.214 695.963 820.677 539.307 955.671 770.485 789.501 1018.218 678.661 756.901 941.751 1027.783 775.199 745.277 776.917 917.429 762.073 792.425 818.814 772.029 916.142 897.058 879.574 1040.799 933.144 950.670 990.809 688.934 933.211 644.040 802.237 978.129 744.756 1055.730 1068.672 835.849 1023.881 1181.184 1017.318 809.940 890.040 799.314 1110.168 925.447 909.618 854.072 955.575 1003.375 1164.275 1104.352 1125.600 848.404 1122.804 1413.976 767.419 963.632 1125.430 684.602 1128.701 659.669 783.606 976.773 1028.781 0.000 1073.270 1026.765 854.978 1089.927 993.469 1127.045 1056.515 1107.573 1130.634 1045.249 928.215 778.336 1131.150 852.498 1524.884 948.721 1208.985 1068.146 1036.160 1080.046 1121.472 1054.972 983.659 1100.533 1090.884 816.333 1001.820 1103.098 700.730 1548.242 1076.688 1073.267 1107.403
731.677 598.306 421.443 663.840 574.561 684.783 714.964 616.424 466.960 583.223 560.738 1177.161 667.480 651.188 458.116 540.130 917.493 648.712 592.263 410.692 589.913 576.404 713.100 665.170 211.620 1056.001 1038.517 553.146 412.656 395.016 583.447 660.887 443.412 620.474 573.474 490.476 591.547 607.680 1227.616 607.007 1059.130 692.474 529.665 576.563 769.053 614.659 979.903 343.016 402.943 625.309 467.033 492.157 1021.845 205.391 983.171 1007.347 987.274 1572.920 820.287 573.707 995.994 466.914 993.172 559.214 942.549 867.206 898.516 758.916 0.000 1185.709 1013.921 960.491 883.903 996.780 77.629 196.664 418.275 1080.497 439.504 937.279 1000.885 1011.441 1523.476 729.366 1077.601 641.281 1195.104 1018.082 1280.416 924.707 584.768 999.036 1249.827 431.469 872.384 972.833 612.071 1421.839 934.258 94.381 128.517
718.486 1156.141 979.278 790.654 1131.339 714.288 805.569 692.573 1024.795 809.643 858.625 268.544 693.584 787.316 1010.875 1096.396 525.446 775.692 852.065 986.553 801.231 831.582 787.635 802.444 992.432 466.997 449.513 1109.412 1002.268 1019.795 1029.967 760.134 1002.335 713.342 868.759 1047.254 785.833 1094.887 328.179 881.800 1204.354 1250.308 1086.442 866.062 965.187 874.461 861.135 994.571 978.742 897.123 1024.699 1072.499 991.194 1180.642 930.611 363.114 888.083 658.984 517.666 1002.789 913.056 760.892 893.980 735.959 428.603 801.237 853.245 813.236 1149.560 0.000 499.975 876.810 831.690 894.818 1132.805 1183.863 1206.924 1225.721 997.339 441.141 896.429 422.437 769.892 987.878 974.264 1107.303 606.099 858.349 399.469 822.746 1059.949 802.085 368.881 892.623 826.284 870.872 775.877 932.485 903.606 1149.557 1183.693
582.860 1002.718 825.855 631.208 977.916 554.842 684.214 533.127 871.373 674.017 705.202 518.721 534.138 651.690 857.453 943.485 377.894 640.066 692.619 833.130 665.605 695.956 673.641 666.818 832.987 271.361 265.126 956.501 848.846 866.372 894.341 604.636 848.913 553.896 717.939 893.831 650.207 959.262 569.175 746.174 1044.908 1096.886 933.020 725.641 805.742 715.015 762.007 841.149 825.319 761.498 871.277 919.076 867.282 1021.196 828.607 411.101 788.955 914.479 370.114 867.163 813.928 601.446 794.852 576.514 94.848 677.325 729.333 653.790 990.114 527.268 0.000 777.682 707.778 795.690 973.359 1024.418 1047.478 1066.276 843.916 341.033 797.301 226.801 1025.387 852.252 875.136 971.677 421.713 759.221 621.975 723.618 900.503 702.957 591.387 733.177 702.372 771.744 616.432 1150.427 779.694 990.112 1024.248
435.410 796.077 619.214 481.419 648.640 569.142 315.399 602.711 664.731 396.581 498.561 864.551 556.003 349.421 650.812 611.633 512.622 378.827 510.172 626.489 398.664 418.520 313.535 348.681 774.388 802.966 785.482 624.649 642.205 659.731 545.204 465.978 642.271 506.351 478.542 586.327 411.941 610.125 915.006 451.629 1114.492 890.245 605.877 435.891 700.668 532.568 197.051 634.508 618.678 444.183 664.635 639.838 287.302 962.598 248.627 639.177 218.619 806.532 442.963 518.026 194.731 645.698 224.516 573.632 688.965 255.371 133.392 613.743 931.515 872.968 760.337 0.000 194.053 225.354 914.761 965.819 988.879 1135.860 637.275 569.110 226.965 758.406 755.752 510.073 304.800 622.540 942.068 583.611 967.806 153.282 944.755 171.210 937.218 777.429 105.554 201.408 512.919 654.116 199.714 931.513 965.649
368.927 744.765 567.902 407.856 618.920 502.660 241.837 529.149 613.419 343.261 447.249 847.663 489.521 275.859 599.500 581.914 446.139 305.264 458.860 575.177 341.339 365.201 239.973 275.118 723.076 761.959 744.475 594.930 590.893 608.419 515.484 392.415 590.959 432.788 448.024 556.607 338.378 580.405 898.118 421.110 1040.929 838.933 576.157 405.373 627.105 481.256 221.380 583.196 567.366 413.664 613.323 610.118 235.596 911.286 196.922 622.289 201.025 847.503 376.480 488.307 200.129 586.630 206.923 503.148 647.959 102.172 139.994 547.260 880.203 856.080 719.331 183.989 0.000 238.257 863.449 914.507 937.567 1062.297 585.963 552.222 237.634 717.399 767.728 480.353 291.352 592.820 901.062 517.128 950.918 166.185 885.687 232.905 920.329 718.361 115.179 210.706 439.357 666.092 148.009 880.201 914.337
472.769 833.436 656.573 518.777 685.998 606.501 352.757 640.070 702.090 433.939 535.920 912.128 593.362 386.780 688.170 648.992 549.981 416.185 547.530 663.848 436.022 455.879 350.894 386.039 811.746 850.543 833.059 662.008 679.563 697.089 582.562 503.336 679.630 543.709 515.901 623.685 449.299 647.483 962.583 488.987 1151.850 927.603 643.235 473.250 738.026 569.926 91.146 671.866 656.036 481.541 701.994 677.196 322.773 999.956 237.133 686.755 194.605 809.019 480.321 555.385 163.214 683.056 200.502 610.990 736.543 292.729 168.863 651.101 968.874 920.545 807.915 223.620 229.524 0.000 952.119 1003.177 1026.238 1173.218 674.633 616.687 202.951 805.984 729.244 547.431 280.786 659.899 989.646 620.969 1015.383 111.581 982.113 169.550 984.795 814.787 144.166 59.400 550.277 627.607 235.186 968.871 1003.007
699.268 565.897 389.034 631.431 542.152 652.374 682.555 584.014 434.551 550.814 528.329 1144.752 635.071 618.778 425.707 507.721 885.084 616.303 559.853 378.283 557.503 543.995 680.691 632.760 172.937 1023.592 1006.108 520.737 380.247 362.606 551.038 628.477 411.003 588.064 541.065 458.067 559.138 575.271 1195.206 574.598 1026.720 660.064 497.256 544.153 736.644 582.250 947.494 310.607 370.533 592.900 434.624 459.748 989.436 178.048 950.761 974.937 954.865 1540.510 787.878 541.298 963.585 434.505 960.762 526.805 910.140 834.797 866.107 726.507 75.108 1153.299 981.512 928.082 851.494 964.371 0.000 138.884 367.286 1048.088 407.095 904.870 968.476 979.032 1491.067 696.956 1045.192 608.872 1162.694 985.672 1248.006 892.298 552.359 966.627 1217.418 399.060 839.975 940.424 579.662 1389.430 901.849 25.647 59.783
659.468 526.097 349.234 591.631 502.353 612.574 642.755 544.215 394.752 511.015 488.529 1104.952 595.271 578.979 385.907 467.921 845.284 576.504 520.054 338.484 517.704 504.195 640.891 592.961 133.137 983.792 966.308 480.937 340.447 322.807 511.238 588.678 371.204 548.265 501.266 418.267 519.338 535.472 1155.407 534.798 986.921 620.265 457.456 504.354 696.844 542.450 907.694 270.808 330.734 553.100 394.824 419.948 949.636 267.617 910.962 935.138 915.065 1500.711 748.078 501.498 923.785 394.705 920.963 487.006 870.340 794.997 826.307 686.707 167.647 1113.500 941.712 888.282 811.694 924.571 116.471 0.000 327.486 1008.289 367.295 865.070 928.676 939.233 1451.267 657.157 1005.393 569.072 1122.895 945.873 1208.207 852.499 512.559 926.827 1177.619 359.260 800.175 900.625 539.862 1349.631 862.049 133.223 167.359
770.151 636.780 459.917 702.313 613.035 723.256 753.437 654.897 505.434 621.697 599.211 1215.634 705.954 689.661 496.589 578.603 955.966 687.186 630.736 449.166 628.386 614.877 751.574 703.643 227.282 1094.474 1076.990 591.619 451.129 433.489 621.921 699.360 481.886 658.947 611.948 528.950 630.020 646.154 1266.089 645.481 1097.603 730.947 568.138 615.036 807.527 653.132 1018.376 381.490 441.416 663.783 505.506 530.630 1060.319 438.958 1021.644 1045.820 1025.747 1611.393 858.761 612.180 1034.468 505.388 1031.645 597.688 981.022 905.680 936.990 797.389 407.876 1224.182 1052.394 998.965 922.376 1035.253 367.053 418.111 0.000 1118.971 477.977 975.752 1039.359 1049.915 1561.949 767.839 1116.075 679.755 1233.577 1056.555 1318.889 963.181 623.242 1037.510 1288.301 469.942 910.857 1011.307 650.544 1460.313 972.731 383.805 417.941
820.842 1143.340 966.477 771.830 1118.537 752.286 877.000 595.630 1011.994 826.808 845.824 1247.898 734.984 813.224 998.074 1084.106 984.997 801.600 833.240 973.752 818.396 848.748 875.136 828.352 915.484 1126.738 1109.254 1097.122 989.467 1006.993 1047.132 745.257 989.534 700.363 858.560 1034.452 801.079 1112.053 1298.353 892.172 47.253 1237.507 1073.641 866.263 946.363 855.636 1166.491 971.941 965.941 910.395 1011.898 1059.698 1220.598 1103.693 1181.923 1078.084 1179.126 1643.657 887.791 1019.955 1181.753 740.925 1185.024 715.992 1013.286 1033.096 1085.104 826.419 1072.611 1256.446 1084.658 1146.250 1049.792 1183.368 1055.857 1106.915 1129.975 0.000 984.538 1008.016 1187.473 1082.178 1712.839 1005.044 1265.308 1124.469 1265.841 1136.369 1351.153 1111.295 656.511 1156.856 1320.565 782.104 1058.143 1159.421 757.053 1611.202 1133.011 1072.609 1106.745
395.243 212.523 52.985 327.406 218.436 465.812 378.530 451.617 57.538 246.790 224.304 1003.613 448.510 314.754 83.552 184.004 606.621 312.279 255.829 54.638 253.479 239.970 376.666 328.736 273.441 888.423 870.939 197.020 112.633 158.784 240.771 340.818 86.583 364.934 237.040 160.589 255.113 260.730 1054.068 270.573 963.398 306.690 190.487 240.129 522.698 278.225 643.469 133.561 56.822 288.875 77.482 191.163 685.411 461.651 646.737 778.240 650.840 1266.817 509.415 257.023 659.560 436.590 656.738 366.478 774.971 530.772 562.082 539.945 430.568 1012.030 846.343 624.057 547.469 660.346 413.814 464.872 487.932 984.765 0.000 708.172 664.451 843.864 1187.042 392.932 741.168 284.292 1027.526 681.648 1106.868 588.273 575.894 662.602 1076.280 422.595 535.950 636.400 282.841 1085.406 597.824 430.566 464.702
533.418 971.073 794.210 604.600 946.270 528.234 620.501 506.519 839.727 624.575 673.557 295.441 507.529 602.248 825.807 911.328 340.378 590.624 666.010 801.485 616.163 646.514 602.567 617.376 806.378 280.943 263.458 924.344 817.200 834.727 844.899 575.066 817.267 527.288 683.691 862.185 600.765 909.819 345.896 696.732 1018.300 1065.240 901.374 680.994 779.133 688.407 676.066 809.503 793.674 712.055 839.631 887.431 806.126 994.588 745.543 319.735 703.015 691.200 332.598 817.721 727.988 574.837 708.912 549.905 242.548 616.169 668.177 627.181 963.506 303.858 313.920 691.742 646.622 709.750 946.751 997.809 1020.869 1039.667 812.271 0.000 711.361 236.383 802.107 802.810 789.196 922.235 420.045 673.281 398.696 637.678 873.895 617.017 368.108 706.569 641.216 685.804 589.823 964.701 718.538 963.503 997.639
547.441 908.108 731.245 593.450 760.670 681.173 427.430 714.742 776.762 508.612 610.592 976.303 668.034 461.452 762.842 723.664 624.653 490.857 622.202 738.520 510.694 530.551 425.566 460.711 886.419 914.718 897.234 736.680 754.235 771.762 657.235 578.008 754.302 618.382 590.573 698.357 523.971 722.155 1026.758 563.659 1226.522 1002.275 717.907 547.922 812.699 644.599 242.052 746.538 730.709 556.214 776.666 751.869 282.533 1074.628 181.843 750.930 123.357 685.817 554.994 630.057 310.467 757.728 129.255 685.662 800.718 367.401 243.535 725.773 1043.546 984.720 872.090 295.945 304.197 258.929 1026.791 1077.850 1100.910 1247.890 749.306 680.862 0.000 870.158 606.042 622.103 225.496 734.571 1053.821 695.641 1079.558 183.906 1056.786 258.235 1048.970 889.459 218.838 234.982 624.950 504.405 237.849 1043.544 1077.679
583.927 1003.588 826.725 632.078 978.785 555.711 686.094 533.997 872.242 675.083 706.072 441.331 535.007 652.757 858.322 944.354 379.774 641.133 693.488 834.000 666.672 697.023 674.707 667.885 833.856 44.560 76.942 957.370 849.715 867.241 895.408 605.505 849.782 554.766 718.808 894.700 651.274 960.328 491.786 747.241 1045.777 1097.755 933.889 726.511 806.611 715.884 763.886 842.018 826.188 762.564 872.146 919.945 869.161 1022.065 830.487 412.980 790.834 837.090 371.994 868.230 815.808 602.315 796.732 577.383 149.880 679.204 731.213 654.659 990.983 449.879 221.252 779.562 709.658 797.570 974.229 1025.287 1048.347 1067.145 844.785 342.913 799.181 0.000 947.997 853.319 877.015 972.744 280.624 761.100 544.586 725.497 901.372 704.837 513.998 734.046 704.251 773.623 617.301 1110.591 781.574 990.981 1025.117
986.638 1347.305 1170.442 1032.647 1199.867 1120.370 866.627 1153.939 1215.959 947.809 1049.789 1346.261 1107.231 900.649 1202.039 1162.861 1012.068 930.054 1061.399 1177.717 949.891 969.748 864.763 899.908 1325.616 1284.676 1267.192 1175.877 1193.432 1210.959 1096.432 1017.205 1193.499 1057.579 1029.770 1137.554 963.168 1161.352 1396.716 1002.856 1665.719 1441.472 1157.104 987.119 1251.896 1083.795 681.333 1185.735 1169.906 995.411 1215.863 1191.066 720.159 1513.825 698.899 1120.887 670.386 141.942 942.993 1069.254 749.664 1196.925 676.283 1124.859 1170.675 806.598 682.732 1164.970 1482.743 1354.678 1242.047 741.483 743.394 698.210 1465.988 1517.047 1540.107 1687.087 1188.503 1050.820 685.082 1240.116 0.000 1061.300 670.819 1173.768 1423.779 1134.838 1449.516 629.445 1495.982 613.220 1418.928 1328.656 658.035 674.264 1064.147 260.858 675.475 1482.741 1516.876
472.875 833.542 656.679 518.884 686.104 606.607 352.864 640.176 702.196 434.046 536.026 951.610 593.468 386.886 688.276 649.098 550.087 416.291 547.636 663.954 436.129 455.985 351.000 386.146 811.853 865.907 848.422 662.114 679.669 697.196 582.669 503.442 679.736 543.816 516.007 623.791 449.405 647.589 1002.065 489.093 1151.957 927.709 643.341 473.356 738.133 570.033 250.537 671.972 656.143 481.648 702.100 677.303 292.480 1000.062 253.805 726.237 257.908 876.660 480.428 555.491 266.629 683.162 263.806 611.096 751.906 292.835 169.151 651.207 968.980 960.027 823.278 231.126 226.879 267.414 952.225 1003.284 1026.344 1173.324 674.740 656.169 271.520 821.347 796.885 0.000 348.236 660.005 1005.009 621.075 1054.865 195.342 982.220 269.671 1024.277 814.894 143.018 243.468 550.384 695.249 204.892 968.978 1003.114
562.382 922.408 745.545 608.391 774.971 696.114 442.371 729.683 791.063 522.912 624.892 991.244 682.975 476.393 777.143 737.965 639.594 505.798 636.503 752.820 524.995 544.852 440.507 475.652 900.719 929.659 912.175 750.980 768.536 786.062 671.535 592.949 768.602 633.323 604.874 712.658 538.912 736.456 1041.699 577.960 1241.463 1016.576 732.208 562.223 827.640 658.899 256.993 760.839 745.009 570.514 790.967 766.169 260.789 1088.929 159.693 765.870 136.065 761.691 569.935 644.358 325.407 772.029 141.963 699.963 815.659 382.342 258.476 740.714 1057.847 999.661 887.031 310.886 310.749 273.870 1041.092 1092.150 1115.210 1262.831 763.606 695.803 145.876 885.099 681.917 636.404 0.000 748.871 1068.762 710.582 1094.499 198.847 1071.086 273.176 1063.911 903.760 233.779 249.923 639.891 580.280 171.080 1057.844 1091.980
529.196 440.542 300.005 462.543 164.696 622.796 446.948 609.340 250.140 349.368 423.258 1136.515 605.493 403.207 238.465 132.164 734.992 419.834 434.869 277.518 351.451 360.406 445.084 404.870 470.643 1039.711 1022.226 145.180 335.512 361.649 83.453 482.884 258.284 512.980 403.239 199.364 377.313 221.784 1186.970 376.326 1121.121 559.575 213.407 360.588 701.738 457.265 657.537 336.426 305.606 368.880 252.289 250.310 699.479 658.853 660.805 911.142 664.908 1280.885 643.368 160.292 673.628 610.386 670.806 538.320 925.710 585.611 576.150 685.905 627.771 1144.932 997.082 638.125 602.136 674.414 611.016 662.075 685.135 1142.489 285.126 841.074 678.519 995.151 1201.110 407.000 755.235 0.000 1178.813 778.810 1239.770 602.341 773.097 676.670 1209.182 619.797 550.018 650.467 461.880 1099.473 611.892 627.769 661.904
765.429 1185.089 1008.226 813.579 1160.287 737.213 867.596 715.498 1053.744 856.585 887.573 622.833 716.509 834.259 1039.824 1125.856 561.276 822.634 874.990 1015.501 848.173 878.525 856.209 849.387 1015.358 329.209 311.725 1138.872 1031.217 1048.743 1076.909 787.007 1031.284 736.267 900.310 1076.202 832.776 1141.830 673.288 928.743 1227.279 1279.257 1115.391 908.012 988.113 897.386 945.388 1023.520 1007.690 944.066 1053.648 1101.447 1050.663 1203.567 1011.989 594.482 972.336 1018.592 553.496 1049.732 997.309 783.817 978.234 758.885 331.382 860.706 912.715 836.161 1172.485 631.381 402.754 961.064 891.160 979.072 1155.730 1206.789 1229.849 1248.647 1026.287 524.414 980.683 284.649 1129.499 1034.821 1058.517 1154.246 0.000 942.602 726.088 906.999 1082.874 886.339 695.500 915.548 885.753 955.125 798.803 1292.093 963.076 1172.483 1206.619
412.986 853.005 676.142 515.230 779.353 553.790 397.918 592.777 721.660 457.991 555.489 860.996 540.651 404.896 707.740 742.347 501.818 404.918 567.100 683.417 449.579 479.931 379.984 404.156 831.316 799.411 781.926 755.363 699.133 716.659 675.918 491.968 699.199 532.342 557.062 717.040 446.618 740.838 911.451 530.148 1104.557 947.173 736.590 514.411 726.659 589.496 608.628 691.436 675.606 544.605 721.564 769.363 665.190 1019.526 626.515 635.622 621.264 1230.075 432.743 648.740 623.891 663.430 627.161 602.701 685.410 475.233 527.242 598.391 988.443 869.413 756.782 588.387 505.687 625.505 971.689 1022.747 1045.807 1125.925 694.203 565.555 629.610 754.851 1154.976 635.360 707.445 753.254 938.513 0.000 964.251 553.433 962.488 594.752 933.662 795.161 500.280 601.559 541.639 1053.340 577.603 988.441 1022.577
832.608 1270.262 1093.399 907.685 1245.460 831.319 919.691 809.604 1138.917 923.764 972.746 207.386 810.615 901.437 1124.997 1210.517 639.568 889.813 969.096 1100.674 915.352 945.704 901.757 916.566 1109.464 584.028 566.544 1223.533 1116.390 1133.916 1144.088 874.255 1116.456 830.373 982.880 1161.375 899.954 1209.009 191.934 995.921 1321.385 1364.430 1200.563 980.184 1082.218 991.492 975.256 1108.693 1092.863 1011.245 1138.821 1186.620 1105.315 1297.673 1044.732 618.924 1002.204 570.594 631.788 1116.910 1027.177 877.923 1008.102 852.991 545.634 915.358 967.367 930.267 1266.591 412.933 617.006 990.932 945.812 1008.940 1249.836 1300.895 1323.955 1342.753 1111.460 555.263 1010.551 539.468 681.501 1101.999 1088.385 1221.424 723.131 972.470 0.000 936.867 1176.980 916.207 141.598 1009.654 940.405 984.993 892.909 844.095 1017.728 1266.589 1300.724
398.242 758.909 582.046 444.251 611.472 531.974 278.231 565.543 627.564 359.413 461.393 800.547 518.836 312.253 613.644 574.465 466.354 341.659 473.004 589.321 361.496 381.353 276.367 311.513 737.220 738.962 721.478 587.481 605.037 622.563 508.036 428.810 605.103 469.183 441.375 549.159 374.773 572.957 851.002 414.461 1077.324 853.077 568.709 398.724 663.500 495.400 91.469 597.340 581.510 407.015 627.468 602.670 248.247 925.430 161.852 575.174 119.324 704.132 397.279 480.858 135.728 608.530 125.222 536.464 624.962 218.203 94.337 576.575 894.347 808.964 696.334 112.039 154.998 126.060 877.593 928.651 951.711 1098.692 600.107 505.106 127.671 694.402 656.458 472.905 205.505 585.372 878.065 546.443 903.802 0.000 907.587 74.329 873.214 740.261 69.640 102.113 475.751 554.821 160.659 894.345 928.481
640.188 694.009 517.146 560.367 670.264 571.632 683.961 501.326 562.664 605.945 578.845 1064.010 554.330 620.185 553.819 635.833 804.343 608.560 566.262 506.396 606.934 599.125 682.097 635.313 382.262 942.851 925.366 648.849 508.359 490.719 679.150 546.475 539.116 507.323 591.582 586.179 589.616 703.384 1114.465 625.194 654.020 788.177 625.368 599.284 654.642 588.658 960.142 438.719 498.646 643.417 562.736 587.860 1002.084 570.472 963.409 894.196 967.513 1459.769 707.137 669.410 976.233 353.764 973.410 444.803 829.399 840.056 878.755 645.765 539.390 1072.558 900.771 940.730 856.753 977.018 522.635 573.693 596.754 675.388 535.207 824.129 981.124 898.291 1503.714 709.604 1057.840 736.984 1081.953 955.715 1167.265 904.946 0.000 976.202 1136.677 338.675 852.622 953.072 497.660 1402.078 914.496 539.387 573.523
410.281 804.993 628.130 478.414 657.556 544.013 310.160 583.000 673.648 405.497 507.477 786.963 530.875 346.416 659.728 620.550 452.770 375.641 519.088 635.405 407.580 427.437 308.296 345.676 783.304 725.378 707.894 633.565 651.121 668.647 554.120 462.608 651.188 502.981 487.459 595.243 408.936 619.041 837.418 460.545 1094.780 899.161 614.793 444.808 697.298 541.484 106.524 643.424 627.594 453.099 673.552 648.754 294.331 971.514 207.936 561.590 165.408 690.548 383.696 526.943 181.294 653.653 171.306 573.341 611.378 264.287 140.421 588.614 940.432 795.381 682.750 157.605 201.082 147.433 923.677 974.735 997.795 1116.148 646.191 491.522 173.755 680.819 648.343 518.989 251.589 631.456 864.481 558.482 890.218 94.253 952.711 0.000 859.630 785.385 115.724 123.487 509.914 546.707 206.744 940.429 974.565
793.104 1230.759 1053.896 868.182 1205.957 791.815 880.187 770.101 1099.413 884.261 933.243 167.883 771.111 861.934 1085.493 1171.014 600.064 850.310 929.592 1061.171 875.849 906.200 862.253 877.062 1069.960 544.525 527.040 1184.030 1076.886 1094.413 1104.585 834.752 1076.953 790.870 943.377 1121.871 860.451 1169.505 178.234 956.418 1281.882 1324.926 1161.060 940.680 1042.715 951.989 935.753 1069.189 1053.360 971.741 1099.317 1147.117 1065.812 1258.170 1005.229 579.421 962.701 531.091 592.284 1077.407 987.674 838.419 968.598 813.487 506.130 875.855 927.863 890.763 1227.088 373.429 577.502 951.428 906.308 969.436 1210.333 1261.391 1284.451 1303.249 1071.957 515.759 971.047 499.965 641.998 1062.496 1048.882 1181.921 683.627 932.967 136.477 897.364 1137.477 876.703 0.000 970.151 900.902 945.490 853.405 804.591 978.224 1227.085 1261.221
483.203 552.587 375.724 404.642 528.842 414.647 526.976 346.288 421.241 450.221 423.121 907.025 397.344 463.199 412.397 494.411 647.357 451.575 410.537 364.973 451.209 443.401 525.112 478.327 240.840 785.865 768.381 507.427 366.937 349.297 537.728 390.751 397.693 350.338 435.857 444.757 433.892 561.961 957.480 469.469 768.231 646.755 483.946 443.560 498.918 432.933 804.417 297.297 357.224 487.692 421.314 446.438 846.359 429.050 807.685 737.211 811.788 1302.784 550.151 527.988 820.508 196.779 817.686 289.079 672.413 683.071 723.030 488.780 397.968 915.573 743.785 785.005 699.768 821.294 381.213 432.271 455.331 789.598 393.785 667.143 825.399 741.306 1347.990 553.880 902.116 595.562 924.968 798.729 1010.280 749.221 350.552 819.216 979.692 0.000 696.898 797.348 341.935 1246.354 758.772 397.965 432.101
329.857 690.524 513.661 375.865 543.086 463.589 209.846 497.158 559.178 291.027 393.008 808.592 450.450 243.868 545.258 506.080 407.069 273.273 404.618 520.936 293.110 312.967 207.982 243.127 668.834 722.888 705.404 519.096 536.651 554.177 439.650 360.424 536.718 400.798 372.989 480.773 306.387 504.571 859.047 346.075 1008.938 784.691 500.323 330.338 595.115 427.014 283.213 528.954 513.125 338.630 559.082 534.285 351.973 857.044 313.299 583.219 295.848 909.335 337.410 412.473 298.475 540.144 301.746 468.078 608.888 149.817 201.826 508.189 825.962 817.009 680.260 262.972 146.622 300.089 809.207 860.266 883.326 1030.306 531.722 513.151 304.195 678.329 829.560 404.519 382.029 516.987 861.991 478.057 911.847 228.017 839.201 302.346 881.259 671.875 0.000 276.143 407.366 727.924 264.386 825.960 860.095
451.111 811.778 634.915 497.120 664.340 584.843 331.100 618.412 680.432 412.282 514.262 890.471 571.704 365.122 666.512 627.334 528.323 394.527 525.872 642.190 414.364 434.221 329.236 364.381 790.089 828.886 811.401 640.350 657.905 675.432 560.905 481.678 657.972 522.052 494.243 602.027 427.641 625.825 940.925 467.329 1130.192 905.945 621.577 451.592 716.369 548.268 69.488 650.208 634.379 459.884 680.336 655.539 301.115 978.298 215.475 665.097 172.947 787.361 458.664 533.727 121.351 661.398 178.844 589.332 714.885 271.071 147.205 629.443 947.216 898.888 786.257 201.962 207.867 61.689 930.461 981.520 1004.580 1151.560 652.976 595.029 181.293 784.326 707.586 525.773 259.128 638.241 967.988 599.311 993.725 89.923 960.456 147.892 963.137 793.129 122.508 0.000 528.620 605.950 213.528 947.214 981.349
240.817 431.702 254.839 97.591 406.900 230.978 242.473 216.783 300.357 161.286 134.186 774.748 213.675 178.697 286.437 372.469 443.152 168.253 121.603 262.114 159.364 154.467 240.609 192.679 410.013 653.589 636.104 385.484 277.830 295.356 379.347 105.984 277.896 128.758 146.923 322.815 142.046 440.019 825.203 180.535 728.563 525.870 362.003 154.625 284.789 143.999 528.111 270.133 254.303 198.758 300.261 348.060 582.218 598.223 543.543 604.934 540.746 1154.233 345.946 352.169 543.373 223.885 546.644 128.484 540.137 394.715 446.724 305.111 567.141 783.296 611.509 507.870 411.412 544.987 550.386 601.444 624.504 749.931 272.900 534.867 549.093 609.029 1074.459 307.428 626.927 456.683 792.691 545.591 878.003 472.915 522.942 544.982 847.415 355.616 419.762 521.041 0.000 972.822 494.630 567.138 601.274
890.086 1250.753 1073.890 936.095 1103.316 1023.818 770.075 1057.387 1119.407 851.257 953.237 1249.709 1010.679 804.097 1105.487 1066.309 915.516 833.503 964.848 1081.165 853.340 873.196 768.211 803.357 1229.064 1188.124 1170.640 1079.325 1096.881 1114.407 999.880 920.654 1096.947 961.027 933.218 1041.002 866.616 1064.801 1300.164 906.305 1569.168 1344.920 1060.552 890.567 1155.344 987.244 584.782 1089.184 1073.354 898.859 1119.311 1094.514 623.608 1417.273 602.347 1024.336 573.834 305.099 846.441 972.702 653.112 1100.373 579.731 1028.307 1074.124 710.047 586.181 1068.418 1386.191 1258.126 1145.496 644.932 646.842 601.658 1369.437 1420.495 1443.555 1590.535 1091.951 954.268 588.531 1143.564 262.178 964.748 574.267 1077.216 1327.227 1038.286 1352.964 532.893 1399.431 516.668 1322.376 1232.105 561.483 577.712 967.595 0.000 578.924 1386.189 1420.325
400.555 753.981 577.118 445.250 606.544 534.287 293.382 570.969 622.635 354.485 456.465 879.290 521.148 317.679 608.715 569.537 477.767 347.085 468.076 584.393 356.568 376.424 291.518 316.939 732.292 793.587 776.102 582.553 600.109 617.635 503.108 434.236 600.175 474.609 436.446 544.230 375.772 568.028 929.745 409.533 1082.750 848.148 563.780 393.795 668.926 490.472 192.939 592.412 576.582 402.087 622.539 597.742 131.433 920.501 96.228 653.917 100.331 790.214 408.108 475.930 197.687 603.601 106.229 531.535 679.586 232.033 111.552 578.887 889.419 887.708 750.958 175.441 142.321 209.815 872.664 923.723 946.783 1104.118 595.179 583.849 136.940 749.027 710.439 467.976 190.659 580.444 932.689 548.755 982.545 137.743 902.659 212.072 951.957 735.333 87.334 185.869 476.750 608.802 0.000 889.417 923.553
716.129 582.758 405.895 648.292 559.014 669.235 699.416 600.876 451.413 567.676 545.190 1161.613 651.932 635.640 442.568 524.582 901.945 633.165 576.715 395.145 574.365 560.856 697.552 649.622 189.798 1040.453 1022.969 537.598 397.108 379.468 567.899 645.339 427.865 604.926 557.927 474.929 575.999 592.133 1212.068 591.460 1043.582 676.926 514.117 561.015 753.505 599.111 964.355 327.469 387.395 609.761 451.485 476.609 1006.297 194.910 967.623 991.799 971.726 1557.372 804.739 558.159 980.446 451.366 977.624 543.667 927.001 851.658 882.968 743.368 91.970 1170.161 998.373 944.943 868.355 981.232 34.377 162.536 384.147 1064.950 423.956 921.731 985.337 995.894 1507.928 713.818 1062.054 625.733 1179.556 1002.534 1264.868 909.160 569.220 983.488 1234.280 415.921 856.836 957.286 596.523 1406.292 918.710 0.000 34.136
752.699 619.328 442.465 684.862 595.583 705.805 735.986 637.446 487.983 604.246 581.760 1198.183 688.502 672.210 479.138 561.152 938.515 669.734 613.285 431.715 610.935 597.426 734.122 686.192 226.368 1077.023 1059.539 574.168 433.678 416.038 604.469 681.909 464.435 641.496 594.496 511.498 612.569 628.703 1248.638 628.029 1080.152 713.496 550.687 597.585 790.075 635.681 1000.925 364.038 423.965 646.331 488.055 513.179 1042.867 231.479 1004.193 1028.369 1008.296 1593.942 841.309 594.729 1017.016 487.936 1014.194 580.236 963.571 888.228 919.538 779.938 128.540 1206.731 1034.943 981.513 904.925 1017.802 70.947 199.106 420.717 1101.519 460.526 958.301 1021.907 1032.463 1544.498 750.388 1098.624 662.303 1216.126 1039.104 1301.438 945.729 605.790 1020.058 1270.850 452.491 893.406 993.856 633.093 1442.862 955.280 36.570 0.000
NODE_COORD_SECTION
1 1438.942575 -1211.855723
2 939.158778 -11531.868099
3 2142.106030 -8218.374716
4 2352.380656 -3395.599907
5 -612.822743 -7834.551377
6 4292.047124 -1265.489382
7 77.496783 -2260.990907
8 5843.925895 -1958.182873
9 1341.120703 -8492.364950
10 1064.730310 -4565.508184
11 2428.259185 -5565.076025
12 807.320126 10603.021714
13 4366.068450 -591.668719
14 751.071667 -2886.391631
15 1135.412396 -8236.530602
16 -781.275824 -7760.041969
17 2844.425478 2192.634833
18 972.867694 -3306.263017
19 2831.202955 -5273.831785
20 2137.073368 -8118.770210
21 1162.484312 -4625.065240
22 951.608241 -4907.873216
23 -56.870542 -1813.212673
24 497.277146 -2733.975518
25 6420.243642 -7784.623827
26 7333.143994 8094.424466
27 7450.568068 7713.914141
28 -734.896877 -7902.968621
29 2731.781905 -7869.647298
30 3460.597680 -7711.373782
31 -1728.629456 -7549.659314
32 2950.887162 -2414.620834
33 1650.430894 -8323.731675
34 3725.747249 -2019.673597
35 1937.377083 -5806.091845
36 111.141581 -7814.918860
37 1322.754172 -3873.740896
38 -1291.427586 -7534.520196
39 1142.938388 11014.151094
40 1280.456270 -6205.489853
41 11637.408454 3146.482613
42 1779.237300 -11861.835569
43 -345.460474 -7756.303899
44 1510.541706 -5504.299636
45 3689.195135 -3012.485751
46 2924.074524 -5337.508979
47 -4768.561372 1063.762217
48 3153.570737 -7394.894815
49 2497.853685 -8262.482261
50 1090.048387 -6068.969058
51 1242.905609 -8521.008912
52 472.586913 -7627.062863
53 -5959.056795 -2382.751663
54 7043.656749 -10551.259614
55 -6140.783966 -34.879118
56 4643.951558 6124.159060
57 -5737.387521 960.408825
58 -5136.459514 8886.300591
59 2099.239907 1876.588291
60 -1841.346635 -6902.527357
61 -4376.077185 79.144782
62 6494.992315 -4283.263570
63 -5635.508566 940.483453
64 4586.985795 -2629.680134
65 6528.846455 5854.996958
66 -3509.730537 -116.877073
67 -4314.104218 1099.020184
68 3902.790818 167.230100
69 8230.449009 -9827.031378
70 4076.458403 8762.592586
71 6603.485344 6002.595017
72 -3316.556730 1121.076982
73 -3628.904395 -761.537810
74 -4567.144707 868.364766
75 8712.998828 -9544.330600
76 8161.407706 -8164.675820
77 7181.154797 -7702.856729
78 11579.939728 3027.354702
79 1815.112860 -8784.587814
80 4962.105160 5853.774410
81 -6757.745935 858.854680
82 7634.525802 8088.988791
83 -7150.002003 8767.049182
84 -1747.498830 -2322.516625
85 -6406.969505 614.789550
86 -1999.843362 -7901.904908
87 8007.794993 5982.249805
88 -812.425339 1586.916973
89 2879.968550 11644.377281
90 -4068.851646 1352.947297
91 10006.703741 -5429.226013
92 -4166.532546 2083.073014
93 2371.174511 11327.197739
94 8443.040420 -5776.709396
95 -3601.394954 195.527556
96 -4710.934791 857.821470
97 3037.633157 -3691.397022
98 -10148.686692 9701.872500
99 -5140.661415 -800.388374
100 9042.730381 -9501.775337
101 9392.285565 -9588.150580
DEMAND_SECTION
1 0
2 63
3 4
4 8
5 8
6 7
7 5
8 1
9 6
10 5
11 6
12 7
13 1
14 2
15 4
16 7
17 10
18 3
19 6
20 10
21 5
22 6
23 4
24 8
25 6
26 8
27 3
28 8
29 72
30 4
31 2
32 56
33 6
34 9
35 5
36 3
37 9
38 61
39 6
40 9
41 1
42 64
43 9
44 4
45 5
46 10
47 57
48 88
49 10
50 8
51 6
52 2
53 4
54 1
55 4
56 10
57 2
58 7
59 2
60 10
61 2
62 7
63 1
64 69
65 9
66 82
67 7
68 3
69 73
70 7
71 2
72 1
73 1
74 1
75 8
76 10
77 5
78 51
79 8
80 4
81 4
82 2
83 8
84 2
85 1
86 3
87 1
88 1
89 7
90 2
91 1
92 67
93 1
94 2
95 5
96 8
97 6
98 6
99 6
100 7
101 1
DEPOT_SECTION
1
-1
EOF
