NAME : mamut-san_francisco-n100-hyb
COMMENT : Mamut2026 euclidean metric; city san_francisco; 3-decimal seconds/meters; ENU ref in mamut-san_francisco-n100-hyb.vrp.json
TYPE : CVRP
DIMENSION : 101
EDGE_WEIGHT_TYPE : EXPLICIT
EDGE_WEIGHT_FORMAT : FULL_MATRIX
CAPACITY : 186
EDGE_WEIGHT_SECTION
0.000 2924.568 11188.839 8383.336 470.156 12641.536 16544.735 1607.374 1029.058 797.076 2238.985 971.261 1945.384 5580.234 5484.020 12303.102 8084.546 6961.861 1992.631 2955.148 2290.442 3054.205 16138.584 2855.642 3524.970 2722.257 16238.244 1601.267 2530.204 1706.717 1465.029 12513.373 934.004 12752.229 13060.667 2140.200 652.104 1597.054 15178.261 1265.230 13991.362 2179.212 837.012 13134.944 4867.181 9450.803 126.329 1516.490 11964.417 2720.073 17518.122 3556.383 3781.447 15986.123 4191.720 12354.851 14160.404 1714.492 3115.459 4409.361 16120.056 12414.696 3398.983 3224.881 2237.835 14238.848 2176.285 1622.121 12729.554 8331.729 4674.961 16762.675 4278.495 8041.010 1958.017 14470.730 2763.983 3019.457 2232.266 8015.732 13069.355 3362.147 7525.359 1051.900 2823.683 1919.072 5066.508 1548.660 1860.463 1987.277 16897.808 7100.226 16675.502 16669.095 2374.013 16632.034 15957.529 2277.018 3842.005 18115.858 2819.418
2924.568 0.000 12377.848 9880.571 3182.427 13618.525 16332.051 4525.318 3809.436 3582.526 3728.499 3774.304 1209.822 7412.590 4097.853 13265.165 8758.257 9079.851 4193.809 4451.168 4642.778 215.808 15908.947 2170.731 5864.021 5604.848 14678.938 3313.271 408.797 3535.326 2868.404 13443.492 3613.302 14241.443 13241.961 4136.961 2943.656 1957.427 15653.913 4170.484 14287.186 2714.766 3749.435 13982.283 4611.183 9790.946 2853.610 3282.198 13780.170 1416.540 16719.057 2730.288 6473.842 15024.121 4132.454 14928.019 14526.907 4576.267 456.571 6870.650 13227.571 13578.526 5320.472 3780.952 4641.197 14740.101 4759.082 1850.084 14487.100 10887.474 4005.810 13991.196 3071.589 8734.931 4584.844 13231.538 4188.867 5864.633 2045.816 9672.534 14535.224 4406.459 8400.510 3973.379 2513.463 1372.507 7189.404 4327.385 2079.778 1858.457 14026.367 9620.421 16496.126 13781.106 5107.654 13749.072 13035.301 4824.982 3865.831 15321.358 2228.410
11188.839 12377.848 0.000 2941.346 11515.818 22984.626 27667.534 10642.781 10387.650 11501.694 13328.195 11494.250 11362.523 5793.987 9710.096 22683.273 3866.302 5341.902 9222.482 8281.896 9039.338 12290.237 27269.301 13764.124 8071.307 11361.228 27048.570 12732.619 12094.731 12774.811 12653.811 22918.151 11697.944 2254.706 24057.690 12984.264 11826.106 10705.177 25925.328 11143.084 24901.445 9771.455 10816.050 23599.459 8089.121 3874.686 11112.403 12648.277 20953.850 13282.870 28696.245 9821.206 8763.533 27126.814 8355.853 8364.014 25018.457 11385.869 12096.075 7740.371 23183.320 22533.042 7826.755 8609.586 9122.382 24991.252 9368.090 10803.780 3389.980 7056.797 8854.170 24846.210 9884.935 3861.439 9576.704 25493.982 8511.448 9722.969 10369.621 3501.499 2439.500 8073.539 4015.465 10831.276 9867.066 11171.558 6598.073 10087.729 10453.437 10620.072 24164.340 6939.323 27786.223 23746.826 11976.142 23780.745 21763.822 9250.839 8561.426 25968.883 10159.961
8383.336 9880.571 2941.346 0.000 8680.558 20044.074 24778.603 7732.637 7529.964 8637.313 10468.403 8617.545 8782.716 2874.316 7882.137 19742.234 2754.636 2568.603 6394.831 5564.529 6171.217 9822.000 24383.784 11062.859 5148.421 8420.775 24452.880 9889.025 9559.141 9917.067 9842.044 19976.986 8830.228 4393.438 21143.199 10095.107 9006.352 8080.599 22987.949 8246.170 21975.477 7188.547 7950.611 20658.126 6040.456 3942.167 8316.588 9805.720 18075.699 10643.173 25897.939 7529.490 5824.353 24367.031 6119.982 7441.216 22087.941 8469.212 9654.150 4801.701 21591.390 19597.038 4987.262 6115.608 6249.038 22054.618 6472.358 8184.713 4658.250 4861.146 6804.702 23021.515 7756.701 2699.478 6686.291 22803.570 5811.924 6781.794 7836.325 648.815 4702.284 5478.421 2308.641 7949.884 7422.503 8593.375 3657.152 7199.359 7861.279 8053.037 22538.687 4372.649 24892.972 22161.809 9044.063 22178.331 20456.312 6354.709 6246.347 24219.286 7726.715
470.156 3182.427 11515.818 8680.558 0.000 12190.553 16180.653 1487.897 1175.364 401.566 1837.266 593.526 2309.786 5847.291 5942.356 11853.315 8483.245 7150.384 2293.427 3338.678 2526.257 3332.388 15777.002 2774.626 3711.761 2422.889 16054.194 1218.871 2806.273 1289.484 1189.451 12065.020 484.620 13030.263 12665.881 1680.970 373.003 2041.464 14755.441 1016.782 13584.633 2649.187 820.401 12690.413 5334.318 9870.562 595.990 1133.987 11495.220 2766.163 17219.707 4017.642 3818.768 15712.527 4657.927 12379.848 13747.579 1393.894 3421.275 4533.366 16300.502 11955.396 3695.870 3680.665 2459.556 13815.525 2328.928 2056.740 12961.682 8378.999 5144.804 16870.970 4734.881 8438.120 2103.474 14240.954 3163.523 2968.038 2686.863 8289.384 13350.070 3783.006 7908.174 958.873 3289.209 2308.756 5278.135 1629.287 2316.985 2430.514 17060.779 7169.013 16307.789 16845.179 1978.323 16803.976 16208.558 2439.439 4308.458 18233.389 3275.992
12641.536 13618.525 22984.626 20044.074 12190.553 0.000 6885.169 12550.374 13064.091 12024.125 10460.914 11953.729 13731.720 17234.935 17621.837 354.858 20515.525 17794.039 14242.911 15424.758 14256.122 13831.223 6699.542 11448.929 14989.839 11644.047 12648.933 11096.355 13544.667 10951.403 11398.311 268.613 11827.242 23975.600 3648.072 10511.808 12023.348 13938.663 3408.243 12153.439 3406.330 14762.542 12635.711 756.859 17462.348 21987.411 12758.893 11175.325 4262.427 12204.162 9951.120 15869.944 14221.746 9756.221 16800.420 20232.775 3186.309 11797.542 14073.598 15245.082 21448.426 906.098 15470.078 15866.085 14158.804 2691.460 13837.231 13897.795 23421.587 17384.958 17142.846 20355.371 16464.381 20463.151 13662.132 10256.761 15291.911 13269.583 14576.102 19496.457 24307.081 15944.660 19868.838 12533.851 15250.790 13859.668 16392.005 13190.169 14259.763 14264.933 21698.698 16714.352 6838.560 21802.938 11110.714 21680.478 22845.068 13947.213 16451.204 21659.951 15127.732
16544.735 16332.051 27667.534 24778.603 16180.653 6885.169 0.000 17050.593 17284.692 16169.514 14350.804 16173.352 16921.775 21905.487 20375.571 6926.392 24600.918 22867.327 18463.891 19499.615 18628.383 16510.752 426.867 14355.573 19641.655 16543.460 7785.555 14962.435 16430.504 14904.278 15093.526 6721.233 15972.024 29021.506 3851.720 14685.250 15894.755 17389.896 3888.530 16532.477 3516.091 18332.526 16853.707 6165.071 20835.142 25878.139 16635.156 15047.563 11142.378 15022.954 3482.622 19001.544 19183.945 4280.150 20256.321 26323.310 3698.887 16325.120 16762.405 20167.206 19448.119 7786.926 19845.880 19543.760 18545.160 4249.832 18306.942 17314.072 28716.649 23039.183 20309.117 17602.793 19403.638 24561.007 18094.854 6057.460 19301.609 18158.905 17919.180 24322.607 29349.750 19859.797 24066.220 16836.571 18571.967 17094.853 21188.455 17582.547 17697.464 17612.376 19375.447 22159.904 239.641 19643.364 15818.096 19493.173 21504.495 18424.540 19933.271 18676.581 18357.379
1607.374 4525.318 10642.781 7732.637 1487.897 12550.374 17050.593 0.000 866.092 1186.583 2867.939 1061.553 3478.315 4858.326 6567.014 12228.515 7968.142 5932.582 1771.381 2979.354 1707.897 4646.234 16658.199 4243.795 2591.485 1339.917 17377.668 2409.232 4126.137 2355.463 2566.788 12453.426 1313.953 11988.896 13414.975 2392.884 1848.136 2956.704 15333.493 571.414 14265.964 3142.093 775.970 13111.497 5535.406 9464.318 1671.767 2340.290 11336.186 4251.215 18303.786 4665.901 2404.033 16863.799 4866.390 10918.848 14393.162 755.500 4689.610 3235.506 17727.103 12212.890 2921.518 3793.908 1609.530 14395.020 1293.727 3019.145 11800.520 6940.733 5553.325 18345.585 5412.101 7914.900 1111.764 15489.589 2912.929 1488.598 3479.683 7272.969 12314.961 3592.946 7318.876 556.325 3914.973 3413.329 4151.058 669.320 3125.146 3319.940 18502.480 5756.818 17162.627 18275.774 1471.454 18238.214 17548.674 1407.574 4541.180 19704.006 4012.765
1029.058 3809.436 10387.650 7529.964 1175.364 13064.091 17284.692 866.092 0.000 1115.240 2941.342 1131.061 2696.868 4683.098 5708.366 12734.452 7481.391 5978.590 1197.324 2360.818 1360.521 3909.585 16884.506 3876.209 2538.272 2197.915 17220.957 2361.541 3402.487 2388.587 2364.336 12953.501 1313.677 11866.336 13722.881 2631.489 1533.234 2119.963 15741.307 948.948 14614.926 2280.647 437.180 13596.924 4746.073 8925.350 1036.116 2279.111 12052.017 3743.980 18380.489 3801.777 2757.787 16882.980 4069.823 11328.610 14762.685 1406.376 3927.445 3388.518 17036.950 12772.271 2561.572 3009.515 1288.692 14801.020 1162.357 2190.458 11786.528 7303.286 4719.358 17741.258 4547.972 7432.419 939.126 15416.144 2240.161 2055.611 2618.761 7125.623 12187.284 2910.500 6871.645 545.830 3050.061 2611.533 4102.809 529.538 2269.105 2471.601 17831.720 6071.218 17406.829 17590.125 2179.318 17557.309 16784.800 1269.512 3735.629 19087.393 3147.076
797.076 3582.526 11501.694 8637.313 401.566 12024.125 16169.514 1186.583 1115.240 0.000 1831.161 192.016 2703.124 5781.370 6273.359 11690.434 8568.412 7006.220 2304.237 3425.500 2466.516 3733.622 15769.481 3061.470 3586.540 2024.598 16232.054 1280.002 3207.596 1281.248 1383.765 11905.887 201.198 12960.791 12612.022 1533.416 694.011 2394.121 14651.561 657.296 13510.481 2926.599 686.755 12540.736 5579.110 9988.206 919.041 1202.309 11210.784 3115.376 17287.960 4343.386 3574.796 15807.928 4899.457 12105.427 13662.721 995.211 3822.707 4348.131 16681.277 11762.848 3676.490 3890.065 2388.472 13711.205 2200.471 2418.234 12847.100 8123.651 5431.769 17226.629 5070.089 8520.946 1976.618 14379.920 3274.560 2674.378 3026.426 8222.227 13283.096 3920.800 7971.137 727.275 3604.123 2694.763 5162.255 1471.749 2653.958 2784.343 17436.141 6931.024 16291.591 17224.605 1587.235 17182.164 16605.193 2316.109 4552.216 18592.449 3611.782
2238.985 3728.499 13328.195 10468.403 1837.266 10460.914 14350.804 2867.939 2941.342 1831.161 0.000 1864.661 3402.369 7611.622 7314.322 10118.114 10317.237 8793.559 4113.177 5175.228 4297.340 3934.464 13948.782 2123.123 5400.240 3028.964 14543.923 642.313 3486.153 553.663 963.524 10322.841 1640.093 14788.659 10829.313 657.387 1592.217 3491.927 12941.734 2301.127 11753.416 4302.650 2517.799 10931.783 7001.446 11689.685 2345.092 725.310 10125.802 2612.247 15464.667 5466.184 5246.840 14002.431 6340.447 13612.532 11921.424 2279.868 4121.281 6103.193 16032.697 10279.925 5501.445 5430.791 4219.633 12002.691 4021.025 3460.214 14652.386 9710.994 6705.119 16308.303 6116.222 10272.694 3799.523 12625.635 4995.559 4259.980 4141.715 10051.559 15111.540 5601.125 9745.396 2533.698 4808.623 3495.728 6975.886 3288.808 3810.344 3837.186 16714.790 8571.045 14475.906 16555.017 2222.098 16496.882 16250.158 4137.805 5991.634 17697.781 4712.463
971.261 3774.304 11494.250 8617.545 593.526 11953.729 16173.352 1061.553 1131.061 192.016 1864.661 0.000 2890.947 5753.880 6431.375 11621.905 8609.981 6939.100 2328.386 3477.283 2455.061 3925.630 15775.137 3210.865 3535.725 1833.875 16324.872 1356.139 3399.611 1326.552 1510.061 11839.130 252.473 12926.276 12596.333 1501.780 873.303 2565.441 14611.034 504.237 13484.693 3065.217 693.956 12478.422 5698.117 10044.290 1089.777 1283.969 11081.478 3289.004 17329.312 4500.350 3463.795 15862.362 5017.860 11972.590 13631.701 804.701 4014.458 4264.910 16865.366 11679.603 3677.058 3995.983 2372.173 13670.717 2157.269 2593.075 12790.971 8001.359 5570.191 17399.894 5230.701 8561.440 1936.968 14455.052 3338.193 2540.202 3191.127 8191.286 13249.676 3994.149 8002.651 669.834 3757.275 2879.422 5111.577 1424.968 2818.307 2955.429 17617.921 6818.000 16292.981 17408.116 1404.030 17365.151 16795.714 2274.322 4672.180 18767.153 3774.002
1945.384 1209.822 11362.523 8782.716 2309.786 13731.720 16921.775 3478.315 2696.868 2703.124 3402.369 2890.947 0.000 6242.300 3921.066 13382.670 7853.094 7885.426 2986.218 3282.258 3438.116 1254.458 16503.180 2567.351 4654.480 4665.935 15694.080 2845.166 819.403 3049.480 2442.816 13575.399 2786.500 13163.812 13671.507 3636.077 2180.710 750.690 15981.362 3207.529 14678.515 1597.493 2711.998 14151.559 3917.638 9000.074 1846.996 2787.717 13516.658 1954.318 17511.298 2152.900 5291.426 15863.383 3337.565 13719.648 14892.032 3659.058 1235.635 5662.732 14377.583 13611.785 4123.379 2764.461 3439.746 15053.339 3574.889 642.414 13356.740 9679.748 3457.010 15190.644 2737.577 7823.651 3410.610 14150.150 3021.277 4734.970 1018.783 8543.460 13463.535 3310.035 7434.939 2945.999 1650.548 190.979 5988.729 3195.988 921.576 743.109 15191.609 8411.962 17074.446 14934.648 4287.990 14906.632 14088.032 3635.209 3023.040 16515.552 1446.104
5580.234 7412.590 5793.987 2874.316 5847.291 17234.935 21905.487 4858.326 4683.098 5781.370 7611.622 5753.880 6242.300 0.000 6406.851 16927.233 3792.045 1810.373 3589.701 2962.182 3322.981 7391.366 21511.327 8342.487 2277.489 5591.518 21769.121 7044.480 7052.669 7062.600 7023.528 17159.624 5971.611 7183.482 18270.227 7224.254 6185.136 5503.106 20136.301 5373.821 19107.891 4706.047 5095.919 17835.235 4506.885 5390.884 5524.161 6962.192 15464.347 7993.304 23063.582 5450.637 3083.577 21558.075 4282.149 8075.026 19224.554 5595.976 7261.413 2102.938 19889.712 16816.912 2197.411 3854.678 3395.390 19201.175 3602.134 5611.262 7173.225 4338.999 5152.638 21070.932 5889.044 3725.154 3818.458 20046.893 3224.272 3970.567 5393.375 2442.569 7504.189 3109.817 3045.707 5084.723 5129.836 6060.794 921.239 4331.680 5335.453 5554.206 20791.908 3224.224 22019.224 20460.202 6183.663 20459.012 19059.635 3484.479 4264.150 22332.395 5431.145
5484.020 4097.853 9710.096 7882.137 5942.356 17621.837 20375.571 6567.014 5708.366 6273.359 7314.322 6431.375 3921.066 6406.851 0.000 17270.895 5844.498 8203.547 5107.819 4306.328 5496.899 3901.480 19950.657 6235.630 6172.502 7905.356 18052.881 6732.365 4098.286 6924.205 6351.101 17458.281 6417.834 11845.179 17338.776 7485.944 5943.198 3910.062 19746.345 6559.534 18384.995 3428.411 5967.892 18018.620 1915.347 6398.863 5358.856 6667.533 17393.216 5494.851 20565.626 1931.271 7299.419 18808.371 2189.797 14478.266 18623.532 7048.940 3648.078 7099.248 13710.848 17523.874 5217.124 3069.368 5569.153 18829.555 5908.164 3911.824 12464.807 10685.339 1278.278 15186.097 1209.981 5848.684 5881.562 16881.397 4160.860 7262.189 3256.370 7941.394 12091.151 3716.152 5793.896 6184.569 2680.015 3818.686 6719.387 6001.006 3625.371 3528.607 14656.551 9476.471 20545.701 14281.545 7793.003 14296.826 12689.355 5888.734 2346.067 16356.402 2666.567
12303.102 13265.165 22683.273 19742.234 11853.315 354.858 6926.392 12228.515 12734.452 11690.434 10118.114 11621.905 13382.670 16927.233 17270.895 0.000 20191.306 17505.321 13915.297 15094.766 13933.194 13477.776 6721.062 11095.395 14678.105 11335.731 12489.800 10754.354 13192.443 10610.921 11053.652 245.502 11493.138 23691.596 3549.449 10175.522 11683.164 13593.472 3577.585 11826.750 3419.613 14420.330 12305.198 949.319 17119.297 21659.000 12420.059 10833.600 4267.293 11850.611 9918.784 15522.021 13922.004 9657.680 16458.236 20019.939 3236.801 11474.956 13720.326 14945.277 21145.528 977.489 15149.169 15527.208 13836.171 2800.756 13516.830 13552.011 23150.661 17131.343 16796.360 20076.997 16114.622 20139.249 13340.160 10085.987 14960.018 12964.599 14229.937 19198.001 24023.160 15611.219 19547.387 12205.606 14904.960 13511.300 16088.373 12865.994 13914.719 13918.513 21404.596 16445.466 6891.846 21503.949 10792.996 21382.457 22524.127 13627.271 16109.162 21387.040 14780.481
8084.546 8758.257 3866.302 2754.636 8483.245 20515.525 24600.918 7968.142 7481.391 8568.412 10317.237 8609.981 7853.094 3792.045 5844.498 20191.306 0.000 4679.234 6287.723 5147.225 6260.614 8646.180 24190.402 10370.531 5689.764 8992.743 23419.137 9684.506 8518.284 9772.626 9515.865 20414.200 8769.521 6035.102 21144.985 10101.559 8736.490 7274.518 23219.598 8367.857 22067.636 6320.191 7917.066 21065.838 4284.852 1600.730 7986.194 9599.434 19081.125 9806.703 25356.134 6096.735 6750.608 23716.474 4639.401 10192.678 22227.314 8718.960 8433.338 5846.093 19372.417 20178.422 5059.287 5106.834 6358.630 22279.237 6690.229 7362.050 6814.702 7323.112 5034.765 20989.419 6077.919 68.652 6857.035 21980.488 5321.847 7488.500 6835.426 3194.693 6266.165 4741.471 747.012 7996.875 6258.848 7665.414 4702.103 7325.408 6987.626 7117.044 20345.480 6548.107 24737.939 19938.551 9423.572 19967.657 18053.470 6583.842 4892.443 22124.196 6532.553
6961.861 9079.851 5341.902 2568.603 7150.384 17794.039 22867.327 5932.582 5978.590 7006.220 8793.559 6939.100 7885.426 1810.373 8203.547 17505.321 4679.234 0.000 5038.962 4652.739 4676.928 9076.592 22485.397 9801.204 3440.951 6330.388 23197.333 8285.730 8703.914 8264.970 8339.343 17744.396 7178.823 6201.184 19145.648 8318.745 7511.795 7136.038 20843.726 6493.747 19916.933 6407.291 6346.525 18435.870 6295.335 6167.973 6927.755 8208.527 15617.229 9530.675 24231.738 7246.608 3683.669 22795.201 6091.601 6275.013 20001.145 6603.477 8964.118 2712.852 21694.541 17297.559 3762.225 5639.058 4724.601 19920.061 4821.845 7244.734 5874.508 2716.103 6956.802 22847.337 7698.364 4611.384 5047.504 21384.558 4912.993 4708.722 7099.421 1922.979 6532.651 4885.274 3982.433 6280.543 6889.861 7711.427 1913.301 5537.827 7002.597 7231.632 22593.172 1881.601 22966.342 22264.809 7051.870 22262.460 20867.762 4710.951 6073.304 24117.527 7186.692
1992.631 4193.809 9222.482 6394.831 2293.427 14242.911 18463.891 1771.381 1197.324 2304.237 4113.177 2328.386 2986.218 3589.701 5107.819 13915.297 6287.723 5038.962 0.000 1209.207 465.938 4236.293 18061.948 4775.900 1677.739 3028.081 18198.558 3510.388 3793.568 3559.631 3447.272 14135.919 2504.649 10759.751 14916.239 3828.274 2611.761 2253.020 16937.883 2090.868 15811.532 1884.796 1634.474 14782.924 3846.030 7744.847 1934.459 3425.937 13107.103 4494.208 19503.278 3332.780 2395.692 17978.132 3199.260 10734.263 15959.948 2484.481 4181.838 2676.841 17298.317 13935.437 1407.773 2128.925 498.855 15997.631 800.889 2356.028 10750.235 6693.727 3974.710 18173.256 4051.068 6238.126 794.176 16457.507 1150.310 2156.940 2475.827 6023.210 11077.143 1827.552 5674.416 1710.500 2645.538 2838.172 3126.919 1102.163 2232.186 2474.094 18133.139 5426.785 18588.330 17859.810 3236.671 17837.597 16856.983 792.902 2900.183 19493.073 2846.672
2955.148 4451.168 8281.896 5564.529 3338.678 15424.758 19499.615 2979.354 2360.818 3425.500 5175.228 3477.283 3282.258 2962.182 4306.328 15094.766 5147.225 4652.739 1209.207 0.000 1383.508 4434.538 19093.090 5502.539 1876.474 4208.218 18892.330 4547.394 4090.706 4628.019 4409.761 15313.352 3626.244 9957.967 16004.446 4958.733 3606.141 2548.892 18076.041 3286.524 16921.090 1755.179 2789.889 15954.955 2790.762 6567.097 2865.003 4462.142 14312.779 5084.045 20416.925 2793.776 2999.417 18846.435 2204.741 10704.235 17080.109 3692.205 4313.753 2852.341 17175.629 15130.173 985.404 1244.700 1480.007 17135.715 1860.738 2656.264 10086.886 6720.346 3074.039 18225.008 3414.103 5101.163 1941.563 17245.722 262.336 3115.153 2447.032 5281.482 10265.947 670.145 4571.622 2895.723 2288.261 3099.540 2809.032 2310.077 2373.274 2593.307 18047.873 5455.881 19630.641 17743.042 4445.875 17731.835 16546.352 1794.630 1970.489 19511.544 2570.323
2290.442 4642.778 9039.338 6171.217 2526.257 14256.122 18628.383 1707.897 1360.521 2466.516 4297.340 2455.061 3438.116 3322.981 5496.899 13933.194 6260.614 4676.928 465.938 1383.508 0.000 4690.681 18229.964 5124.643 1261.047 2847.709 18528.150 3722.045 4240.179 3745.852 3708.448 14157.266 2660.682 10506.437 15042.146 3949.745 2870.686 2711.071 17012.119 2132.242 15916.924 2341.024 1779.768 14812.853 4140.148 7758.731 2251.592 3639.527 12981.630 4884.535 19740.697 3762.597 1932.941 18238.783 3516.620 10288.801 16054.589 2458.628 4641.285 2233.696 17763.032 13920.631 1231.110 2466.851 101.149 16072.631 478.768 2812.793 10444.425 6247.020 4330.601 18628.289 4470.008 6207.625 600.152 16753.833 1408.669 1776.194 2941.029 5765.549 10827.117 2048.158 5615.948 1795.371 3091.505 3294.185 2776.409 1072.881 2697.456 2939.178 18596.525 4983.160 18747.981 18324.315 3171.353 18301.757 17321.295 413.722 3237.904 19950.456 3301.643
3054.205 215.808 12290.237 9822.000 3332.388 13831.223 16510.752 4646.234 3909.585 3733.622 3934.464 3925.630 1254.458 7391.366 3901.480 13477.776 8646.180 9076.592 4236.293 4434.538 4690.681 0.000 16087.237 2382.586 5898.215 5751.465 14778.974 3508.740 526.426 3730.407 3064.637 13655.621 3772.484 14172.901 13437.315 4332.929 3107.397 1985.840 15856.158 4309.169 14485.250 2685.612 3870.563 14192.995 4470.752 9655.212 2977.185 3475.486 13993.873 1627.671 16868.783 2589.070 6543.766 15165.842 4011.699 14965.769 14726.830 4724.620 253.524 6911.003 13134.863 13793.170 5323.566 3710.904 4693.648 14943.428 4827.277 1881.085 14439.955 10927.593 3848.077 13937.624 2895.719 8624.232 4659.409 13357.399 4172.349 5961.462 2003.260 9627.212 14464.463 4357.567 8303.030 4097.645 2423.924 1398.739 7194.693 4421.801 2075.822 1844.961 13942.659 9658.457 16676.093 13690.393 5272.691 13660.657 12904.204 4888.967 3755.858 15261.283 2130.594
16138.584 15908.947 27269.301 24383.784 15777.002 6699.542 426.867 16658.199 16884.506 15769.481 13948.782 15775.137 16503.180 21511.327 19950.657 6721.062 24190.402 22485.397 18061.948 19093.090 18229.964 16087.237 0.000 13936.602 19249.585 16164.740 7557.609 14558.474 16008.915 14502.373 14685.766 6523.773 15572.361 28633.907 3534.960 14289.194 15489.059 16974.440 3842.460 16137.709 3301.468 17917.898 16454.188 5994.820 20415.706 25463.405 16228.301 14643.552 10961.916 14602.103 3455.319 18580.512 18802.594 4065.933 19838.351 25990.792 3521.942 15934.947 16338.790 19783.058 19099.008 7604.737 19445.971 19129.697 18147.224 4111.942 17911.585 16898.177 28338.704 22682.608 19887.642 17282.932 18980.506 24150.761 17698.818 5747.556 18893.938 17776.682 17501.612 23930.946 28961.852 19449.659 23658.336 16439.219 18153.517 16676.662 20798.902 17186.253 17281.469 17195.171 19039.747 21794.049 630.336 19301.178 15434.584 19151.852 21134.834 18029.215 19515.900 18371.182 17937.954
2855.642 2170.731 13764.124 11062.859 2774.626 11448.929 14355.573 4243.795 3876.209 3061.470 2123.123 3210.865 2567.351 8342.487 6235.630 11095.395 10370.531 9801.204 4775.900 5502.539 5124.643 2382.586 13936.602 0.000 6373.764 4876.941 13427.139 2063.455 2141.148 2246.127 1729.969 11273.036 2966.338 15455.068 11146.253 2731.771 2403.622 3096.691 13514.483 3713.112 12172.761 4050.858 3586.590 11811.990 6480.103 11558.518 2877.878 2090.846 11757.572 755.253 14988.359 4665.926 6591.322 13373.870 5904.654 15154.105 12401.024 3929.329 2626.778 7263.676 13925.303 11419.741 6145.278 5263.867 5080.188 12595.420 5031.544 3008.503 15515.139 11152.085 5979.070 14281.087 5142.670 10337.610 4812.042 11743.189 5262.122 5732.110 3573.840 10748.281 15765.139 5701.641 9911.847 3732.516 4217.881 2743.469 7895.489 4377.599 3384.737 3273.586 14622.463 9935.696 14509.325 14451.706 4155.910 14396.549 14130.802 5132.657 5587.243 15661.939 4002.610
3524.970 5864.021 8071.307 5148.421 3711.761 14989.839 19641.655 2591.485 2538.272 3586.540 5400.240 3535.725 4654.480 2277.489 6172.502 14678.105 5689.764 3440.951 1677.739 1876.474 1261.047 5898.215 19249.585 6373.764 0.000 3354.129 19756.625 4865.542 5466.465 4860.083 4901.193 14908.682 3766.956 9401.895 15994.827 4975.195 4071.458 3912.494 17863.640 3124.076 16830.402 3390.291 2915.266 15580.127 4546.522 7261.953 3496.059 4786.359 13391.375 6145.528 20864.492 4642.525 1228.289 19394.254 4027.607 9067.713 16947.610 3321.444 5830.344 1026.555 18896.385 14594.260 983.687 3120.804 1295.521 16927.779 1387.718 4017.924 9260.811 5031.812 4922.604 19826.770 5285.891 5629.509 1613.093 17951.493 2062.291 1798.746 4048.930 4681.484 9727.116 2464.299 4983.570 2868.048 4063.599 4499.906 1576.156 2115.119 3855.207 4097.110 19746.097 3761.155 19752.976 19460.575 3910.008 19442.677 18360.049 1274.141 3827.618 21139.033 4315.911
2722.257 5604.848 11361.228 8420.775 2422.889 11644.047 16543.460 1339.917 2197.915 2024.598 3028.964 1833.875 4665.935 5591.518 7905.356 11335.731 8992.743 6330.388 3028.081 4208.218 2847.709 5751.465 16164.740 4876.941 3354.129 0.000 17470.644 2827.232 5225.040 2675.178 3153.266 11568.135 2021.214 12515.828 12815.628 2392.652 2695.073 4224.804 14571.855 1458.465 13598.627 4478.435 1995.842 12244.510 6850.379 10534.388 2819.087 2790.472 10142.285 5067.701 18031.501 5998.983 2649.973 16686.821 6187.084 10623.270 13693.925 1029.392 5829.454 3657.134 18676.856 11240.239 3953.700 5111.788 2747.011 13640.660 2373.751 4275.550 12173.998 6801.874 6890.139 19148.741 6745.074 8935.339 2267.061 15463.584 4177.638 1643.284 4784.357 7898.042 12846.299 4851.452 8307.171 1762.307 5246.538 4628.201 4763.732 1957.724 4421.496 4601.586 19417.265 5743.291 16639.649 19216.613 829.785 19170.962 18629.586 2463.193 5867.216 20524.426 5332.114
16238.244 14678.938 27048.570 24452.880 16054.194 12648.933 7785.555 17377.668 17220.957 16232.054 14543.923 16324.872 15694.080 21769.121 18052.881 12489.800 23419.137 23197.333 18198.558 18892.330 18528.150 14778.974 7557.609 13427.139 19756.625 17470.644 0.000 14969.690 14953.920 15027.215 14869.399 12395.150 16075.646 28844.326 9057.418 15120.690 15688.970 16376.868 10957.018 16806.479 9721.048 17290.745 16867.468 12171.062 19179.891 24336.390 16277.927 15040.905 16507.807 13809.781 4917.794 17326.761 19778.528 3506.819 18779.745 28084.448 10103.842 16823.518 14987.000 20578.528 12542.664 13465.219 19572.212 18439.046 18475.857 10790.560 18381.566 16274.240 28942.147 24247.275 18478.862 10305.043 17439.531 23398.972 18156.584 2434.542 18642.177 18803.366 16679.437 24165.171 29148.229 19001.266 23079.389 16957.784 17192.328 15884.926 21304.547 17679.650 16610.522 16434.314 12252.968 23114.661 8015.262 12614.926 16641.426 12454.459 14960.895 18490.306 18534.128 11204.257 16905.908
1601.267 3313.271 12732.619 9889.025 1218.871 11096.355 14962.435 2409.232 2361.541 1280.002 642.313 1356.139 2845.166 7044.480 6732.365 10754.354 9684.506 8285.730 3510.388 4547.394 3722.045 3508.740 14558.474 2063.455 4865.542 2827.232 14969.690 0.000 3027.557 222.377 445.339 10960.156 1109.548 14227.394 11460.496 824.262 951.653 2874.937 13583.271 1839.058 12390.238 3666.218 1954.168 11571.337 6367.408 11050.275 1705.019 85.268 10673.284 2378.290 16019.292 4862.829 4812.893 14530.284 5704.069 13279.669 12560.479 1934.576 3672.953 5619.979 15960.968 10905.402 4909.064 4788.830 3649.292 12644.349 3478.483 2849.503 14126.348 9332.580 6086.159 16344.301 5528.276 9640.554 3253.878 13102.127 4362.840 3863.390 3529.847 9486.915 14548.596 4962.661 9118.966 2005.275 4190.685 2922.032 6440.721 2751.445 3190.384 3230.191 16671.959 8162.372 15090.192 16491.979 2092.479 16439.810 16071.522 3593.489 5354.865 17725.394 4107.387
2530.204 408.797 12094.731 9559.141 2806.273 13544.667 16430.504 4126.137 3402.487 3207.596 3486.153 3399.611 819.403 7052.669 4098.286 13192.443 8518.284 8703.914 3793.568 4090.706 4240.179 526.426 16008.915 2141.148 5466.465 5225.040 14953.920 3027.557 0.000 3247.670 2586.974 13375.790 3248.465 13930.771 13278.681 3850.987 2585.833 1570.086 15655.594 3783.299 14310.823 2374.128 3350.189 13927.730 4438.535 9596.477 2455.398 2989.341 13585.783 1416.873 16897.570 2575.224 6065.670 15221.501 3920.696 14527.519 14541.282 4198.255 646.576 6470.093 13634.981 13478.017 4942.143 3485.662 4237.085 14736.143 4351.310 1461.742 14150.475 10486.358 3878.799 14397.617 3004.973 8492.505 4176.354 13462.249 3828.894 5457.282 1729.004 9335.682 14227.392 4080.722 8135.852 3575.929 2259.508 993.479 6808.071 3919.477 1718.344 1509.695 14434.882 9220.268 16590.316 14188.840 4750.727 14157.118 13427.343 4417.914 3635.071 15728.916 1993.654
1706.717 3535.326 12774.811 9917.067 1289.484 10951.403 14904.278 2355.463 2388.587 1281.248 553.663 1326.552 3049.480 7062.600 6924.205 10610.921 9772.626 8264.970 3559.631 4628.019 3745.852 3730.407 14502.373 2246.127 4860.083 2675.178 15027.215 222.377 3247.670 0.000 667.704 10818.816 1093.863 14241.754 11376.914 603.322 1072.629 3050.527 13472.702 1784.461 12295.532 3816.876 1967.096 11435.348 6520.075 11154.249 1817.970 262.659 10474.582 2589.948 16008.158 5045.068 4751.566 14535.994 5852.923 13180.231 12459.883 1825.726 3893.387 5584.314 16158.180 10747.285 4948.060 4919.731 3669.025 12533.114 3477.363 3029.893 14117.289 9249.732 6256.330 16521.721 5718.123 9727.573 3254.729 13135.643 4452.176 3783.671 3708.082 9503.444 14564.192 5065.130 9196.552 1992.043 4363.295 3120.812 6436.223 2745.898 3362.761 3412.266 16864.428 8091.846 15029.126 16687.836 1917.286 16634.675 16283.252 3593.706 5503.160 17904.700 4289.352
1465.029 2868.404 12653.811 9842.044 1189.451 11398.311 15093.526 2566.788 2364.336 1383.765 963.524 1510.061 2442.816 7023.528 6351.101 11053.652 9515.865 8339.343 3447.272 4409.761 3708.448 3064.637 14685.766 1729.969 4901.193 3153.266 14869.399 445.339 2586.974 667.704 0.000 11255.327 1259.036 14203.354 11644.030 1268.571 838.436 2541.341 13817.637 2013.859 12594.617 3383.716 1998.073 11855.889 6070.251 10847.618 1546.066 424.395 11076.333 1963.816 16056.518 4505.153 4958.165 14534.785 5416.633 13482.602 12776.167 2200.200 3231.468 5711.267 15570.820 11232.444 4855.014 4543.192 3644.712 12880.586 3517.544 2504.721 14149.285 9506.775 5752.172 15995.940 5152.700 9474.225 3291.937 13051.827 4208.174 4050.078 3185.781 9463.732 14521.847 4776.710 8972.701 2098.013 3856.394 2532.748 6467.052 2810.253 2861.864 2878.871 16291.782 8314.397 15226.937 16104.639 2463.421 16054.585 15650.233 3628.552 5069.657 17372.798 3752.446
12513.373 13443.492 22918.151 19976.986 12065.020 268.613 6721.233 12453.426 12953.501 11905.887 10322.841 11839.130 13575.399 17159.624 17458.281 245.502 20414.200 17744.396 14135.919 15313.352 14157.266 13655.621 6523.773 11273.036 14908.682 11568.135 12395.150 10960.156 13375.790 10818.816 11255.327 0.000 11708.203 23931.769 3411.969 10388.479 11891.321 13793.980 3335.967 12048.256 3223.598 14625.471 12523.532 703.932 17323.032 21878.644 12629.837 11039.782 4447.013 12028.060 9747.018 15717.137 14157.729 9522.563 16663.288 20264.715 3025.726 11699.445 13899.063 15180.936 21186.320 1110.934 15374.513 15736.697 14060.450 2570.572 13742.593 13751.475 23393.429 17376.157 16994.299 20088.099 16305.385 20362.370 13564.915 9999.709 15176.921 13198.339 14428.649 19434.014 24263.350 15826.619 19772.199 12425.853 15104.235 13705.596 16322.526 13089.269 14115.452 14116.772 21434.172 16688.626 6682.120 21539.663 11020.609 21416.940 22590.715 13853.317 16314.439 21392.097 14977.047
934.004 3613.302 11697.944 8830.228 484.620 11827.242 15972.024 1313.953 1313.677 201.198 1640.093 252.473 2786.500 5971.611 6417.834 11493.138 8769.521 7178.823 2504.649 3626.244 2660.682 3772.484 15572.361 2966.338 3766.956 2021.214 16075.646 1109.548 3248.465 1093.863 1259.036 11708.203 0.000 13148.926 12411.609 1332.513 675.947 2523.005 14450.542 754.918 13309.410 3093.979 881.901 12342.172 5758.504 10188.209 1059.630 1035.546 11041.722 3066.439 17101.940 4490.378 3715.606 15627.778 5079.474 12224.079 13461.529 1002.568 3873.695 4510.494 16659.806 11569.547 3873.876 4077.106 2581.250 13510.189 2383.511 2540.318 13025.816 8253.813 5597.210 17173.870 5211.781 8722.086 2160.912 14211.269 3474.079 2791.976 3164.592 8411.482 13471.646 4118.466 8172.279 899.622 3756.401 2790.676 5343.103 1652.243 2793.430 2912.607 17406.672 7070.156 16093.625 17201.011 1508.250 17156.739 16616.757 2499.844 4731.464 18543.114 3752.618
12752.229 14241.443 2254.706 4393.438 13030.263 23975.600 29021.506 11988.896 11866.336 12960.791 14788.659 12926.276 13163.812 7183.482 11845.179 23691.596 6035.102 6201.184 10759.751 9957.967 10506.437 14172.901 28633.907 15455.068 9401.895 12515.828 28844.326 14227.394 13930.771 14241.754 14203.354 23931.769 13148.926 0.000 25327.255 14376.982 13365.390 12468.866 27044.484 12525.924 26112.388 11567.019 12276.700 24625.606 10144.390 6126.029 12690.128 14145.292 21602.127 15035.219 30246.686 11792.063 9866.090 28737.539 10341.563 7234.701 26200.270 12701.695 13994.856 8864.253 25399.817 23456.802 9353.634 10462.409 10578.109 26121.194 10769.146 12572.272 1497.419 7096.305 10916.307 27018.338 11926.071 6021.336 10989.522 27193.581 10205.087 10880.236 12203.246 4740.974 331.662 9854.336 6065.888 12256.448 11756.486 12973.783 7838.804 11501.357 12243.334 12429.735 26376.216 7378.712 29126.704 25964.815 13209.978 25996.075 24010.438 10651.987 10512.629 28158.894 12057.389
13060.667 13241.961 24057.690 21143.199 12665.881 3648.072 3851.720 13414.975 13722.881 12612.022 10829.313 12596.333 13671.507 18270.227 17338.776 3549.449 21144.985 19145.648 14916.239 16004.446 15042.146 13437.315 3534.960 11146.253 15994.827 12815.628 9057.418 11460.496 13278.681 11376.914 11644.030 3411.969 12411.609 25327.255 0.000 11095.247 12408.928 14059.684 2694.984 12919.971 1128.895 14977.962 13286.845 3116.401 17578.364 22491.245 13160.387 11545.586 7785.855 11863.096 6439.959 15805.841 15464.936 6110.733 16964.452 22472.894 1483.570 12674.253 13690.699 16463.005 18801.480 4518.226 16270.493 16170.354 14954.401 2030.440 14692.526 13994.140 24968.769 19220.562 17118.648 17415.664 16283.568 21101.029 14487.506 6708.352 15823.309 14447.240 14633.588 20662.697 25657.137 16415.894 20573.280 13247.368 15303.763 13832.187 17518.614 13979.698 14376.681 14320.379 18930.958 18367.970 3902.509 19098.556 12121.232 18964.000 20485.017 14809.415 16628.723 18656.404 15117.540
2140.200 4136.961 12984.264 10095.107 1680.970 10511.808 14685.250 2392.884 2631.489 1533.416 657.387 1501.780 3636.077 7224.254 7485.944 10175.522 10101.559 8318.745 3828.274 4958.733 3949.745 4332.929 14289.194 2731.771 4975.195 2392.652 15120.690 824.262 3850.987 603.322 1268.571 10388.479 1332.513 14376.982 11095.247 0.000 1562.420 3590.452 13118.208 1851.997 11983.437 4305.520 2194.443 11017.899 7003.495 11519.262 2261.515 863.047 9907.274 3148.130 15913.486 5591.013 4715.152 14488.373 6329.833 13001.322 12132.253 1729.614 4496.704 5611.769 16656.208 10275.023 5175.945 5361.546 3863.961 12177.849 3622.776 3578.297 14190.329 9126.596 6776.610 16957.556 6277.259 10053.918 3409.656 13165.522 4804.411 3707.418 4249.959 9652.572 14702.307 5443.141 9500.972 2154.492 4892.572 3699.085 6541.897 2897.313 3895.373 3962.049 17347.008 8007.870 14802.290 17181.333 1575.210 17124.989 16830.660 3740.434 5979.893 18345.797 4836.359
652.104 2943.656 11826.106 9006.352 373.003 12023.348 15894.755 1848.136 1533.234 694.011 1592.217 873.303 2180.710 6185.136 5943.198 11683.164 8736.490 7511.795 2611.761 3606.141 2870.686 3107.397 15489.059 2403.622 4071.458 2695.073 15688.970 951.653 2585.833 1072.629 838.436 11891.321 675.947 13365.390 12408.928 1562.420 0.000 2036.073 14533.919 1347.938 13341.441 2751.851 1192.828 12507.872 5454.411 10098.625 753.373 867.443 11456.031 2422.130 16891.606 4036.187 4191.418 15373.068 4784.776 12750.483 13512.128 1670.840 3218.058 4903.428 15992.720 11813.037 4019.091 3847.304 2808.021 13594.828 2692.598 2031.525 13313.226 8751.403 5214.255 16533.067 4733.239 8693.033 2467.653 13886.162 3416.087 3333.211 2694.829 8625.535 13684.088 4011.265 8176.973 1328.902 3331.160 2209.719 5633.368 1999.718 2336.027 2414.592 16744.620 7542.006 16024.922 16535.157 2165.294 16492.002 15940.821 2801.691 4434.815 17898.545 3283.571
1597.054 1957.427 10705.177 8080.599 2041.464 13938.663 17389.896 2956.704 2119.963 2394.121 3491.927 2565.441 750.690 5503.106 3910.062 13593.472 7274.518 7136.038 2253.020 2548.892 2711.071 1985.840 16974.440 3096.691 3912.494 4224.804 16376.868 2874.937 1570.086 3050.527 2541.341 13793.980 2523.005 12468.866 14059.684 3590.452 2036.073 0.000 16306.010 2784.926 15042.573 954.334 2229.635 14390.073 3545.355 8489.994 1475.976 2802.938 13491.981 2578.000 18084.851 2000.836 4593.965 16462.463 2909.405 12979.941 15240.808 3264.656 1930.490 4925.582 15066.764 13771.408 3373.819 2169.195 2719.278 15372.286 2882.458 108.721 12633.749 8941.889 3213.214 15920.616 2700.345 7241.223 2734.176 14789.700 2289.969 4102.584 659.510 7823.997 12771.666 2632.238 6818.872 2464.557 1316.739 587.484 5238.201 2580.886 322.122 390.223 15892.028 7672.623 17536.160 15626.215 3962.110 15601.247 14709.970 2933.861 2570.059 17240.137 1247.498
15178.261 15653.913 25925.328 22987.949 14755.441 3408.243 3888.530 15333.493 15741.307 14651.561 12941.734 14611.034 15981.362 20136.301 19746.345 3577.585 23219.598 20843.726 16937.883 18076.041 17012.119 15856.158 3842.460 13514.483 17863.640 14571.855 10957.018 13583.271 15655.594 13472.702 13817.637 3335.967 14450.542 27044.484 2694.984 13118.208 14533.919 16306.010 0.000 14880.635 1576.291 17194.821 15304.698 2653.491 19849.156 24625.975 15286.395 13666.882 7500.808 14251.543 7294.979 18132.130 17204.291 7628.467 19213.784 23583.963 1214.727 14579.444 16108.035 18222.449 21408.098 4237.475 18242.050 18359.840 16919.158 940.361 16626.544 16249.280 26568.369 20618.644 19438.247 19921.352 18652.558 23171.674 16434.362 8790.308 17914.999 16214.747 16908.179 22469.827 27376.044 18537.430 22611.430 15236.132 17584.713 16131.638 19333.073 15939.455 16627.064 16593.379 21499.983 19881.401 3773.493 21687.693 13953.669 21549.780 23147.790 16740.980 18870.977 21124.955 17420.253
1265.230 4170.484 11143.084 8246.170 1016.782 12153.439 16532.477 571.414 948.948 657.296 2301.127 504.237 3207.529 5373.821 6559.534 11826.750 8367.857 6493.747 2090.868 3286.524 2132.242 4309.169 16137.709 3713.112 3124.076 1458.465 16806.479 1839.058 3783.299 1784.461 2013.859 12048.256 754.918 12525.924 12919.971 1851.997 1347.938 2784.926 14880.635 0.000 13787.059 3142.315 593.911 12698.070 5683.080 9835.316 1360.623 1771.214 11104.732 3769.964 17749.839 4633.482 2973.879 16301.454 5004.774 11469.200 13922.852 489.519 4378.372 3802.701 17316.627 11845.449 3363.191 3951.512 2040.690 13941.011 1775.296 2829.685 12357.354 7501.924 5623.625 17880.365 5375.346 8316.850 1567.563 14919.471 3180.475 2037.417 3370.451 7800.592 12850.988 3854.637 7738.198 404.149 3880.860 3170.887 4693.751 1061.492 3001.345 3167.812 18077.556 6324.279 16647.571 17861.620 1248.180 17820.615 17205.226 1892.741 4666.701 19244.864 3935.870
13991.362 14287.186 24901.445 21975.477 13584.633 3406.330 3516.091 14265.964 14614.926 13510.481 11753.416 13484.693 14678.515 19107.891 18384.995 3419.613 22067.636 19916.933 15811.532 16921.090 15916.924 14485.250 3301.468 12172.761 16830.402 13598.627 9721.048 12390.238 14310.823 12295.532 12594.617 3223.598 13309.410 26112.388 1128.895 11983.437 13341.441 15042.573 1576.291 13787.059 0.000 15950.421 14177.859 2725.577 18573.834 23437.958 14094.609 12474.911 7667.048 12898.192 6567.828 16821.003 16247.081 6556.642 17951.285 23009.766 402.723 13518.142 14738.270 17255.111 19855.408 4312.428 17147.717 17133.411 15826.942 1074.102 15552.244 14980.377 25706.648 19870.057 18132.225 18410.574 17315.034 22022.107 15352.047 7454.779 16747.673 15238.810 15628.026 21479.518 26443.183 17352.684 21481.302 14126.540 16301.279 14835.366 18334.574 14848.534 15361.500 15313.883 19962.426 19063.177 3497.737 20141.943 12933.773 20005.361 21575.885 15668.345 17612.570 19631.239 16123.202
2179.212 2714.766 9771.455 7188.547 2649.187 14762.542 18332.526 3142.093 2280.647 2926.599 4302.650 3065.217 1597.493 4706.047 3428.411 14420.330 6320.191 6407.291 1884.796 1755.179 2341.024 2685.612 17917.898 4050.858 3390.291 4478.435 17290.745 3666.218 2374.128 3816.876 3383.716 14625.471 3093.979 11567.019 14977.962 4305.520 2751.851 954.334 17194.821 3142.315 15950.421 0.000 2548.588 15233.087 2703.245 7545.615 2054.020 3587.594 14135.624 3516.112 19038.729 1527.411 4272.487 17413.418 2037.907 12405.824 16141.771 3630.370 2558.894 4416.288 15508.766 14563.718 2683.574 1215.895 2383.479 16258.912 2653.439 1043.811 11776.937 8391.849 2505.415 16494.465 2272.636 6286.900 2571.793 15729.250 1494.328 3990.106 692.194 6962.023 11866.307 1712.759 5868.129 2760.145 786.885 1407.065 4548.073 2603.437 681.988 864.963 16364.371 7120.277 18477.153 16073.678 4385.417 16057.317 14993.995 2667.434 1688.987 17790.756 961.981
837.012 3749.435 10816.050 7950.611 820.401 12635.711 16853.707 775.970 437.180 686.755 2517.799 693.956 2711.998 5095.919 5967.892 12305.198 7917.066 6346.525 1634.474 2789.889 1779.768 3870.563 16454.188 3586.590 2915.266 1995.842 16867.468 1954.168 3350.189 1967.096 1998.073 12523.532 881.901 12276.700 13286.845 2194.443 1192.828 2229.635 15304.698 593.911 14177.859 2548.588 0.000 13165.318 5101.908 9356.524 896.096 1873.646 11676.702 3526.660 17970.769 4043.621 3004.970 16484.125 4422.540 11573.854 14325.508 1081.935 3916.527 3714.999 16955.677 12350.768 2992.376 3376.893 1701.969 14364.395 1527.606 2282.927 12175.018 7565.678 5030.911 17595.499 4786.663 7868.314 1302.178 15038.600 2659.706 2192.794 2794.425 7537.366 12598.645 3323.724 7308.695 235.976 3290.464 2655.633 4488.678 812.183 2428.586 2605.775 17734.666 6351.161 16974.992 17505.131 1840.664 17468.411 16773.677 1641.432 4082.335 18950.232 3352.894
13134.944 13982.283 23599.459 20658.126 12690.413 756.859 6165.071 13111.497 13596.924 12540.736 10931.783 12478.422 14151.559 17835.235 18018.620 949.319 21065.838 18435.870 14782.924 15954.955 14812.853 14192.995 5994.820 11811.990 15580.127 12244.510 12171.062 11571.337 13927.730 11435.348 11855.889 703.932 12342.172 24625.606 3116.401 11017.899 12507.872 14390.073 2653.491 12698.070 2725.577 15233.087 13165.318 0.000 17926.106 22521.842 13250.109 11651.866 4978.251 12565.759 9292.242 16298.412 14841.607 9182.760 17269.966 20964.376 2472.981 12356.701 14438.595 15864.570 21343.005 1630.124 16033.015 16355.069 14716.570 1944.226 14402.448 14344.905 24093.005 18079.583 17582.426 20161.461 16875.058 21014.590 14222.324 9806.552 15814.313 13877.627 15019.814 20118.215 24957.218 16460.038 20428.755 13072.428 15696.555 14285.730 17002.469 13743.142 14711.971 14706.917 21558.981 17389.078 6110.522 21681.761 11685.651 21555.644 22818.993 14513.844 16921.806 21447.216 15562.410
4867.181 4611.183 8089.121 6040.456 5334.318 17462.348 20835.142 5535.406 4746.073 5579.110 7001.446 5698.117 3917.638 4506.885 1915.347 17119.297 4284.852 6295.335 3846.030 2790.762 4140.148 4470.752 20415.706 6480.103 4546.522 6850.379 19179.891 6367.408 4438.535 6520.075 6070.251 17323.032 5758.504 10144.390 17578.364 7003.495 5454.411 3545.355 19849.156 5683.080 18573.834 2703.245 5101.908 17926.106 0.000 5185.931 4743.934 6289.460 16774.762 5822.171 21327.943 1881.884 5743.290 19634.885 680.353 12570.187 18777.861 6152.165 4239.599 5388.711 15586.589 17266.930 3563.375 1741.600 4229.326 18916.175 4602.762 3599.947 10668.696 8813.461 772.619 16981.661 1796.935 4273.944 4637.976 17821.900 2731.509 5901.063 2945.849 6058.586 10407.541 2126.519 4086.156 5280.724 2274.791 3750.267 4879.238 4892.937 3223.565 3259.958 16521.893 7625.679 20989.412 16157.789 6924.819 16168.832 14604.188 4553.317 1027.041 18180.257 2477.764
9450.803 9790.946 3874.686 3942.167 9870.562 21987.411 25878.139 9464.318 8925.350 9988.206 11689.685 10044.290 9000.074 5390.884 6398.863 21659.000 1600.730 6167.973 7744.847 6567.097 7758.731 9655.212 25463.405 11558.518 7261.953 10534.388 24336.390 11050.275 9596.477 11154.249 10847.618 21878.644 10188.209 6126.029 22491.245 11519.262 10098.625 8489.994 24625.975 9835.316 23437.958 7545.615 9356.524 22521.842 5185.931 0.000 9345.256 10965.949 20647.567 10945.911 26493.420 7066.345 8342.933 24813.604 5677.590 11288.955 23610.754 10208.246 9425.387 7445.925 19466.487 21674.368 6583.842 6335.739 7858.431 23686.084 8203.089 8568.230 7190.674 8734.122 5860.163 21251.286 6896.895 1666.763 8358.525 23007.598 6714.938 9058.837 7985.863 4498.429 6288.255 6089.164 2345.394 9453.578 7359.671 8818.800 6302.487 8810.109 8185.838 8285.022 20459.571 8049.000 26022.519 20024.528 10930.005 20066.387 17947.553 8100.501 5978.705 22322.713 7606.341
126.329 2853.610 11112.403 8316.588 595.990 12758.893 16635.156 1671.767 1036.116 919.041 2345.092 1089.777 1846.996 5524.161 5358.856 12420.059 7986.194 6927.755 1934.459 2865.003 2251.592 2977.185 16228.301 2877.878 3496.059 2819.087 16277.927 1705.019 2455.398 1817.970 1546.066 12629.837 1059.630 12690.128 13160.387 2261.515 753.373 1475.976 15286.395 1360.623 14094.609 2054.020 896.096 13250.109 4743.934 9345.256 0.000 1620.733 12090.660 2708.842 17589.586 3430.810 3793.901 16050.722 4069.015 12363.767 14265.498 1819.134 3030.575 4396.521 16062.087 12535.026 3336.770 3107.198 2203.713 14347.178 2163.498 1503.778 12680.818 8336.104 4548.877 16723.541 4153.741 7943.187 1949.153 14523.287 2668.456 3057.634 2108.193 7956.180 13006.415 3258.080 7432.303 1120.567 2697.532 1813.242 5027.458 1563.282 1736.091 1866.111 16844.307 7099.529 16766.978 16612.199 2490.147 16576.222 15881.338 2260.632 3719.197 18074.138 2694.785
1516.490 3282.198 12648.277 9805.720 1133.987 11175.325 15047.563 2340.290 2279.111 1202.309 725.310 1283.969 2787.717 6962.192 6667.533 10833.600 9599.434 8208.527 3425.937 4462.142 3639.527 3475.486 14643.552 2090.846 4786.359 2790.472 15040.905 85.268 2989.341 262.659 424.395 11039.782 1035.546 14145.292 11545.586 863.047 867.443 2802.938 13666.882 1771.214 12474.911 3587.594 1873.646 11651.866 6289.460 10965.949 1620.733 0.000 10734.043 2379.509 16101.433 4793.595 4744.315 14610.486 5625.283 13220.433 12644.822 1882.194 3635.466 5545.719 15974.283 10981.540 4825.127 4706.973 3567.206 12727.894 3399.012 2779.266 14047.134 9268.773 6012.757 16371.469 5462.416 9555.451 3174.210 13178.117 4277.732 3799.876 3458.924 9404.687 14466.363 4878.121 9033.708 1928.638 4117.902 2860.815 6361.202 2672.937 3117.370 3160.697 16688.989 8095.447 15175.378 16506.379 2068.829 16455.001 16070.333 3513.796 5275.943 17751.364 4037.972
11964.417 13780.170 20953.850 18075.699 11495.220 4262.427 11142.378 11336.186 12052.017 11210.784 10125.802 11081.478 13516.658 15464.347 17393.216 4267.293 19081.125 15617.229 13107.103 14312.779 12981.630 13993.873 10961.916 11757.572 13391.375 10142.285 16507.807 10673.284 13585.783 10474.582 11076.333 4447.013 11041.722 21602.127 7785.855 9907.274 11456.031 13491.981 7500.808 11104.732 7667.048 14135.624 11676.702 4978.251 16774.762 20647.567 12090.660 10734.043 0.000 12467.017 14185.586 15492.147 12384.480 13860.746 16094.520 16952.597 7445.461 10652.699 14202.743 13367.546 23840.747 3357.305 14088.074 15053.431 12880.513 6912.899 12512.491 13483.877 20840.240 14648.234 16638.384 23141.511 16184.372 19020.864 12389.485 14075.862 14247.460 11592.630 14150.857 17469.583 21927.968 14927.556 18371.573 11508.870 14779.045 13594.825 14556.620 12005.040 13790.349 13867.644 24237.832 14223.679 11088.580 24259.739 9883.318 24155.054 24851.827 12604.639 15750.835 24506.503 14739.421
2720.073 1416.540 13282.870 10643.173 2766.163 12204.162 15022.954 4251.215 3743.980 3115.376 2612.247 3289.004 1954.318 7993.304 5494.851 11850.611 9806.703 9530.675 4494.208 5084.045 4884.535 1627.671 14602.103 755.253 6145.528 5067.701 13809.781 2378.290 1416.873 2589.948 1963.816 12028.060 3066.439 15035.219 11863.096 3148.130 2422.130 2578.000 14251.543 3769.964 12898.192 3516.112 3526.660 12565.759 5822.171 10945.911 2708.842 2379.509 12467.017 0.000 15557.672 3978.737 6500.806 13910.002 5272.311 15072.500 13131.690 4066.779 1872.957 7085.665 13617.346 12173.176 5809.162 4710.179 4853.600 13334.906 4860.857 2479.114 15158.592 11044.376 5288.125 14111.326 4420.705 9776.840 4651.896 12213.523 4832.708 5717.646 2973.040 10363.024 15340.249 5210.237 9379.705 3707.688 3586.431 2141.325 7617.433 4268.072 2835.443 2690.422 14350.065 9804.549 15181.014 14154.054 4419.331 14106.461 13693.467 4952.046 4967.346 15478.165 3349.531
17518.122 16719.057 28696.245 25897.939 17219.707 9951.120 3482.622 18303.786 18380.489 17287.960 15464.667 17329.312 17511.298 23063.582 20565.626 9918.784 25356.134 24231.738 19503.278 20416.925 19740.697 16868.783 3455.319 14988.359 20864.492 18031.501 4917.794 16019.292 16897.570 16008.158 16056.518 9747.018 17101.940 30246.686 6439.959 15913.486 16891.606 18084.851 7294.979 17749.839 6567.828 19038.729 17970.769 9292.242 21327.943 26493.420 17589.586 16101.433 14185.586 15557.672 0.000 19448.945 20595.278 1878.270 20816.008 28292.472 6854.751 17630.295 17108.788 21522.010 17315.007 10853.415 20910.690 20249.753 19668.581 7492.396 19485.145 17995.474 30103.767 24758.191 20715.512 15185.680 19732.913 25324.183 19262.851 4107.563 20192.707 19569.413 18530.017 25506.110 30567.771 20677.585 24897.838 17998.240 19138.001 17696.902 22439.499 18753.161 18368.612 18242.044 17094.327 23766.519 3660.887 17429.061 17243.717 17271.078 19612.254 19601.678 20520.183 16117.922 18887.199
3556.383 2730.288 9821.206 7529.490 4017.642 15869.944 19001.544 4665.901 3801.777 4343.386 5466.184 4500.350 2152.900 5450.637 1931.271 15522.021 6096.735 7246.608 3332.780 2793.776 3762.597 2589.070 18580.512 4665.926 4642.525 5998.983 17326.761 4862.829 2575.224 5045.068 4505.153 15717.137 4490.378 11792.063 15805.841 5591.013 4036.187 2000.836 18132.130 4633.482 16821.003 1527.411 4043.621 16298.412 1881.884 7066.345 3430.810 4793.595 15492.147 3978.737 19448.945 0.000 5658.403 17753.181 1466.509 13432.117 17038.572 5122.997 2359.794 5641.071 14454.381 15730.723 3776.532 1619.410 3820.798 17204.906 4126.880 2015.282 12187.180 9487.718 1313.274 15632.021 746.212 6078.982 4068.443 15943.424 2583.047 5479.249 1341.471 7430.072 12070.659 2377.862 5808.130 4263.532 753.574 2012.747 5522.803 4129.377 1703.571 1632.931 15347.481 8231.404 19159.743 15023.997 5863.309 15019.347 13756.977 4125.680 1284.003 16884.616 755.717
3781.447 6473.842 8763.533 5824.353 3818.768 14221.746 19183.945 2404.033 2757.787 3574.796 5246.840 3463.795 5291.426 3083.577 7299.419 13922.004 6750.608 3683.669 2395.692 2999.417 1932.941 6543.766 18802.594 6591.322 1228.289 2649.973 19778.528 4812.893 6065.670 4751.566 4958.165 14157.729 3715.606 9866.090 15464.936 4715.152 4191.418 4593.965 17204.291 2973.879 16247.081 4272.487 3004.970 14841.607 5743.290 8342.933 3793.901 4744.315 12384.480 6500.806 20595.278 5658.403 0.000 19198.167 5195.697 8574.155 16339.110 2985.610 6517.422 1023.337 19660.539 13773.961 2198.000 4230.082 1899.594 16275.757 1716.562 4690.087 9543.143 4560.766 6073.397 20458.123 6342.684 6687.347 1891.148 17870.693 3139.933 1028.951 4870.350 5276.612 10196.655 3632.164 6022.030 2866.713 5012.661 5164.112 2191.069 2232.843 4612.360 4851.983 20481.794 3356.244 19282.681 20219.610 3372.701 20193.795 19252.240 1660.103 4969.853 21793.735 5231.491
15986.123 15024.121 27126.814 24367.031 15712.527 9756.221 4280.150 16863.799 16882.980 15807.928 14002.431 15862.362 15863.383 21558.075 18808.371 9657.680 23716.474 22795.201 17978.132 18846.435 18238.783 15165.842 4065.933 13373.870 19394.254 16686.821 3506.819 14530.284 15221.501 14535.994 14534.785 9522.563 15627.778 28737.539 6110.733 14488.373 15373.068 16462.463 7628.467 16301.454 6556.642 17413.418 16484.125 9182.760 19634.885 24813.604 16050.722 14610.486 13860.746 13910.002 1878.270 17753.181 19198.167 0.000 19141.837 27100.928 6910.561 16216.237 15401.568 20096.736 15583.963 10628.678 19385.099 18617.537 18171.027 7592.888 18008.262 16369.828 28653.283 23465.043 19004.374 13549.912 18008.300 23686.821 17783.960 2237.093 18615.370 18179.647 16881.301 23998.488 29055.269 19075.321 23281.246 16527.278 17473.808 16051.142 20970.160 17279.137 16737.584 16600.279 15410.934 22429.695 4508.923 15723.625 15881.345 15567.839 17824.409 18123.567 18854.406 14549.343 17214.973
4191.720 4132.454 8355.853 6119.982 4657.927 16800.420 20256.321 4866.390 4069.823 4899.457 6340.447 5017.860 3337.565 4282.149 2189.797 16458.236 4639.401 6091.601 3199.260 2204.741 3516.620 4011.699 19838.351 5904.654 4027.607 6187.084 18779.745 5704.069 3920.696 5852.923 5416.633 16663.288 5079.474 10341.563 16964.452 6329.833 4784.776 2909.405 19213.784 5004.774 17951.285 2037.907 4422.540 17269.966 680.353 5677.590 4069.015 5625.283 16094.520 5272.311 20816.008 1466.509 5195.697 19141.837 0.000 12352.748 18150.212 5475.369 3795.133 4924.190 15646.628 16597.733 3055.257 1075.819 3602.269 18279.388 3970.284 2971.103 10776.125 8512.660 912.469 16942.349 1652.802 4619.723 3993.280 17363.991 2113.072 5288.501 2338.548 6065.579 10616.825 1565.488 4341.949 4602.853 1688.021 3161.935 4536.815 4229.475 2589.827 2648.510 16564.461 7294.096 20407.412 16217.818 6247.726 16222.024 14778.033 3927.425 350.034 18168.297 1928.810
12354.851 14928.019 8364.014 7441.216 12379.848 20232.775 26323.310 10918.848 11328.610 12105.427 13612.532 11972.590 13719.648 8075.026 14478.266 20019.939 10192.678 6275.013 10734.263 10704.235 10288.801 14965.769 25990.792 15154.105 9067.713 10623.270 28084.448 13279.669 14527.519 13180.231 13482.602 20264.715 12224.079 7234.701 22472.894 13001.322 12750.483 12979.941 23583.963 11469.200 23009.766 12405.824 11573.854 20964.376 12570.187 11288.955 12363.767 13220.433 16952.597 15072.500 28292.472 13432.117 8574.155 27100.928 12352.748 0.000 22991.163 11354.516 14896.216 8057.469 27875.814 19526.918 9732.501 11812.707 10296.745 22736.593 10228.944 13085.043 5805.587 4042.014 13227.658 28890.213 13933.823 10135.676 10429.536 26027.443 10949.663 9432.590 13085.874 7031.297 7438.934 11054.409 9673.757 11421.592 12992.010 13567.226 7912.066 10806.280 12916.727 13157.526 28752.004 5307.687 26373.673 28444.022 11452.938 28434.451 27129.615 10146.826 12312.584 30194.814 13273.857
14160.404 14526.907 25018.457 22087.941 13747.579 3186.309 3698.887 14393.162 14762.685 13662.721 11921.424 13631.701 14892.032 19224.554 18623.532 3236.801 22227.314 20001.145 15959.948 17080.109 16054.589 14726.830 3521.942 12401.024 16947.610 13693.925 10103.842 12560.479 14541.282 12459.883 12776.167 3025.726 13461.529 26200.270 1483.570 12132.253 13512.128 15240.808 1214.727 13922.852 402.723 16141.771 14325.508 2472.981 18777.861 23610.754 14265.498 12644.822 7445.461 13131.690 6854.751 17038.572 16339.110 6910.561 18150.212 22991.163 0.000 13642.676 14979.440 17350.979 20248.947 4088.800 17285.700 17318.473 15963.535 687.404 15682.559 15180.694 25772.618 19899.940 18348.132 18811.527 17543.426 22180.932 15484.980 7848.473 16911.028 15336.239 15832.970 21584.613 26531.387 17522.549 21633.198 14268.122 16507.748 15046.333 18441.082 14984.116 15560.687 15518.449 20359.760 19113.458 3656.395 20537.454 13043.877 20401.206 21958.678 15798.160 17809.831 20033.289 16334.955
1714.492 4576.267 11385.869 8469.212 1393.894 11797.542 16325.120 755.500 1406.376 995.211 2279.868 804.701 3659.058 5595.976 7048.940 11474.956 8718.960 6603.477 2484.481 3692.205 2458.628 4724.620 15934.947 3929.329 3321.444 1029.392 16823.518 1934.576 4198.255 1825.726 2200.200 11699.445 1002.568 12701.695 12674.253 1729.614 1670.840 3264.656 14579.444 489.519 13518.142 3630.370 1081.935 12356.701 6152.165 10208.246 1819.134 1882.194 10652.699 4066.779 17630.295 5122.997 2985.610 16216.237 5475.369 11354.516 13642.676 0.000 4806.997 3891.958 17661.751 11466.362 3676.479 4415.820 2361.281 13641.175 2049.055 3305.955 12477.790 7432.905 6106.976 18169.340 5864.778 8666.148 1865.652 14889.856 3604.568 1983.066 3856.996 7998.653 13028.903 4283.140 8072.785 876.640 4370.372 3632.166 4864.141 1398.277 3487.058 3649.552 18409.232 6292.337 16434.535 18203.272 772.988 18159.181 17600.325 2162.488 5139.743 19540.415 4424.273
3115.459 456.571 12096.075 9654.150 3421.275 14073.598 16762.405 4689.610 3927.445 3822.707 4121.281 4014.458 1235.635 7261.413 3648.078 13720.326 8433.338 8964.118 4181.838 4313.753 4641.285 253.524 16338.790 2626.778 5830.344 5829.454 14987.000 3672.953 646.576 3893.387 3231.468 13899.063 3873.695 13994.856 13690.699 4496.704 3218.058 1930.490 16108.035 4378.372 14738.270 2558.894 3916.527 14438.595 4239.599 9425.387 3030.575 3635.466 14202.743 1872.957 17108.788 2359.794 6517.422 15401.568 3795.133 14896.216 14979.440 4806.997 0.000 6848.841 13145.509 14030.205 5221.936 3538.682 4649.642 15194.859 4801.957 1830.398 14281.514 10862.155 3606.744 13996.522 2646.218 8412.451 4642.382 13583.630 4052.390 5970.027 1868.511 9471.937 14284.400 4204.116 8101.825 4147.157 2238.510 1353.322 7092.870 4430.552 1982.277 1744.064 13964.646 9591.291 16928.051 13703.458 5379.899 13676.701 12861.923 4858.353 3548.246 15312.101 1939.331
4409.361 6870.650 7740.371 4801.701 4533.366 15245.082 20167.206 3235.506 3388.518 4348.131 6103.193 4264.910 5662.732 2102.938 7099.248 14945.277 5846.093 2712.852 2676.841 2852.341 2233.696 6911.003 19783.058 7263.676 1026.555 3657.134 20578.528 5619.979 6470.093 5584.314 5711.267 15180.936 4510.494 8864.253 16463.005 5611.769 4903.428 4925.582 18222.449 3802.701 17255.111 4416.288 3714.999 15864.570 5388.711 7445.925 4396.521 5545.719 13367.546 7085.665 21522.010 5641.071 1023.337 20096.736 4924.190 8057.469 17350.979 3891.958 6848.841 0.000 19922.938 14795.686 1888.472 4084.638 2247.491 17293.009 2233.511 5029.925 8587.207 4017.018 5832.447 20844.947 6264.515 5780.982 2451.671 18719.307 3058.593 2016.714 5075.324 4253.828 9194.154 3385.614 5106.736 3621.408 5081.258 5512.283 1189.113 2904.079 4877.671 5119.866 20772.294 2750.284 20269.013 20487.126 4349.269 20469.168 19376.299 2136.404 4756.226 22160.006 5337.796
16120.056 13227.571 23183.320 21591.390 16300.502 21448.426 19448.119 17727.103 17036.950 16681.277 16032.697 16865.366 14377.583 19889.712 13710.848 21145.528 19372.417 21694.541 17298.317 17175.629 17763.032 13134.863 19099.008 13925.303 18896.385 18676.856 12542.664 15960.968 13634.981 16158.180 15570.820 21186.320 16659.806 25399.817 18801.480 16656.208 15992.720 15066.764 21408.098 17316.627 19855.408 15508.766 16955.677 21343.005 15586.589 19466.487 16062.087 15974.283 23840.747 13617.346 17315.007 14454.381 19660.539 15583.963 15646.628 27875.814 20248.947 17661.751 13145.509 19922.938 0.000 21940.880 18153.889 16071.584 17779.318 20831.810 17946.602 14970.481 26136.456 23890.975 14846.610 2731.450 14008.309 19390.532 17787.658 13461.285 16934.346 19092.191 14848.645 21644.235 25616.519 16830.169 19445.215 17170.964 14887.569 14497.993 19964.517 17554.244 15066.405 14824.303 1015.005 22621.782 19686.924 571.324 18033.612 600.818 2733.739 18000.499 15629.474 3118.796 14610.940
12414.696 13578.526 22533.042 19597.038 11955.396 906.098 7786.926 12212.890 12772.271 11762.848 10279.925 11679.603 13611.785 16816.912 17523.874 977.489 20178.422 17297.559 13935.437 15130.173 13920.631 13793.170 7604.737 11419.741 14594.260 11240.239 13465.219 10905.402 13478.017 10747.285 11232.444 1110.934 11569.547 23456.802 4518.226 10275.023 11813.037 13771.408 4237.475 11845.449 4312.428 14563.718 12350.768 1630.124 17266.930 21674.368 12535.026 10981.540 3357.305 12173.176 10853.415 15730.723 13773.961 10628.678 16597.733 19526.918 4088.800 11466.362 14030.205 14795.686 21940.880 0.000 15120.903 15635.850 13821.835 3573.952 13488.491 13737.111 22859.871 16777.580 16984.157 20934.803 16349.362 20124.257 13322.516 11058.849 15010.307 12846.358 14418.223 19035.900 23787.780 15672.687 19516.651 12234.480 15087.821 13730.199 15957.058 12864.321 14090.233 14110.626 22224.772 16152.186 7737.001 22310.655 10755.078 22191.955 23254.103 13595.721 16247.737 22255.444 14981.512
3398.983 5320.472 7826.755 4987.262 3695.870 15470.078 19845.880 2921.518 2561.572 3676.490 5501.445 3677.058 4123.379 2197.411 5217.124 15149.169 5059.287 3762.225 1407.773 985.404 1231.110 5323.566 19445.971 6145.278 983.687 3953.700 19572.212 4909.064 4942.143 4948.060 4855.014 15374.513 3873.876 9353.634 16270.493 5175.945 4019.091 3373.819 18242.050 3363.191 17147.717 2683.574 2992.376 16033.015 3563.375 6583.842 3336.770 4825.127 14088.074 5809.162 20910.690 3776.532 2198.000 19385.099 3055.257 9732.501 17285.700 3676.479 5221.936 1888.472 18153.889 15120.903 0.000 2198.562 1322.951 17302.690 1633.330 3482.512 9369.936 5738.486 3957.039 19177.371 4381.094 5004.295 1811.358 17854.241 1219.600 2577.058 3372.111 4620.024 9670.439 1500.973 4398.973 3023.268 3267.278 3950.280 1871.372 2302.787 3247.745 3480.739 19022.306 4472.317 19967.368 18720.842 4366.016 18708.502 17531.216 1525.186 2871.622 20470.748 3543.557
3224.881 3780.952 8609.586 6115.608 3680.665 15866.085 19543.760 3793.908 3009.515 3890.065 5430.791 3995.983 2764.461 3854.678 3069.368 15527.208 5106.834 5639.058 2128.925 1244.700 2466.851 3710.904 19129.697 5263.867 3120.804 5111.788 18439.046 4788.830 3485.662 4919.731 4543.192 15736.697 4077.106 10462.409 16170.354 5361.546 3847.304 2169.195 18359.840 3951.512 17133.411 1215.895 3376.893 16355.069 1741.600 6335.739 3107.198 4706.973 15053.431 4710.179 20249.753 1619.410 4230.082 18617.537 1075.819 11812.707 17318.473 4415.820 3538.682 4084.638 16071.584 15635.850 2198.562 0.000 2548.200 17422.269 2909.517 2255.383 10749.357 7874.330 1865.657 17216.282 2183.313 5074.448 2922.991 16914.604 1092.551 4243.029 1760.542 5947.955 10754.976 758.705 4670.767 3547.958 1311.671 2574.339 3904.084 3154.078 1881.293 2022.116 16961.293 6622.303 19687.254 16640.943 5188.798 16635.284 15363.651 2873.107 772.575 18480.067 1617.403
2237.835 4641.197 9122.382 6249.038 2459.556 14158.804 18545.160 1609.530 1288.692 2388.472 4219.633 2372.173 3439.746 3395.390 5569.153 13836.171 6358.630 4724.601 498.855 1480.007 101.149 4693.648 18147.224 5080.188 1295.521 2747.011 18475.857 3649.292 4237.085 3669.025 3644.712 14060.450 2581.250 10578.109 14954.401 3863.961 2808.021 2719.278 16919.158 2040.690 15826.942 2383.479 1701.969 14716.570 4229.326 7858.431 2203.713 3567.206 12880.513 4853.600 19668.581 3820.798 1899.594 18171.027 3602.269 10296.745 15963.535 2361.281 4649.642 2247.491 17779.318 13821.835 1322.951 2548.200 0.000 15979.771 380.758 2819.533 10505.235 6254.738 4410.067 18630.218 4532.733 6305.465 500.105 16693.599 1498.107 1697.036 2970.764 5837.674 10899.343 2142.912 5712.201 1709.576 3141.391 3299.648 2829.960 979.851 2717.558 2958.453 18609.610 4993.699 18664.121 18340.002 3071.575 18316.561 17352.693 325.237 3320.094 19954.832 3345.257
14238.848 14740.101 24991.252 22054.618 13815.525 2691.460 4249.832 14395.020 14801.020 13711.205 12002.691 13670.717 15053.339 19201.175 18829.555 2800.756 22279.237 19920.061 15997.631 17135.715 16072.631 14943.428 4111.942 12595.420 16927.779 13640.660 10790.560 12644.349 14736.143 12533.114 12880.586 2570.572 13510.189 26121.194 2030.440 12177.849 13594.828 15372.286 940.361 13941.011 1074.102 16258.912 14364.395 1944.226 18916.175 23686.084 14347.178 12727.894 6912.899 13334.906 7492.396 17204.906 16275.757 7592.888 18279.388 22736.593 687.404 13641.175 15194.859 17293.009 20831.810 3573.952 17302.690 17422.269 15979.771 0.000 15687.904 15316.228 25656.045 19726.735 18509.832 19433.201 17730.394 22231.317 15495.329 8528.857 16974.837 15283.805 15976.427 21538.661 26452.691 17597.678 21671.263 14296.098 16653.251 15202.486 18400.539 15000.027 15693.516 15661.617 20959.752 18975.179 4182.039 21128.796 13017.983 20994.086 22501.992 15802.437 17936.190 20664.725 16490.858
2176.285 4759.082 9368.090 6472.358 2328.928 13837.231 18306.942 1293.727 1162.357 2200.471 4021.025 2157.269 3574.889 3602.134 5908.164 13516.830 6690.229 4821.845 800.889 1860.738 478.768 4827.277 17911.585 5031.544 1387.718 2373.751 18381.566 3478.483 4351.310 3477.363 3517.544 13742.593 2383.511 10769.146 14692.526 3622.776 2692.598 2882.458 16626.544 1775.296 15552.244 2653.439 1527.606 14402.448 4602.762 8203.089 2163.498 3399.012 12512.491 4860.857 19485.145 4126.880 1716.562 18008.262 3970.284 10228.944 15682.559 2049.055 4801.957 2233.511 17946.602 13488.491 1633.330 2909.517 380.758 15687.904 0.000 2976.884 10648.175 6191.742 4765.864 18747.186 4849.248 6635.827 225.721 16565.204 1873.440 1356.271 3199.889 6035.659 11092.735 2522.914 6032.220 1487.535 3427.378 3448.841 2962.239 732.315 2919.008 3155.359 18765.732 4944.950 18422.561 18505.114 2733.423 18478.655 17570.234 117.667 3682.088 20080.212 3613.019
1622.121 1850.084 10803.780 8184.713 2056.740 13897.795 17314.072 3019.145 2190.458 2418.234 3460.214 2593.075 642.414 5611.262 3911.824 13552.011 7362.050 7244.734 2356.028 2656.264 2812.793 1881.085 16898.177 3008.503 4017.924 4275.550 16274.240 2849.503 1461.742 3029.893 2504.721 13751.475 2540.318 12572.272 13994.140 3578.297 2031.525 108.721 16249.280 2829.685 14980.377 1043.811 2282.927 14344.905 3599.947 8568.230 1503.778 2779.266 13483.877 2479.114 17995.474 2015.282 4690.087 16369.828 2971.103 13085.043 15180.694 3305.955 1830.398 5029.925 14970.481 13737.111 3482.512 2255.383 2819.533 15316.228 2976.884 0.000 12740.392 9046.531 3247.600 15817.234 2701.938 7329.283 2825.251 14692.067 2397.041 4186.303 681.502 7930.153 12874.706 2731.936 6911.496 2518.550 1353.003 482.360 5346.721 2659.783 383.765 383.791 15793.878 7777.570 17461.188 15529.549 3993.688 15504.070 14624.479 3030.148 2634.676 17137.768 1259.614
12729.554 14487.100 3389.980 4658.250 12961.682 23421.587 28716.649 11800.520 11786.528 12847.100 14652.386 12790.971 13356.740 7173.225 12464.807 23150.661 6814.702 5874.508 10750.235 10086.886 10444.425 14439.955 28338.704 15515.139 9260.811 12173.998 28942.147 14126.348 14150.475 14117.289 14149.285 23393.429 13025.816 1497.419 24968.769 14190.329 13313.226 12633.749 26568.369 12357.354 25706.648 11776.937 12175.018 24093.005 10668.696 7190.674 12680.818 14047.134 20840.240 15158.592 30103.767 12187.180 9543.143 28653.283 10776.125 5805.587 25772.618 12477.790 14281.514 8587.207 26136.456 22859.871 9369.936 10749.357 10505.235 25656.045 10648.175 12740.392 0.000 6200.689 11438.354 27642.386 12407.133 6787.810 10873.174 27198.256 10344.243 10571.740 12441.914 4814.931 1648.009 10082.611 6691.320 12126.221 12060.304 13170.061 7686.357 11375.382 12437.252 12640.796 27097.829 6708.586 28810.809 26704.986 12915.844 26728.268 24867.708 10533.696 10904.375 28821.207 12365.614
8331.729 10887.474 7056.797 4861.146 8378.999 17384.958 23039.183 6940.733 7303.286 8123.651 9710.994 8001.359 9679.748 4338.999 10685.339 17131.343 7323.112 2716.103 6693.727 6720.346 6247.020 10927.593 22682.608 11152.085 5031.812 6801.874 24247.275 9332.580 10486.358 9249.732 9506.775 17376.157 8253.813 7096.305 19220.562 9126.596 8751.403 8941.889 20618.644 7501.924 19870.057 8391.849 7565.678 18079.583 8813.461 8734.122 8336.104 9268.773 14648.234 11044.376 24758.191 9487.718 4560.766 23465.043 8512.660 4042.014 19899.940 7432.905 10862.155 4017.018 23890.975 16777.580 5738.486 7874.330 6254.738 19726.735 6191.742 9046.531 6200.689 0.000 9412.517 24858.547 10034.137 7256.758 6395.112 22264.717 6957.957 5469.193 9065.801 4252.388 7408.314 7122.282 6656.672 7424.601 9005.752 9528.858 3984.134 6785.306 8885.699 9127.203 24754.455 1272.148 23111.823 24457.460 7624.662 24443.838 23236.481 6107.771 8432.135 26169.202 9280.115
4674.961 4005.810 8854.170 6804.702 5144.804 17142.846 20309.117 5553.325 4719.358 5431.769 6705.119 5570.191 3457.010 5152.638 1278.278 16796.360 5034.765 6956.802 3974.710 3074.039 4330.601 3848.077 19887.642 5979.070 4922.604 6890.139 18478.862 6086.159 3878.799 6256.330 5752.172 16994.299 5597.210 10916.307 17118.648 6776.610 5214.255 3213.214 19438.247 5623.625 18132.225 2505.415 5030.911 17582.426 772.619 5860.163 4548.877 6012.757 16638.384 5288.125 20715.512 1313.274 6073.397 19004.374 912.469 13227.658 18348.132 6106.976 3606.744 5832.447 14846.610 16984.157 3957.039 1865.657 4410.067 18509.832 4765.864 3247.600 11438.354 9412.517 0.000 16216.963 1047.354 5026.501 4764.675 17161.629 2952.500 6106.538 2567.412 6807.472 11178.693 2458.768 4856.053 5230.655 1896.496 3308.135 5442.492 4945.533 2895.877 2877.920 15776.476 8199.850 20468.374 15417.922 6871.507 15426.705 13913.884 4734.254 1104.467 17420.896 2022.076
16762.675 13991.196 24846.210 23021.515 16870.970 20355.371 17602.793 18345.585 17741.258 17226.629 16308.303 17399.894 15190.644 21070.932 15186.097 20076.997 20989.419 22847.337 18173.256 18225.008 18628.289 13937.624 17282.932 14281.087 19826.770 19148.741 10305.043 16344.301 14397.617 16521.721 15995.940 20088.099 17173.870 27018.338 17415.664 16957.556 16533.067 15920.616 19921.352 17880.365 18410.574 16494.465 17595.499 20161.461 16981.661 21251.286 16723.541 16371.469 23141.511 14111.326 15185.680 15632.021 20458.123 13549.912 16942.349 28890.213 18811.527 18169.340 13996.522 20844.947 2731.450 20934.803 19177.371 17216.282 18630.218 19433.201 18747.186 15817.234 27642.386 24858.547 16216.963 0.000 15290.011 21000.201 18566.978 11546.840 17971.458 19780.869 15809.276 23006.098 27255.196 17964.823 20979.713 17793.534 15958.922 15335.104 21033.821 18269.649 15973.806 15732.799 2059.098 23587.395 17842.360 2540.700 18436.367 2380.493 5465.099 18815.357 16873.534 1403.248 15664.634
4278.495 3071.589 9884.935 7756.701 4734.881 16464.381 19403.638 5412.101 4547.972 5070.089 6116.222 5230.701 2737.577 5889.044 1209.981 16114.622 6077.919 7698.364 4051.068 3414.103 4470.008 2895.719 18980.506 5142.670 5285.891 6745.074 17439.531 5528.276 3004.973 5718.123 5152.700 16305.385 5211.781 11926.071 16283.568 6277.259 4733.239 2700.345 18652.558 5375.346 17315.034 2272.636 4786.663 16875.058 1796.935 6896.895 4153.741 5462.416 16184.372 4420.705 19732.913 746.212 6342.684 18008.300 1652.802 13933.823 17543.426 5864.778 2646.218 6264.515 14008.309 16349.362 4381.094 2183.313 4532.733 17730.394 4849.248 2701.938 12407.133 10034.137 1047.354 15290.011 0.000 6068.421 4799.153 16144.992 3225.962 6204.416 2048.074 7716.683 12193.119 2918.092 5877.564 5007.726 1498.859 2624.296 6051.721 4872.580 2418.377 2318.648 14920.537 8790.725 19567.603 14579.261 6601.346 14581.258 13205.903 4842.877 1625.071 16515.739 1459.165
8041.010 8734.931 3861.439 2699.478 8438.120 20463.151 24561.007 7914.900 7432.419 8520.946 10272.694 8561.440 7823.651 3725.154 5848.684 20139.249 68.652 4611.384 6238.126 5101.163 6207.625 8624.232 24150.761 10337.610 5629.509 8935.339 23398.972 9640.554 8492.505 9727.573 9474.225 20362.370 8722.086 6021.336 21101.029 10053.918 8693.033 7241.223 23171.674 8316.850 22022.107 6286.900 7868.314 21014.590 4273.944 1666.763 7943.187 9555.451 19020.864 9776.840 25324.183 6078.982 6687.347 23686.821 4619.723 10135.676 22180.932 8666.148 8412.451 5780.982 19390.532 20124.257 5004.295 5074.448 6305.465 22231.317 6635.827 7329.283 6787.810 7256.758 5026.501 21000.201 6068.421 0.000 6803.588 21954.725 5277.720 7428.253 6806.425 3133.620 6255.000 4701.216 679.675 7946.788 6233.313 7635.695 4635.771 7273.256 6955.584 7086.780 20362.625 6479.893 24697.584 19956.921 9369.243 19985.494 18079.900 6529.126 4869.422 22137.561 6508.371
1958.017 4584.844 9576.704 6686.291 2103.474 13662.132 18094.854 1111.764 939.126 1976.618 3799.523 1936.968 3410.610 3818.458 5881.562 13340.160 6857.035 5047.504 794.176 1941.563 600.152 4659.409 17698.818 4812.042 1613.093 2267.061 18156.584 3253.878 4176.354 3254.729 3291.937 13564.915 2160.912 10989.522 14487.506 3409.656 2467.653 2734.176 16434.362 1567.563 15352.047 2571.793 1302.178 14222.324 4637.976 8358.525 1949.153 3174.210 12389.485 4651.896 19262.851 4068.443 1891.148 17783.960 3993.280 10429.536 15484.980 1865.652 4642.382 2451.671 17787.658 13322.516 1811.358 2922.991 500.105 15495.329 225.721 2825.251 10873.174 6395.112 4764.675 18566.978 4799.153 6803.588 0.000 16339.500 1924.462 1418.670 3086.712 6254.431 11312.782 2590.693 6207.291 1267.183 3353.888 3291.315 3187.011 513.248 2790.798 3023.325 18601.586 5152.668 18211.374 18345.089 2571.480 18317.242 17437.638 339.613 3693.919 19903.101 3524.476
14470.730 13231.538 25493.982 22803.570 14240.954 10256.761 6057.460 15489.589 15416.144 14379.920 12625.635 14455.052 14150.150 20046.893 16881.397 10085.987 21980.488 21384.558 16457.507 17245.722 16753.833 13357.399 5747.556 11743.189 17951.493 15463.584 2434.542 13102.127 13462.249 13135.643 13051.827 9999.709 14211.269 27193.581 6708.352 13165.522 13886.162 14789.700 8790.308 14919.471 7454.779 15729.250 15038.600 9806.552 17821.900 23007.598 14523.287 13178.117 14075.862 12213.523 4107.563 15943.424 17870.693 2237.093 17363.991 26027.443 7848.473 14889.856 13583.630 18719.307 13461.285 11058.849 17854.241 16914.604 16693.599 8528.857 16565.204 14692.067 27198.256 22264.717 17161.629 11546.840 16144.992 21954.725 16339.500 0.000 17004.738 16871.954 15159.817 22472.819 27505.321 17420.528 21584.617 15106.725 15721.640 14340.383 19518.864 15846.739 15047.915 14892.793 13342.609 21171.154 6296.888 13629.147 14640.096 13476.279 15640.114 16677.640 17092.480 12623.642 15450.033
2763.983 4188.867 8511.448 5811.924 3163.523 15291.911 19301.609 2912.929 2240.161 3274.560 4995.559 3338.193 3021.277 3224.272 4160.860 14960.018 5321.847 4912.993 1150.310 262.336 1408.669 4172.349 18893.938 5262.122 2062.291 4177.638 18642.177 4362.840 3828.894 4452.176 4208.174 15176.921 3474.079 10205.087 15823.309 4804.411 3416.087 2289.969 17914.999 3180.475 16747.673 1494.328 2659.706 15814.313 2731.509 6714.938 2668.456 4277.732 14247.460 4832.708 20192.707 2583.047 3139.933 18615.370 2113.072 10949.663 16911.028 3604.568 4052.390 3058.593 16934.346 15010.307 1219.600 1092.551 1498.107 16974.837 1873.440 2397.041 10344.243 6957.957 2952.500 17971.458 3225.962 5277.720 1924.462 17004.738 0.000 3175.844 2186.428 5536.702 10511.979 680.129 4764.661 2782.784 2047.833 2838.123 3062.592 2246.127 2111.213 2330.972 17803.626 5691.136 19434.415 17501.355 4367.440 17489.214 16324.445 1821.824 1849.784 19260.112 2324.582
3019.457 5864.633 9722.969 6781.794 2968.038 13269.583 18158.905 1488.598 2055.611 2674.378 4259.980 2540.202 4734.970 3970.567 7262.189 12964.599 7488.500 4708.722 2156.940 3115.153 1776.194 5961.462 17776.682 5732.110 1798.746 1643.284 18803.366 3863.390 5457.282 3783.671 4050.078 13198.339 2791.976 10880.236 14447.240 3707.418 3333.211 4102.584 16214.747 2037.417 15238.810 3990.106 2192.794 13877.627 5901.063 9058.837 3057.634 3799.876 11592.630 5717.646 19569.413 5479.249 1028.951 18179.647 5288.501 9432.590 15336.239 1983.066 5970.027 2016.714 19092.191 12846.358 2577.058 4243.029 1697.036 15283.805 1356.271 4186.303 10571.740 5469.193 6106.538 19780.869 6204.416 7428.253 1418.670 16871.954 3175.844 0.000 4496.348 6255.088 11210.307 3784.967 6781.165 2012.516 4770.910 4634.686 3125.033 1540.041 4188.022 4414.838 19887.091 4311.295 18258.755 19645.607 2344.289 19612.913 18810.399 1374.394 5013.802 21131.716 4943.011
2232.266 2045.816 10369.621 7836.325 2686.863 14576.102 17919.180 3479.683 2618.761 3026.426 4141.715 3191.127 1018.783 5393.375 3256.370 14229.937 6835.426 7099.421 2475.827 2447.032 2941.029 2003.260 17501.612 3573.840 4048.930 4784.357 16679.437 3529.847 1729.004 3708.082 3185.781 14428.649 3164.592 12203.246 14633.588 4249.959 2694.829 659.510 16908.179 3370.451 15628.026 692.194 2794.425 15019.814 2945.849 7985.863 2108.193 3458.924 14150.857 2973.040 18530.017 1341.471 4870.350 16881.301 2338.548 13085.874 15832.970 3856.996 1868.511 5075.324 14848.645 14418.223 3372.111 1760.542 2970.764 15976.427 3199.889 681.502 12441.914 9065.801 2567.412 15809.276 2048.074 6806.425 3086.712 15159.817 2186.428 4496.348 0.000 7627.735 12499.169 2360.651 6425.314 3024.365 677.753 833.841 5238.818 3025.743 372.842 314.810 15697.300 7793.721 18069.592 15412.367 4575.624 15393.929 14381.954 3230.242 2014.622 17109.032 590.107
8015.732 9672.534 3501.499 648.815 8289.384 19496.457 24322.607 7272.969 7125.623 8222.227 10051.559 8191.286 8543.460 2442.569 7941.394 19198.001 3194.693 1922.979 6023.210 5281.482 5765.549 9627.212 23930.946 10748.281 4681.484 7898.042 24165.171 9486.915 9335.682 9503.444 9463.732 19434.014 8411.482 4740.974 20662.697 9652.572 8625.535 7823.997 22469.827 7800.592 21479.518 6962.023 7537.366 20118.215 6058.586 4498.429 7956.180 9404.687 17469.583 10363.024 25506.110 7430.072 5276.612 23998.488 6065.579 7031.297 21584.613 7998.653 9471.937 4253.828 21644.235 19035.900 4620.024 5947.955 5837.674 21538.661 6035.659 7930.153 4814.931 4252.388 6807.472 23006.098 7716.683 3133.620 6254.431 22472.819 5536.702 6255.088 7627.735 0.000 5061.682 5269.704 2642.460 7521.586 7259.573 8356.346 3145.219 6767.145 7623.343 7825.988 22580.447 3725.912 24433.024 22215.355 8546.541 22227.131 20585.526 5918.204 6157.053 24223.505 7565.343
13069.355 14535.224 2439.500 4702.284 13350.070 24307.081 29349.750 12314.961 12187.284 13283.096 15111.540 13249.676 13463.535 7504.189 12091.151 24023.160 6266.165 6532.651 11077.143 10265.947 10827.117 14464.463 28961.852 15765.139 9727.116 12846.299 29148.229 14548.596 14227.392 14564.192 14521.847 24263.350 13471.646 331.662 25657.137 14702.307 13684.088 12771.666 27376.044 12850.988 26443.183 11866.307 12598.645 24957.218 10407.541 6288.255 13006.415 14466.363 21927.968 15340.249 30567.771 12070.659 10196.655 29055.269 10616.825 7438.934 26531.387 13028.903 14284.400 9194.154 25616.519 23787.780 9670.439 10754.976 10899.343 26452.691 11092.735 12874.706 1648.009 7408.314 11178.693 27255.196 12193.119 6255.000 11312.782 27505.321 10511.979 11210.307 12499.169 5061.682 0.000 10153.560 6323.960 12579.843 12045.891 13273.312 8165.479 11824.852 12543.608 12728.224 26595.539 7705.119 29455.289 26180.664 13539.266 26213.467 24202.433 10975.507 10793.099 28388.756 12346.030
3362.147 4406.459 8073.539 5478.421 3783.006 15944.660 19859.797 3592.946 2910.500 3920.800 5601.125 3994.149 3310.035 3109.817 3716.152 15611.219 4741.471 4885.274 1827.552 670.145 2048.158 4357.567 19449.659 5701.641 2464.299 4851.452 19001.266 4962.661 4080.722 5065.130 4776.710 15826.619 4118.466 9854.336 16415.894 5443.141 4011.265 2632.238 18537.430 3854.637 17352.684 1712.759 3323.724 16460.038 2126.519 6089.164 3258.080 4878.121 14927.556 5210.237 20677.585 2377.862 3632.164 19075.321 1565.488 11054.409 17522.549 4283.140 4204.116 3385.614 16830.169 15672.687 1500.973 758.705 2142.912 17597.678 2522.914 2731.936 10082.611 7122.282 2458.768 17964.823 2918.092 4701.216 2590.693 17420.528 680.129 3784.967 2360.651 5269.704 10153.560 0.000 4226.527 3455.007 2022.993 3119.756 3147.434 2925.779 2390.991 2575.723 17719.170 5874.161 19996.494 17399.487 5047.041 17393.643 16114.231 2460.862 1370.928 19232.312 2326.403
7525.359 8400.510 4015.465 2308.641 7908.174 19868.838 24066.220 7318.876 6871.645 7971.137 9745.396 8002.651 7434.939 3045.707 5793.896 19547.387 747.012 3982.433 5674.416 4571.622 5615.948 8303.030 23658.336 9911.847 4983.570 8307.171 23079.389 9118.966 8135.852 9196.552 8972.701 19772.199 8172.279 6065.888 20573.280 9500.972 8176.973 6818.872 22611.430 7738.198 21481.302 5868.129 7308.695 20428.755 4086.156 2345.394 7432.303 9033.708 18371.573 9379.705 24897.838 5808.130 6022.030 23281.246 4341.949 9673.757 21633.198 8072.785 8101.825 5106.736 19445.215 19516.651 4398.973 4670.767 5712.201 21671.263 6032.220 6911.496 6691.320 6656.672 4856.053 20979.713 5877.564 679.675 6207.291 21584.617 4764.661 6781.165 6425.314 2642.460 6323.960 4226.527 0.000 7376.051 5887.346 7244.996 3957.388 6686.667 6545.716 6692.872 20406.796 5838.467 24199.024 20013.845 8763.600 20036.949 18221.354 5923.197 4556.809 22142.416 6173.843
1051.900 3973.379 10831.276 7949.884 958.873 12533.851 16836.571 556.325 545.830 727.275 2533.698 669.834 2945.999 5084.723 6184.569 12205.606 7996.875 6280.543 1710.500 2895.723 1795.371 4097.645 16439.219 3732.516 2868.048 1762.307 16957.784 2005.275 3575.929 1992.043 2098.013 12425.853 899.622 12256.448 13247.368 2154.492 1328.902 2464.557 15236.132 404.149 14126.540 2760.145 235.976 13072.428 5280.724 9453.578 1120.567 1928.638 11508.870 3707.688 17998.240 4263.532 2866.713 16527.278 4602.853 11421.592 14268.122 876.640 4147.157 3621.408 17170.964 12234.480 3023.268 3547.958 1709.576 14296.098 1487.535 2518.550 12126.221 7424.601 5230.655 17793.534 5007.726 7946.788 1267.183 15106.725 2782.784 2012.516 3024.365 7521.586 12579.843 3455.007 7376.051 0.000 3509.999 2891.123 4444.181 755.222 2659.906 2839.555 17946.187 6221.216 16954.968 17719.528 1646.044 17681.907 17001.663 1604.526 4265.706 19150.753 3579.122
2823.683 2513.463 9867.066 7422.503 3289.209 15250.790 18571.967 3914.973 3050.061 3604.123 4808.623 3757.275 1650.548 5129.836 2680.015 14904.960 6258.848 6889.861 2645.538 2288.261 3091.505 2423.924 18153.517 4217.881 4063.599 5246.538 17192.328 4190.685 2259.508 4363.295 3856.394 15104.235 3756.401 11756.486 15303.763 4892.572 3331.160 1316.739 17584.713 3880.860 16301.279 786.885 3290.464 15696.555 2274.791 7359.671 2697.532 4117.902 14779.045 3586.431 19138.001 753.574 5012.661 17473.808 1688.021 12992.010 16507.748 4370.372 2238.510 5081.258 14887.569 15087.821 3267.278 1311.671 3141.391 16653.251 3427.378 1353.003 12060.304 9005.752 1896.496 15958.922 1498.859 6233.313 3353.888 15721.640 2047.833 4770.910 677.753 7259.573 12045.891 2022.993 5887.346 3509.999 0.000 1477.965 5088.678 3388.749 1000.613 992.258 15759.997 7738.868 18724.194 15454.877 5112.999 15443.575 14296.457 3435.282 1382.185 17236.387 305.824
1919.072 1372.507 11171.558 8593.375 2308.756 13859.668 17094.853 3413.329 2611.533 2694.763 3495.728 2879.422 190.979 6060.794 3818.686 13511.300 7665.414 7711.427 2838.172 3099.540 3294.185 1398.739 16676.662 2743.469 4499.906 4628.201 15884.926 2922.032 993.479 3120.812 2532.748 13705.596 2790.676 12973.783 13832.187 3699.085 2209.719 587.484 16131.638 3170.887 14835.366 1407.065 2655.633 14285.730 3750.267 8818.800 1813.242 2860.815 13594.825 2141.325 17696.902 2012.747 5164.112 16051.142 3161.935 13567.226 15046.333 3632.166 1353.322 5512.283 14497.993 13730.199 3950.280 2574.339 3299.648 15202.486 3448.841 482.360 13170.061 9528.858 3308.135 15335.104 2624.296 7635.695 3291.315 14340.383 2838.123 4634.686 833.841 8356.346 13273.312 3119.756 7244.996 2891.123 1477.965 0.000 5817.912 3099.536 733.160 552.486 15317.935 8259.812 17246.640 15056.304 4281.996 15029.865 14178.200 3505.071 2843.973 16656.279 1288.801
5066.508 7189.404 6598.073 3657.152 5278.135 16392.005 21188.455 4151.058 4102.809 5162.255 6975.886 5111.577 5988.729 921.239 6719.387 16088.373 4702.103 1913.301 3126.919 2809.032 2776.409 7194.693 20798.902 7895.489 1576.156 4763.732 21304.547 6440.721 6808.071 6436.223 6467.052 16322.526 5343.103 7838.804 17518.614 6541.897 5633.368 5238.201 19333.073 4693.751 18334.574 4548.073 4488.678 17002.469 4879.238 6302.487 5027.458 6361.202 14556.620 7617.433 22439.499 5522.803 2191.069 20970.160 4536.815 7912.066 18441.082 4864.141 7092.870 1189.113 19964.517 15957.058 1871.372 3904.084 2829.960 18400.539 2962.239 5346.721 7686.357 3984.134 5442.492 21033.821 6051.721 4635.771 3187.011 19518.864 3062.592 3125.033 5238.818 3145.219 8165.479 3147.434 3957.388 4444.181 5088.678 5817.912 0.000 3691.142 5118.921 5352.109 20844.817 2757.433 21296.538 20533.018 5401.328 20524.502 19256.767 2847.463 4448.179 22320.250 5376.238
1548.660 4327.385 10087.729 7199.359 1629.287 13190.169 17582.547 669.320 529.538 1471.749 3288.808 1424.968 3195.988 4331.680 6001.006 12865.994 7325.408 5537.827 1102.163 2310.077 1072.881 4421.801 17186.253 4377.599 2115.119 1957.724 17679.650 2751.445 3919.477 2745.898 2810.253 13089.269 1652.243 11501.357 13979.698 2897.313 1999.718 2580.886 15939.455 1061.492 14848.534 2603.437 812.183 13743.142 4892.937 8810.109 1563.282 2672.937 12005.040 4268.072 18753.161 4129.377 2232.843 17279.137 4229.475 10806.280 14984.116 1398.277 4430.552 2904.079 17554.244 12864.321 2302.787 3154.078 979.851 15000.027 732.315 2659.783 11375.382 6785.306 4945.533 18269.649 4872.580 7273.256 513.248 15846.739 2246.127 1540.041 3025.743 6767.145 11824.852 2925.779 6686.667 755.222 3388.749 3099.536 3691.142 0.000 2694.784 2911.626 18352.713 5559.575 17699.466 18108.312 2137.987 18076.455 17277.699 849.370 3911.047 19614.921 3519.761
1860.463 2079.778 10453.437 7861.279 2316.985 14259.763 17697.464 3125.146 2269.105 2653.958 3810.344 2818.307 921.576 5335.453 3625.371 13914.719 6987.626 7002.597 2232.186 2373.274 2697.456 2075.822 17281.469 3384.737 3855.207 4421.496 16610.522 3190.384 1718.344 3362.761 2861.864 14115.452 2793.430 12243.334 14376.681 3895.373 2336.027 322.122 16627.064 3001.345 15361.500 681.988 2428.586 14711.971 3223.565 8185.838 1736.091 3117.370 13790.349 2835.443 18368.612 1703.571 4612.360 16737.584 2589.827 12916.727 15560.687 3487.058 1982.277 4877.671 15066.405 14090.233 3247.745 1881.293 2717.558 15693.516 2919.008 383.765 12437.252 8885.699 2895.877 15973.806 2418.377 6955.584 2790.798 15047.915 2111.213 4188.022 372.842 7623.343 12543.608 2390.991 6545.716 2659.906 1000.613 733.160 5118.921 2694.784 0.000 242.493 15903.787 7614.084 17844.740 15628.165 4203.308 15606.535 14651.243 2958.509 2252.069 17283.921 959.221
1987.277 1858.457 10620.072 8053.037 2430.514 14264.933 17612.376 3319.940 2471.601 2784.343 3837.186 2955.429 743.109 5554.206 3528.607 13918.513 7117.044 7231.632 2474.094 2593.307 2939.178 1844.961 17195.171 3273.586 4097.110 4601.586 16434.314 3230.191 1509.695 3412.266 2878.871 14116.772 2912.607 12429.735 14320.379 3962.049 2414.592 390.223 16593.379 3167.812 15313.883 864.963 2605.775 14706.917 3259.958 8285.022 1866.111 3160.697 13867.644 2690.422 18242.044 1632.931 4851.983 16600.279 2648.510 13157.526 15518.449 3649.552 1744.064 5119.866 14824.303 14110.626 3480.739 2022.116 2958.453 15661.617 3155.359 383.791 12640.796 9127.203 2877.920 15732.799 2318.648 7086.780 3023.325 14892.793 2330.972 4414.838 314.810 7825.988 12728.224 2575.723 6692.872 2839.555 992.258 552.486 5352.109 2911.626 242.493 0.000 15661.340 7855.493 17762.065 15385.975 4351.130 15364.231 14415.726 3196.667 2321.070 17042.208 877.275
16897.808 14026.367 24164.340 22538.687 17060.779 21698.698 19375.447 18502.480 17831.720 17436.141 16714.790 17617.921 15191.609 20791.908 14656.551 21404.596 20345.480 22593.172 18133.139 18047.873 18596.525 13942.659 19039.747 14622.463 19746.097 19417.265 12252.968 16671.959 14434.882 16864.428 16291.782 21434.172 17406.672 26376.216 18930.958 17347.008 16744.620 15892.028 21499.983 18077.556 19962.426 16364.371 17734.666 21558.981 16521.893 20459.571 16844.307 16688.989 24237.832 14350.065 17094.327 15347.481 20481.794 15410.934 16564.461 28752.004 20359.760 18409.232 13964.646 20772.294 1015.005 22224.772 19022.306 16961.293 18609.610 20959.752 18765.732 15793.878 27097.829 24754.455 15776.476 2059.098 14920.537 20362.625 18601.586 13342.609 17803.626 19887.091 15697.300 22580.447 26595.539 17719.170 20406.796 17946.187 15759.997 15317.935 20844.817 18352.713 15903.787 15661.340 0.000 23483.628 19614.968 551.134 18754.750 432.000 3566.138 18822.998 16537.681 2143.327 15479.045
7100.226 9620.421 6939.323 4372.649 7169.013 16714.352 22159.904 5756.818 6071.218 6931.024 8571.045 6818.000 8411.962 3224.224 9476.471 16445.466 6548.107 1881.601 5426.785 5455.881 4983.160 9658.457 21794.049 9935.696 3761.155 5743.291 23114.661 8162.372 9220.268 8091.846 8314.397 16688.626 7070.156 7378.712 18367.970 8007.870 7542.006 7672.623 19881.401 6324.279 19063.177 7120.277 6351.161 17389.078 7625.679 8049.000 7099.529 8095.447 14223.679 9804.549 23766.519 8231.404 3356.244 22429.695 7294.096 5307.687 19113.458 6292.337 9591.291 2750.284 22621.782 16152.186 4472.317 6622.303 4993.699 18975.179 4944.950 7777.570 6708.586 1272.148 8199.850 23587.395 8790.725 6479.893 5152.668 21171.154 5691.136 4311.295 7793.721 3725.912 7705.119 5874.161 5838.467 6221.216 7738.868 8259.812 2757.433 5559.575 7614.084 7855.493 23483.628 0.000 22241.802 23187.995 6550.393 23173.839 21985.835 4857.406 7198.916 24897.293 8011.532
16675.502 16496.126 27786.223 24892.972 16307.789 6838.560 239.641 17162.627 17406.829 16291.591 14475.906 16292.981 17074.446 22019.224 20545.701 6891.846 24737.939 22966.342 18588.330 19630.641 18747.981 16676.093 630.336 14509.325 19752.976 16639.649 8015.262 15090.192 16590.316 15029.126 15226.937 6682.120 16093.625 29126.704 3902.509 14802.290 16024.922 17536.160 3773.493 16647.571 3497.737 18477.153 16974.992 6110.522 20989.412 26022.519 16766.978 15175.378 11088.580 15181.014 3660.887 19159.743 19282.681 4508.923 20407.412 26373.673 3656.395 16434.535 16928.051 20269.013 19686.924 7737.001 19967.368 19687.254 18664.121 4182.039 18422.561 17461.188 28810.809 23111.823 20468.374 17842.360 19567.603 24697.584 18211.374 6296.888 19434.415 18258.755 18069.592 24433.024 29455.289 19996.494 24199.024 16954.968 18724.194 17246.640 21296.538 17699.466 17844.740 17762.065 19614.968 22241.802 0.000 19882.626 15919.771 19732.478 21740.633 18540.105 20083.129 18915.562 18511.780
16669.095 13781.106 23746.826 22161.809 16845.179 21802.938 19643.364 18275.774 17590.125 17224.605 16555.017 17408.116 14934.648 20460.202 14281.545 21503.949 19938.551 22264.809 17859.810 17743.042 18324.315 13690.393 19301.178 14451.706 19460.575 19216.613 12614.926 16491.979 14188.840 16687.836 16104.639 21539.663 17201.011 25964.815 19098.556 17181.333 16535.157 15626.215 21687.693 17861.620 20141.943 16073.678 17505.131 21681.761 16157.789 20024.528 16612.199 16506.379 24259.739 14154.054 17429.061 15023.997 20219.610 15723.625 16217.818 28444.022 20537.454 18203.272 13703.458 20487.126 571.324 22310.655 18720.842 16640.943 18340.002 21128.796 18505.114 15529.549 26704.986 24457.460 15417.922 2540.700 14579.261 19956.921 18345.089 13629.147 17501.355 19645.607 15412.367 22215.355 26180.664 17399.487 20013.845 17719.528 15454.877 15056.304 20533.018 18108.312 15628.165 15385.975 551.134 23187.995 19882.626 0.000 18567.919 163.489 3016.719 18559.690 16200.255 2691.795 15177.643
2374.013 5107.654 11976.142 9044.063 1978.323 11110.714 15818.096 1471.454 2179.318 1587.235 2222.098 1404.030 4287.990 6183.663 7793.003 10792.996 9423.572 7051.870 3236.671 4445.875 3171.353 5272.691 15434.584 4155.910 3910.008 829.785 16641.426 2092.479 4750.727 1917.286 2463.421 11020.609 1508.250 13209.978 12121.232 1575.210 2165.294 3962.110 13953.669 1248.180 12933.773 4385.417 1840.664 11685.651 6924.819 10930.005 2490.147 2068.829 9883.318 4419.331 17243.717 5863.309 3372.701 15881.345 6247.726 11452.938 13043.877 772.988 5379.899 4349.269 18033.612 10755.078 4366.016 5188.798 3071.575 13017.983 2733.423 3993.688 12915.844 7624.662 6871.507 18436.367 6601.346 9369.243 2571.480 14640.096 4367.440 2344.289 4575.624 8546.541 13539.266 5047.041 8763.600 1646.044 5112.999 4281.996 5401.328 2137.987 4203.308 4351.130 18754.750 6550.393 15919.771 18567.919 0.000 18518.002 18071.354 2840.867 5911.444 19817.833 5151.753
16632.034 13749.072 23780.745 22178.331 16803.976 21680.478 19493.173 18238.214 17557.309 17182.164 16496.882 17365.151 14906.632 20459.012 14296.826 21382.457 19967.657 22262.460 17837.597 17731.835 18301.757 13660.657 19151.852 14396.549 19442.677 19170.962 12454.459 16439.810 14157.118 16634.675 16054.585 21416.940 17156.739 25996.075 18964.000 17124.989 16492.002 15601.247 21549.780 17820.615 20005.361 16057.317 17468.411 21555.644 16168.832 20066.387 16576.222 16455.001 24155.054 14106.461 17271.078 15019.347 20193.795 15567.839 16222.024 28434.451 20401.206 18159.181 13676.701 20469.168 600.818 22191.955 18708.502 16635.284 18316.561 20994.086 18478.655 15504.070 26728.268 24443.838 15426.705 2380.493 14581.258 19985.494 18317.242 13476.279 17489.214 19612.913 15393.929 22227.131 26213.467 17393.643 20036.949 17681.907 15443.575 15029.865 20524.502 18076.455 15606.535 15364.231 432.000 23173.839 19732.478 163.489 18518.002 0.000 3156.382 18534.138 16200.936 2572.756 15164.982
15957.529 13035.301 21763.822 20456.312 16208.558 22845.068 21504.495 17548.674 16784.800 16605.193 16250.158 16795.714 14088.032 19059.635 12689.355 22524.127 18053.470 20867.762 16856.983 16546.352 17321.295 12904.204 21134.834 14130.802 18360.049 18629.586 14960.895 16071.522 13427.343 16283.252 15650.233 22590.715 16616.757 24010.438 20485.017 16830.660 15940.821 14709.970 23147.790 17205.226 21575.885 14993.995 16773.677 22818.993 14604.188 17947.553 15881.338 16070.333 24851.827 13693.467 19612.254 13756.977 19252.240 17824.409 14778.033 27129.615 21958.678 17600.325 12861.923 19376.299 2733.739 23254.103 17531.216 15363.651 17352.693 22501.992 17570.234 14624.479 24867.708 23236.481 13913.884 5465.099 13205.903 18079.900 17437.638 15640.114 16324.445 18810.399 14381.954 20585.526 24202.433 16114.231 18221.354 17001.663 14296.457 14178.200 19256.767 17277.699 14651.243 14415.726 3566.138 21985.835 21740.633 3016.719 18071.354 3156.382 0.000 17607.630 14820.706 5687.096 14048.553
2277.018 4824.982 9250.839 6354.709 2439.439 13947.213 18424.540 1407.574 1269.512 2316.109 4137.805 2274.322 3635.209 3484.479 5888.734 13627.271 6583.842 4710.951 792.902 1794.630 413.722 4888.967 18029.215 5132.657 1274.141 2463.193 18490.306 3593.489 4417.914 3593.706 3628.552 13853.317 2499.844 10651.987 14809.415 3740.434 2801.691 2933.861 16740.980 1892.741 15668.345 2667.434 1641.432 14513.844 4553.317 8100.501 2260.632 3513.796 12604.639 4952.046 19601.678 4125.680 1660.103 18123.567 3927.425 10146.826 15798.160 2162.488 4858.353 2136.404 18000.499 13595.721 1525.186 2873.107 325.237 15802.437 117.667 3030.148 10533.696 6107.771 4734.254 18815.357 4842.877 6529.126 339.613 16677.640 1821.824 1374.394 3230.242 5918.204 10975.507 2460.862 5923.197 1604.526 3435.282 3505.071 2847.463 849.370 2958.509 3196.667 18822.998 4857.406 18540.105 18559.690 2840.867 18534.138 17607.630 0.000 3645.132 20146.186 3628.890
3842.005 3865.831 8561.426 6246.347 4308.458 16451.204 19933.271 4541.180 3735.629 4552.216 5991.634 4672.180 3023.040 4264.150 2346.067 16109.162 4892.443 6073.304 2900.183 1970.489 3237.904 3755.858 19515.900 5587.243 3827.618 5867.216 18534.128 5354.865 3635.071 5503.160 5069.657 16314.439 4731.464 10512.629 16628.723 5979.893 4434.815 2570.059 18870.977 4666.701 17612.570 1688.987 4082.335 16921.806 1027.041 5978.705 3719.197 5275.943 15750.835 4967.346 20520.183 1284.003 4969.853 18854.406 350.034 12312.584 17809.831 5139.743 3548.246 4756.226 15629.474 16247.737 2871.622 772.575 3320.094 17936.190 3682.088 2634.676 10904.375 8432.135 1104.467 16873.534 1625.071 4869.422 3693.919 17092.480 1849.784 5013.802 2014.622 6157.053 10793.099 1370.928 4556.809 4265.706 1382.185 2843.973 4448.179 3911.047 2252.069 2321.070 16537.681 7198.916 20083.129 16200.255 5911.444 16200.936 14820.706 3645.132 0.000 18112.673 1642.696
18115.858 15321.358 25968.883 24219.286 18233.389 21659.951 18676.581 19704.006 19087.393 18592.449 17697.781 18767.153 16515.552 22332.395 16356.402 21387.040 22124.196 24117.527 19493.073 19511.544 19950.456 15261.283 18371.182 15661.939 21139.033 20524.426 11204.257 17725.394 15728.916 17904.700 17372.798 21392.097 18543.114 28158.894 18656.404 18345.797 17898.545 17240.137 21124.955 19244.864 19631.239 17790.756 18950.232 21447.216 18180.257 22322.713 18074.138 17751.364 24506.503 15478.165 16117.922 16884.616 21793.735 14549.343 18168.297 30194.814 20033.289 19540.415 15312.101 22160.006 3118.796 22255.444 20470.748 18480.067 19954.832 20664.725 20080.212 17137.768 28821.207 26169.202 17420.896 1403.248 16515.739 22137.561 19903.101 12623.642 19260.112 21131.716 17109.032 24223.505 28388.756 19232.312 22142.416 19150.753 17236.387 16656.279 22320.250 19614.921 17283.921 17042.208 2143.327 24897.293 18915.562 2691.795 19817.833 2572.756 5687.096 20146.186 18112.673 0.000 16945.201
2819.418 2228.410 10159.961 7726.715 3275.992 15127.732 18357.379 4012.765 3147.076 3611.782 4712.463 3774.002 1446.104 5431.145 2666.567 14780.481 6532.553 7186.692 2846.672 2570.323 3301.643 2130.594 17937.954 4002.610 4315.911 5332.114 16905.908 4107.387 1993.654 4289.352 3752.446 14977.047 3752.618 12057.389 15117.540 4836.359 3283.571 1247.498 17420.253 3935.870 16123.202 961.981 3352.894 15562.410 2477.764 7606.341 2694.785 4037.972 14739.421 3349.531 18887.199 755.717 5231.491 17214.973 1928.810 13273.857 16334.955 4424.273 1939.331 5337.796 14610.940 14981.512 3543.557 1617.403 3345.257 16490.858 3613.019 1259.614 12365.614 9280.115 2022.076 15664.634 1459.165 6508.371 3524.476 15450.033 2324.582 4943.011 590.107 7565.343 12346.030 2326.403 6173.843 3579.122 305.824 1288.801 5376.238 3519.761 959.221 877.275 15479.045 8011.532 18511.780 15177.643 5151.753 15164.982 14048.553 3628.890 1642.696 16945.201 0.000
NODE_COORD_SECTION
1 27567.380647 -311.862562
2 25516.626763 1773.205196
3 22285.304200 -10175.421527
4 24299.718521 -8032.141401
5 28021.440090 -189.892032
6 38386.082984 6227.564734
7 37346.094945 13033.736459
8 28558.042888 -1577.658353
9 27728.652337 -1328.204867
10 28358.643486 -407.949272
11 29203.365749 1216.734302
12 28516.750816 -516.909152
13 25855.219219 611.730041
14 25878.937527 -5630.525332
15 22085.566096 -467.379640
16 38041.607225 6142.353238
17 22148.545265 -6311.538716
18 26737.923929 -7224.134977
19 26894.992416 -2187.621195
20 25786.080172 -2669.799275
21 27165.749578 -2566.816002
22 25303.640828 1738.417634
23 37001.078904 12782.381627
24 27546.013525 2543.699329
25 27265.678962 -3823.897249
26 29888.849311 -1733.644538
27 30044.657523 15736.304640
28 28692.165652 827.837520
29 25723.168561 1420.423125
30 28901.442462 752.638737
31 28271.166305 973.048146
32 38153.023551 6361.117608
33 28500.207366 -264.978993
34 23128.408401 -12266.563631
35 36413.824345 9296.542510
36 29491.269348 625.744265
37 27993.176418 182.038358
38 25980.903404 -128.364264
39 39095.792163 9561.096481
40 28622.625663 -1009.905598
41 37519.987465 9521.948438
42 25481.059087 -941.327686
43 28028.714568 -1010.260525
44 38494.644633 6976.597640
45 23049.514235 -2122.480258
46 20593.141732 -6689.767955
47 27442.719656 -332.324126
48 28638.924139 761.233887
49 39293.751134 2062.901473
50 26829.106518 2306.104128
51 34959.644122 15570.172265
52 24016.409736 -507.983313
53 28483.938058 -3980.549104
54 33358.318868 14588.511893
55 23705.244014 -1941.100512
56 30362.669206 -12346.342503
57 37895.273696 9375.845135
58 29109.449549 -1061.198958
59 25098.920450 1588.871607
60 27772.818783 -4716.435308
61 17903.040301 12589.949060
62 38615.333586 5350.947567
63 26343.064931 -3482.688620
64 24781.048851 -1935.504361
65 27259.316149 -2528.392149
66 38408.842071 8918.928974
67 27637.818414 -2487.007469
68 25971.726443 -20.030792
69 24566.835745 -12682.726756
70 29138.869856 -8494.045818
71 23009.349029 -1350.905791
72 19808.470571 14547.026470
73 23288.989012 -341.573751
74 22217.129886 -6314.584021
75 27685.258601 -2266.328078
76 31321.454020 13663.435225
77 25766.035552 -2408.230442
78 28880.224924 -3030.972342
79 25335.615333 -264.586822
80 24930.820754 -7881.573179
81 22925.985008 -12529.288247
82 25118.163490 -2615.200704
83 22887.984345 -6205.441955
84 28235.109018 -1124.655351
85 24761.001558 -623.986255
86 25797.382212 429.719899
87 26742.930207 -5310.840943
88 27932.891369 -1816.771068
89 25706.970878 -297.844113
90 25593.248724 -83.671123
91 17978.985960 13602.108620
92 28616.303981 -7334.181910
93 37585.286741 13019.075832
94 17702.943282 13125.087225
95 29866.318544 -904.165272
96 17853.538518 13188.724125
97 15973.775738 10653.130291
98 27578.884119 -2588.851942
99 24021.923064 -1791.974956
100 18841.723311 15564.132102
101 24747.970654 -318.439963
DEMAND_SECTION
1 0
2 7
3 8
4 10
5 5
6 7
7 10
8 8
9 3
10 69
11 81
12 4
13 4
14 7
15 3
16 65
17 5
18 3
19 4
20 60
21 2
22 7
23 3
24 9
25 3
26 6
27 9
28 4
29 1
30 4
31 7
32 8
33 60
34 6
35 75
36 8
37 7
38 7
39 7
40 3
41 3
42 9
43 8
44 3
45 4
46 5
47 8
48 10
49 4
50 68
51 7
52 7
53 4
54 8
55 4
56 4
57 9
58 3
59 9
60 74
61 5
62 1
63 4
64 10
65 4
66 5
67 91
68 3
69 92
70 4
71 4
72 10
73 10
74 4
75 9
76 10
77 2
78 3
79 3
80 3
81 9
82 4
83 2
84 7
85 4
86 1
87 2
88 7
89 5
90 5
91 10
92 9
93 2
94 9
95 5
96 8
97 8
98 9
99 4
100 6
101 8
DEPOT_SECTION
1
-1
EOF
