NAME : mamut-tokyo-n10-poi
COMMENT : Mamut2026 fastest metric; city tokyo; 3-decimal seconds/meters; ENU ref in mamut-tokyo-n10-poi.vrp.json
TYPE : CVRP
DIMENSION : 11
EDGE_WEIGHT_TYPE : EXPLICIT
EDGE_WEIGHT_FORMAT : FULL_MATRIX
CAPACITY : 81
EDGE_WEIGHT_SECTION
0.000 90.407 692.740 610.928 188.897 230.064 540.615 206.401 283.104 75.057 292.139
94.982 0.000 710.488 628.676 216.045 254.357 558.363 228.490 244.466 53.370 253.501
693.344 710.933 0.000 178.470 674.703 814.977 188.645 869.194 744.982 681.318 746.895
604.434 622.023 184.882 0.000 585.793 726.068 110.877 780.284 656.073 592.409 657.985
184.306 208.230 671.787 589.975 0.000 166.167 519.662 282.031 357.595 178.616 359.507
229.975 254.163 821.069 739.257 177.603 0.000 668.944 236.102 421.635 276.810 427.138
553.000 570.589 176.590 94.778 534.359 674.633 0.000 728.850 604.638 540.975 606.551
182.599 203.899 845.075 763.263 263.269 213.905 692.950 0.000 350.533 239.161 343.490
280.829 242.974 731.566 649.754 348.064 422.128 579.441 375.584 0.000 236.646 47.069
73.408 48.843 678.076 596.264 183.633 270.080 525.951 258.412 236.145 0.000 245.179
286.024 248.168 745.655 663.843 362.153 423.500 593.530 368.179 41.138 241.840 0.000
NODE_COORD_SECTION
1 -2164.012052 1974.697434
2 -2368.539979 2915.978558
3 9776.578345 10419.041124
4 8331.450764 7800.840154
5 -322.013761 -202.150546
6 -2927.457662 -1444.524479
7 7514.637438 8013.310529
8 -5883.661613 1377.121806
9 -2548.544214 5788.997489
10 -1610.435490 2670.890212
11 -2767.872459 5965.912599
DEMAND_SECTION
1 0
2 2
3 7
4 9
5 4
6 4
7 7
8 4
9 5
10 5
11 5
DEPOT_SECTION
1
-1
EOF
