NAME : mamut-san_francisco-n10-hyb
COMMENT : Mamut2026 shortest metric; city san_francisco; 3-decimal seconds/meters; ENU ref in mamut-san_francisco-n10-hyb.vrp.json
TYPE : CVRP
DIMENSION : 11
EDGE_WEIGHT_TYPE : EXPLICIT
EDGE_WEIGHT_FORMAT : FULL_MATRIX
CAPACITY : 116
EDGE_WEIGHT_SECTION
0.000 18215.889 1925.827 1321.744 5050.246 3394.287 6058.565 20572.127 7363.416 9852.287 2451.674
18359.186 0.000 16717.844 19387.745 17377.390 19902.131 13080.890 32833.176 12892.406 12349.120 17919.919
1705.611 16317.150 0.000 2734.170 5226.554 3599.369 4322.982 20777.209 5456.187 7945.058 1979.926
1071.516 18849.942 2559.881 0.000 4320.186 2299.664 6692.619 19496.463 7997.470 10486.341 3085.727
4912.358 16936.181 5243.217 4405.272 0.000 4003.456 7031.947 16605.916 9432.787 11761.397 6921.638
3202.454 19500.166 3600.429 2186.502 3972.620 0.000 7097.347 17200.311 8740.565 11229.436 5214.806
5841.302 12682.677 4313.536 6869.862 6868.601 7111.138 0.000 22997.177 2648.468 4927.910 5981.356
20374.612 32261.469 20763.686 19364.423 16550.796 17178.210 22978.978 0.000 25216.098 27533.213 22386.964
7116.326 12534.411 5474.985 8144.886 9290.995 8743.838 2693.788 25325.656 0.000 2866.695 5738.989
9602.550 11974.551 7961.208 10631.109 11702.162 11230.062 5152.903 27585.397 2866.695 0.000 7984.382
2441.717 17480.839 1995.591 3341.866 6883.058 5235.796 5945.726 22413.636 5947.630 8128.147 0.000
NODE_COORD_SECTION
1 27567.380647 -311.862562
2 20831.002691 -14847.357619
3 26891.010382 -1590.959804
4 27333.686637 660.934190
5 23279.790117 -188.085604
6 25967.423830 1422.654733
7 25899.240267 -4937.538420
8 15887.273135 10474.539508
9 27162.886353 -6164.339083
10 27370.074981 -8270.698289
11 28698.407123 -1824.151764
DEMAND_SECTION
1 0
2 1
3 50
4 6
5 5
6 84
7 1
8 7
9 98
10 73
11 1
DEPOT_SECTION
1
-1
EOF
