NAME : poryos-hong_kong-n10-poi
COMMENT : Poryos2026 shortest metric; city hong_kong; 3-decimal seconds/meters; ENU ref in poryos-hong_kong-n10-poi.vrp.json
TYPE : CVRP
DIMENSION : 11
EDGE_WEIGHT_TYPE : EXPLICIT
EDGE_WEIGHT_FORMAT : FULL_MATRIX
CAPACITY : 124
EDGE_WEIGHT_SECTION
0.000 9927.460 8934.111 8733.458 18570.626 13104.998 4532.366 3534.656 4868.449 3276.419 5790.533
9770.129 0.000 15846.116 15645.464 20528.050 20017.003 7565.388 11886.654 10526.127 11628.417 11425.289
9238.983 16214.401 0.000 1631.922 26304.252 5491.833 9395.015 8465.980 5953.985 8207.743 5866.036
9299.672 16275.090 2226.557 0.000 26364.941 7361.152 9455.704 8526.668 6014.674 8268.431 5926.724
18904.667 20771.761 26304.043 26103.391 0.000 26936.098 21464.080 19835.104 22238.382 19576.867 23160.466
14386.631 21362.049 6149.107 7283.288 27325.595 0.000 14542.663 12989.547 11101.633 12731.310 11013.684
4426.765 9837.891 8549.338 8348.685 21965.328 12720.225 0.000 4820.545 3171.014 4562.308 4301.555
3264.208 11840.636 7753.381 7552.729 18657.307 11523.697 5021.250 0.000 4114.645 550.547 4819.068
5123.401 11226.596 5996.383 5795.731 22273.701 10167.270 4577.097 4774.967 0.000 4516.730 1334.237
3440.493 12016.921 7929.666 7729.014 18823.121 11699.982 5197.535 285.122 4290.930 0.000 4995.353
5815.367 11861.745 5916.251 5715.598 22965.666 10087.138 5294.451 5307.663 1460.463 5049.426 0.000
NODE_COORD_SECTION
1 1438.942575 -1211.855723
2 -4415.099914 1944.501146
3 2778.714044 -8100.253578
4 1443.277292 -8294.407818
5 606.034796 10526.327715
6 6561.511056 -7289.594582
7 -181.747946 -2709.100330
8 3257.491473 -2677.133727
9 1031.663679 -5147.375549
10 3329.414601 -2450.566266
11 1505.217621 -5856.468499
DEMAND_SECTION
1 0
2 7
3 84
4 5
5 2
6 9
7 79
8 100
9 1
10 92
11 7
DEPOT_SECTION
1
-1
EOF
