NAME : mamut-lyon-n50-hyb
COMMENT : Mamut2026 fastest metric; city lyon; 3-decimal seconds/meters; ENU ref in mamut-lyon-n50-hyb.vrp.json
TYPE : CVRP
DIMENSION : 51
EDGE_WEIGHT_TYPE : EXPLICIT
EDGE_WEIGHT_FORMAT : FULL_MATRIX
CAPACITY : 159
EDGE_WEIGHT_SECTION
0.000 165.787 277.268 117.501 223.561 268.454 75.787 89.869 221.220 155.891 98.944 195.384 105.156 270.149 225.035 361.323 101.663 273.877 97.640 104.617 333.632 183.918 192.139 82.290 249.803 378.979 114.805 174.713 170.985 105.207 249.228 190.513 116.864 307.929 222.046 232.218 297.157 211.724 237.370 218.408 171.303 178.816 331.224 348.462 403.710 228.435 95.153 78.763 254.392 424.924 135.182
229.680 0.000 477.911 252.862 424.205 450.207 258.814 287.683 402.973 227.736 299.587 396.027 306.160 372.816 322.858 460.134 220.896 454.717 285.810 305.260 405.477 255.763 127.290 160.429 357.784 392.293 295.645 329.991 371.628 289.991 431.521 334.063 297.704 508.572 358.027 368.420 310.700 392.565 309.215 316.230 297.280 250.661 354.859 446.284 348.167 317.405 252.169 259.603 337.860 369.380 335.825
279.024 442.502 0.000 387.083 121.009 297.088 288.106 292.132 223.588 387.248 245.457 180.341 346.676 455.239 502.532 438.923 324.100 303.419 272.420 275.518 558.028 408.315 468.855 359.006 463.335 656.476 370.146 374.933 189.709 256.554 329.191 375.602 372.205 30.661 333.192 395.033 528.514 301.259 461.767 495.905 393.740 403.213 608.721 572.154 656.196 447.116 317.200 334.104 531.888 677.410 243.830
133.419 225.621 381.650 0.000 327.944 318.837 121.027 194.251 271.603 171.660 165.822 284.575 212.371 360.503 310.545 447.820 108.511 381.091 148.023 208.999 343.830 194.116 223.290 120.217 261.709 464.488 222.019 186.619 260.175 152.204 299.611 297.727 224.078 412.311 245.965 244.124 312.926 318.939 247.568 303.917 183.209 189.014 416.733 433.971 463.544 240.341 107.059 185.977 339.901 484.758 216.260
158.015 321.494 126.797 273.208 0.000 251.921 180.059 171.123 178.421 300.881 149.849 135.174 225.668 334.230 381.523 410.976 237.733 288.536 179.025 154.509 471.661 321.948 347.846 237.997 385.873 535.467 249.137 310.783 144.542 170.187 284.024 254.593 251.196 157.458 288.025 349.866 442.147 180.250 375.400 374.896 307.373 316.846 487.712 491.717 535.188 364.504 230.833 213.095 410.880 556.401 152.745
244.650 390.371 278.679 314.389 237.211 0.000 215.412 259.122 126.275 314.554 172.763 165.855 313.666 405.592 468.158 482.339 251.406 394.892 199.726 242.508 432.798 335.621 405.156 306.874 334.267 622.102 337.136 266.908 141.456 183.860 96.400 325.955 339.195 309.340 224.636 286.477 455.820 311.885 381.621 461.530 305.554 330.519 574.347 563.079 621.822 319.184 244.506 301.094 497.514 643.036 173.566
29.988 175.708 277.603 127.423 223.897 227.326 0.000 90.204 180.092 165.813 74.312 193.064 126.405 298.610 253.496 376.285 111.585 288.839 56.512 104.952 343.553 193.840 202.061 92.212 259.725 407.440 143.265 184.635 168.665 64.079 208.100 218.973 145.324 308.264 198.281 242.140 307.079 226.105 247.292 246.868 181.225 188.738 359.684 376.922 407.160 238.356 105.075 107.223 282.852 428.374 124.749
84.894 238.554 280.748 200.868 227.041 280.926 109.721 0.000 225.071 229.403 102.424 198.864 101.862 249.903 251.497 341.077 185.030 253.631 123.839 108.097 407.143 257.430 265.026 162.096 333.170 405.440 107.484 258.081 174.465 131.406 275.426 170.266 96.617 311.409 265.607 315.585 370.669 157.631 310.882 239.992 254.671 252.328 357.685 374.923 450.445 311.802 178.520 58.516 280.853 468.046 138.662
196.165 341.886 214.116 265.905 172.647 124.981 166.927 210.637 0.000 266.070 124.278 117.371 265.181 357.108 419.673 433.854 202.921 346.408 151.242 194.023 436.850 287.136 356.672 258.389 341.206 573.617 288.651 252.804 92.971 135.376 167.948 277.471 290.710 244.776 211.063 272.905 407.335 263.400 340.588 413.046 272.562 282.034 525.862 514.594 573.338 324.988 196.022 252.609 449.030 594.551 125.081
154.226 226.997 371.577 130.375 330.109 293.016 153.790 215.057 245.782 0.000 198.586 258.753 232.778 361.879 311.921 449.197 67.006 401.498 180.786 229.805 248.285 98.572 152.004 121.594 200.593 465.865 242.426 177.790 234.354 184.967 274.330 318.134 244.485 402.238 200.836 211.229 141.266 339.346 152.024 305.293 140.089 93.470 418.110 435.347 464.921 160.214 141.345 206.384 341.277 486.135 244.530
98.995 244.716 256.804 196.430 203.097 215.641 103.281 113.467 168.407 205.839 0.000 151.493 168.011 285.484 322.503 362.230 142.690 274.784 66.554 96.853 376.619 226.905 271.068 161.220 290.831 476.447 191.481 215.741 127.093 75.145 209.425 205.847 193.540 287.465 209.347 271.188 347.104 205.273 280.358 315.876 212.331 221.803 428.692 442.970 476.168 269.462 135.791 155.439 351.860 497.381 50.437
196.241 341.961 170.787 278.645 129.319 187.430 179.668 210.713 115.628 278.810 137.019 0.000 265.257 355.485 419.749 432.231 215.662 315.339 163.982 194.099 449.590 299.877 368.314 258.465 354.897 573.693 288.727 266.495 67.900 148.116 220.753 275.848 290.785 201.448 224.754 286.595 420.076 261.777 353.329 413.121 285.302 294.775 525.937 512.971 573.413 338.678 208.762 252.685 449.105 594.627 135.392
82.210 226.657 300.782 198.184 247.076 291.969 107.037 62.414 244.735 217.507 122.458 218.898 0.000 250.932 239.600 342.106 182.346 254.660 121.155 128.131 395.247 245.534 253.130 150.199 330.486 393.544 95.588 255.396 194.499 128.722 272.742 171.296 97.647 331.443 262.923 312.901 358.773 192.507 298.986 232.973 251.986 240.432 345.789 363.027 438.549 307.175 175.836 59.546 268.957 456.150 158.696
275.276 329.221 414.383 345.197 360.676 415.495 299.692 263.068 359.640 320.071 269.481 333.433 295.534 0.000 241.859 271.442 313.231 255.332 298.658 271.770 497.811 348.098 355.694 252.764 450.118 431.623 300.107 422.326 309.034 305.645 439.925 111.083 239.090 445.044 439.847 460.755 461.337 274.429 401.550 229.758 389.614 342.996 383.868 334.176 486.608 409.740 344.503 231.197 311.568 494.229 273.231
263.045 305.428 509.339 321.404 455.632 500.525 309.404 270.971 453.291 296.277 331.015 427.455 289.448 261.492 0.000 332.460 289.438 365.382 329.711 336.688 474.018 324.304 331.901 228.970 426.325 250.692 278.933 398.532 403.056 337.278 481.299 222.381 280.992 540.000 426.568 436.962 437.543 375.853 377.756 187.836 365.821 319.202 202.937 180.615 305.677 385.946 320.710 242.891 150.258 313.298 367.253
367.344 460.389 446.069 476.364 428.891 507.563 391.760 355.136 451.709 451.238 361.550 425.502 387.602 281.883 347.909 0.000 444.398 261.768 390.726 363.838 628.979 479.265 486.861 383.931 581.286 544.420 392.175 538.309 401.102 397.713 531.994 235.855 361.366 476.729 531.915 591.923 592.504 348.157 532.717 370.872 520.782 474.163 496.664 379.968 599.405 540.907 458.359 323.266 452.682 607.025 365.299
111.248 184.020 351.973 85.350 305.772 273.412 110.813 172.079 226.178 68.445 155.608 239.149 189.800 318.902 268.943 406.219 0.000 358.521 137.809 186.827 235.318 85.605 159.047 78.616 187.625 422.887 199.448 128.257 214.750 141.989 259.835 275.156 201.507 382.634 187.747 185.762 209.711 296.368 139.057 262.316 124.847 80.503 375.132 392.370 421.943 147.247 90.155 163.406 298.300 443.157 206.045
242.087 390.545 314.878 358.061 297.699 382.307 266.503 221.388 326.452 381.395 236.293 300.245 253.854 199.774 304.713 227.797 340.002 0.000 265.469 238.581 559.135 409.422 417.018 314.088 488.142 489.161 258.427 413.052 275.846 272.457 406.737 120.137 227.618 345.538 406.658 468.499 522.661 213.041 462.874 263.829 409.642 404.320 441.405 357.260 544.145 466.773 333.102 189.517 369.106 551.766 240.043
77.341 223.062 271.946 174.776 226.288 193.384 50.306 136.658 146.150 181.799 50.585 159.122 173.758 308.674 300.849 385.421 118.650 297.974 0.000 120.044 352.579 202.865 249.414 139.565 266.790 454.793 190.619 191.701 134.722 51.105 185.385 229.038 192.677 302.606 185.307 247.148 323.064 228.463 256.317 294.222 188.291 197.763 407.038 424.276 454.513 245.422 111.751 154.577 330.206 475.727 96.431
68.658 232.917 250.873 184.632 197.167 251.051 93.485 81.766 195.196 223.022 72.549 168.989 136.310 272.809 292.166 349.555 168.794 262.109 101.726 0.000 400.762 251.049 259.270 149.421 316.934 446.110 159.780 241.844 144.590 115.170 259.190 193.172 161.839 281.534 249.371 299.349 364.288 199.375 304.501 285.539 238.434 245.947 398.355 415.592 445.830 295.565 162.284 123.738 321.522 467.044 108.787
332.382 410.215 510.103 312.773 468.634 431.541 319.990 393.214 384.307 292.748 364.785 397.279 411.334 546.325 496.366 633.642 227.423 580.054 346.986 407.962 0.000 210.538 303.781 306.039 185.229 650.310 420.982 251.384 372.880 344.086 382.228 496.690 423.041 540.764 272.633 262.998 219.498 517.902 174.835 489.739 228.787 260.697 602.555 619.793 617.122 185.836 279.871 384.940 525.723 638.336 383.056
212.875 291.936 390.596 193.266 349.128 312.034 200.483 273.707 264.801 127.501 245.278 277.772 291.827 426.818 376.859 514.135 107.916 460.547 227.479 288.455 205.585 0.000 223.201 186.532 157.892 530.803 301.475 156.915 253.373 224.579 287.759 377.183 303.534 421.257 178.165 168.529 147.070 398.395 64.895 370.232 120.070 133.457 483.048 500.286 529.859 117.514 160.364 265.433 406.216 551.073 263.549
204.778 128.400 453.009 198.391 399.302 395.028 204.343 265.610 347.794 172.557 249.138 360.765 283.330 375.629 325.670 462.946 165.718 452.051 231.339 280.357 307.397 200.584 0.000 155.250 302.605 379.433 292.978 274.812 336.366 235.519 376.342 336.875 295.037 483.669 302.848 313.242 205.375 389.898 254.036 319.043 242.101 195.482 341.999 449.096 335.307 262.226 197.697 256.936 325.000 356.521 299.575
108.687 132.735 356.918 114.014 303.212 311.358 119.966 169.519 264.124 88.888 164.761 275.034 187.239 279.041 229.082 366.358 82.048 355.960 146.962 184.267 266.628 116.914 125.135 0.000 218.935 383.026 196.888 191.142 250.635 151.142 292.672 240.287 198.947 387.579 219.178 229.572 230.153 293.808 170.367 222.455 158.431 111.812 335.271 352.509 380.084 178.556 113.320 160.846 258.438 401.298 214.832
225.616 340.147 403.053 237.735 361.585 313.428 213.224 286.448 277.258 237.899 258.019 290.230 304.568 469.561 424.447 560.734 174.751 473.288 240.220 301.196 189.049 169.020 328.501 248.070 0.000 578.390 314.216 111.083 265.830 237.320 241.927 389.924 316.275 433.714 132.332 122.697 275.783 411.136 142.429 417.819 149.729 219.180 530.635 547.873 578.071 105.050 173.104 278.174 453.803 599.285 276.006
414.971 398.071 661.264 473.329 607.558 652.451 461.329 422.896 605.217 448.203 482.940 579.380 441.373 435.908 219.474 514.935 441.363 538.736 481.637 488.613 625.943 476.229 374.841 380.895 578.250 0.000 430.858 550.457 554.981 489.204 633.224 394.488 432.917 691.925 578.493 588.887 558.250 527.778 529.682 339.762 517.746 471.127 60.481 176.519 151.645 537.871 472.635 394.816 184.430 159.266 519.178
156.714 292.086 375.286 272.688 321.580 366.472 181.541 122.929 319.238 282.936 196.962 293.402 155.395 272.876 305.030 364.050 256.850 276.603 195.658 202.635 460.676 310.963 318.559 215.629 404.990 458.973 0.000 329.900 269.003 203.225 347.246 193.239 119.590 405.947 337.427 387.405 424.202 214.451 364.415 262.965 326.490 305.861 411.218 428.456 503.978 372.605 250.340 75.337 334.386 521.579 233.200
155.354 269.885 332.791 167.472 291.323 254.230 142.962 216.186 206.996 167.637 187.757 219.967 234.305 399.298 354.184 490.472 104.488 403.026 169.958 230.934 263.675 129.228 258.239 177.808 132.661 508.128 243.953 0.000 195.568 167.058 219.068 319.661 246.012 363.452 124.711 115.075 275.492 340.873 167.414 347.557 54.161 153.175 460.373 477.611 507.809 111.292 102.842 207.912 383.540 529.022 205.744
151.924 297.645 174.012 234.329 132.543 136.506 135.351 166.396 64.704 234.494 92.703 61.188 220.940 311.168 375.432 387.914 171.345 300.468 119.666 149.782 405.274 255.560 323.997 214.149 310.581 529.376 244.410 222.179 0.000 103.800 176.437 231.531 246.469 204.672 180.438 242.279 375.759 217.461 309.012 368.805 240.986 250.458 481.621 468.655 529.097 294.362 164.446 208.368 404.789 550.310 91.076
83.577 227.689 292.957 130.529 251.488 214.395 53.589 143.793 167.161 130.694 98.384 180.133 179.994 352.199 307.085 429.874 67.545 342.428 80.585 158.541 301.474 151.760 221.296 140.864 215.686 461.029 196.854 140.596 155.733 0.000 198.069 272.562 198.913 323.617 134.202 196.043 271.959 276.263 205.212 300.457 137.186 146.658 413.273 430.511 460.749 194.317 60.646 160.812 336.441 481.963 148.822
239.449 353.980 326.308 256.820 284.840 88.244 227.057 300.281 173.905 256.985 220.392 213.484 318.400 453.221 438.279 529.968 193.837 442.521 247.355 290.137 354.066 270.721 347.587 267.156 248.293 592.223 328.048 180.933 189.085 229.388 0.000 373.585 330.107 356.969 138.661 200.502 398.251 359.514 295.646 431.652 219.579 270.356 544.468 561.705 591.904 233.209 186.937 292.007 467.635 613.117 221.195
277.171 341.621 416.278 357.596 362.572 417.391 301.587 264.963 361.536 332.470 271.377 335.329 297.430 107.783 254.258 283.841 325.630 257.227 300.553 273.665 510.210 360.497 368.093 265.163 462.518 444.022 302.003 434.725 310.929 307.541 441.821 0.000 240.985 446.939 441.742 473.154 473.736 276.324 413.949 242.157 402.014 355.395 396.267 346.575 499.007 422.139 356.903 233.093 323.968 506.628 275.127
157.821 293.193 316.573 273.795 262.866 317.685 182.648 124.036 261.830 284.043 171.671 235.623 156.502 153.286 258.225 244.460 257.956 157.014 196.765 173.960 461.783 312.070 319.666 216.736 406.097 442.673 161.075 331.007 211.224 204.332 342.115 73.649 0.000 347.233 338.534 388.511 425.309 174.750 365.522 207.796 327.597 306.968 394.917 324.819 497.658 373.712 251.447 92.165 322.618 505.278 175.421
310.513 473.992 31.489 418.573 152.498 328.578 319.595 323.621 255.077 418.737 276.946 211.830 378.166 486.728 534.022 470.413 355.589 334.909 303.909 307.007 589.517 439.804 500.344 390.495 494.824 687.965 401.635 406.422 221.198 288.044 360.681 407.092 403.694 0.000 364.682 426.523 560.003 332.749 493.256 527.394 425.229 434.702 640.210 603.643 687.686 478.606 348.689 365.593 563.378 708.899 275.319
171.953 286.484 349.390 184.071 307.922 227.489 159.561 232.784 223.595 184.236 204.356 236.566 250.904 415.897 370.783 507.071 121.087 419.625 186.557 247.532 266.308 132.060 274.838 194.406 135.293 524.727 260.552 57.419 212.167 183.656 155.988 336.260 262.611 380.051 0.000 61.841 278.323 357.472 170.046 364.155 96.065 182.030 476.972 494.209 524.407 113.924 119.441 224.510 400.139 545.621 222.343
196.101 310.632 373.538 208.219 332.070 233.095 183.709 256.932 247.743 208.384 228.504 260.714 275.052 440.045 394.931 531.219 145.235 443.773 210.705 271.680 280.514 156.207 298.986 218.554 143.184 548.875 284.700 81.567 236.315 207.804 161.593 360.408 286.759 404.199 51.998 0.000 302.471 381.620 184.253 388.303 120.213 206.178 501.119 518.357 548.555 121.815 143.589 248.658 424.287 569.769 246.491
295.491 293.972 512.843 271.641 471.374 434.281 295.056 356.323 387.047 141.266 339.851 400.019 374.043 503.145 453.187 590.462 208.271 542.764 322.052 371.071 231.405 152.726 187.538 262.860 259.072 545.005 383.692 292.210 375.620 326.233 415.596 459.400 385.751 543.504 313.460 303.824 0.000 480.612 150.242 446.559 255.366 216.080 507.571 576.613 500.879 252.809 282.611 347.650 482.543 522.093 385.796
207.417 370.896 283.710 322.610 230.003 329.440 229.461 220.525 273.585 350.283 199.251 247.378 275.070 314.117 419.057 370.559 287.135 283.113 228.427 203.911 521.063 371.350 397.248 287.399 435.275 584.869 298.539 360.185 222.978 219.589 353.870 234.481 269.865 314.371 353.791 415.632 491.549 0.000 424.802 368.628 356.775 366.248 537.114 485.651 584.590 413.906 280.235 231.764 460.282 605.803 202.147
247.621 326.682 425.342 228.012 383.873 346.780 235.229 308.453 299.546 157.853 280.024 312.518 326.573 461.564 411.605 548.881 142.662 495.293 262.225 323.201 195.309 57.498 253.275 221.278 147.617 565.549 336.221 173.055 288.119 259.325 303.899 411.929 338.280 456.003 194.304 184.669 133.771 433.141 0.000 404.978 146.195 168.203 517.794 535.032 564.605 133.653 195.110 300.179 440.962 585.819 298.295
257.633 300.016 503.927 315.991 450.220 495.113 303.992 265.559 447.879 290.865 325.603 422.043 284.036 247.888 181.576 378.561 284.025 338.918 324.299 331.275 468.605 318.892 326.488 223.558 420.913 355.343 273.521 393.120 397.643 331.866 475.886 206.467 205.190 534.587 421.156 431.549 432.131 369.813 372.344 0.000 360.409 313.790 307.587 314.657 410.328 380.534 315.298 237.479 235.288 417.948 361.840
153.776 268.307 331.213 165.894 289.745 252.652 141.384 214.607 205.418 166.059 186.179 218.389 232.727 397.720 352.606 488.894 102.910 401.448 168.380 229.355 262.414 127.967 256.661 176.229 131.399 506.550 242.375 56.309 193.990 165.479 217.490 318.083 244.434 361.874 123.449 113.814 274.230 339.295 166.153 345.978 0.000 124.075 458.795 476.032 506.231 110.031 101.264 206.333 381.962 527.444 204.166
203.143 289.058 380.863 190.388 339.395 302.302 190.750 263.974 255.068 99.194 235.546 268.039 282.094 423.940 373.982 511.257 105.038 450.815 217.747 278.722 227.366 77.653 244.061 183.654 179.673 527.925 291.742 166.812 243.640 214.846 283.616 367.450 293.801 411.524 199.945 190.310 223.916 388.662 131.105 367.354 119.169 0.000 480.170 497.408 526.982 139.294 150.631 255.700 403.338 548.195 253.816
385.135 349.167 631.428 443.493 577.722 622.615 431.494 393.060 575.381 418.367 453.105 549.545 411.538 406.072 189.638 485.099 411.527 508.901 451.801 458.777 596.107 446.394 325.936 351.060 548.415 75.598 401.023 520.622 525.145 459.368 603.388 364.652 403.082 662.089 548.658 559.051 509.345 497.943 499.846 309.926 487.911 441.292 0.000 146.684 102.740 508.036 442.799 364.981 192.901 110.361 489.342
389.558 431.941 571.058 447.916 523.518 578.336 435.917 397.483 522.481 422.790 432.322 496.274 415.961 342.322 179.847 369.253 415.950 402.175 456.224 434.611 600.530 450.817 458.413 355.483 552.838 260.919 405.446 525.045 471.875 463.791 602.767 306.628 407.505 601.719 553.081 563.474 564.056 437.270 504.269 314.349 492.334 445.715 213.164 0.000 315.904 512.459 447.223 369.404 217.515 323.524 436.072
405.471 359.701 653.702 469.995 599.996 644.888 451.830 466.303 597.654 444.869 475.378 571.818 484.023 493.047 276.613 572.074 438.029 595.875 474.074 481.051 621.901 472.896 336.470 377.562 574.917 152.210 487.997 547.124 547.419 481.641 625.662 451.627 490.056 684.363 575.160 585.554 519.879 584.917 526.348 396.901 514.413 467.794 114.776 233.658 0.000 534.538 469.302 451.956 279.876 81.707 511.616
217.151 324.436 394.589 225.766 353.120 304.963 204.759 277.983 268.793 208.862 249.554 281.765 296.103 459.318 409.360 546.635 140.416 464.823 231.755 292.731 201.789 123.531 299.464 219.032 91.906 563.303 305.751 102.618 257.365 228.855 233.462 381.459 307.810 425.249 123.867 114.232 255.355 402.671 121.999 402.732 141.264 173.690 515.548 532.786 562.359 0.000 164.640 269.709 438.716 583.573 267.541
96.030 204.999 344.261 89.833 290.554 281.448 83.637 156.861 234.214 137.143 128.433 247.185 174.981 339.881 289.923 427.198 73.995 343.702 110.634 171.609 307.924 158.210 211.653 99.595 222.135 443.866 184.629 147.045 222.786 114.814 262.221 260.337 186.688 374.921 208.576 204.550 278.409 281.549 211.662 283.295 143.635 153.108 396.111 413.349 442.923 200.767 0.000 148.587 319.279 464.136 178.870
101.051 236.424 319.623 217.025 265.917 310.810 125.878 67.266 263.576 227.273 141.299 237.739 99.733 217.213 249.367 308.387 201.187 220.941 139.996 146.972 405.013 255.300 262.896 159.966 349.327 403.311 75.337 274.237 213.340 147.563 291.583 137.576 63.927 350.284 281.764 331.742 368.539 158.788 308.752 207.302 270.827 250.198 355.555 372.793 448.315 316.942 194.677 0.000 278.723 465.916 177.537
290.785 333.167 537.078 349.143 483.372 528.265 337.144 298.710 481.031 324.017 358.754 455.194 317.188 316.769 113.014 416.406 317.177 419.597 357.451 364.427 501.757 352.044 318.407 256.710 454.064 182.630 306.673 426.272 430.795 365.018 509.038 275.349 308.731 567.739 454.308 464.701 465.283 403.592 405.496 220.623 393.560 346.942 175.983 213.813 278.724 413.686 348.449 270.631 0.000 286.344 394.992
420.372 374.602 668.603 484.897 614.897 659.790 466.731 481.204 612.556 459.771 490.279 586.719 498.924 500.347 283.913 579.374 452.931 603.175 488.976 495.952 636.802 487.797 351.371 392.463 589.818 159.510 495.297 562.025 562.320 496.543 640.563 458.926 497.356 699.264 590.061 600.455 534.780 592.217 541.250 404.201 529.314 482.695 122.076 240.958 81.386 549.439 484.203 459.255 287.176 0.000 526.517
93.338 239.059 245.822 190.774 194.164 215.060 97.625 107.810 159.205 229.164 27.129 132.998 162.355 276.550 316.847 353.296 169.280 265.850 66.575 91.196 403.209 253.495 265.412 155.563 317.420 470.790 185.824 242.331 108.599 101.735 236.015 196.913 187.883 276.482 235.937 297.778 370.430 196.339 306.947 310.219 238.921 248.393 423.035 434.037 470.511 296.052 162.381 149.782 346.203 491.724 0.000
NODE_COORD_SECTION
1 135.757630 21.597263
2 -755.754223 -2463.491125
3 3276.397157 4720.664675
4 985.864756 -756.807480
5 1371.337106 3399.534070
6 4512.098991 1024.107858
7 643.684398 249.690807
8 -130.845128 918.428515
9 2772.614995 2039.471941
10 1376.807321 -2347.559329
11 798.122945 1137.104024
12 2077.216665 2050.415573
13 -187.400817 559.770624
14 -2893.304253 1475.578635
15 -3144.372984 -301.535310
16 -3041.401088 3050.346493
17 1201.653814 -1313.312949
18 -1623.612128 3471.340320
19 841.044327 685.153662
20 152.256207 1092.273653
21 4632.325339 -4002.819792
22 2236.202893 -2644.336879
23 -258.290116 -3282.755985
24 147.915374 -1185.142064
25 3944.309875 -2179.253571
26 -4272.740303 -2696.644529
27 -538.667943 672.171543
28 2511.649363 -1277.166361
29 2016.721349 1696.759519
30 1329.106779 233.138589
31 3934.897402 324.180741
32 -2465.602007 1597.544815
33 -1724.606868 1158.609826
34 3806.106391 5238.079878
35 2960.398834 -976.418102
36 3064.855028 -1324.733685
37 1960.503572 -4038.722904
38 -975.065138 2416.763453
39 2726.565002 -3058.849683
40 -1692.584209 322.588747
41 2157.342430 -1410.619315
42 1778.594120 -2148.539158
43 -4607.342946 -2739.775090
44 -4592.395172 -930.913626
45 -4072.664272 -4180.344192
46 3266.777500 -2071.145091
47 1014.850089 -524.951274
48 -542.231764 839.881138
49 -2939.514477 -1950.003241
50 -4261.034459 -4666.180949
51 866.541342 1322.372667
DEMAND_SECTION
1 0
2 5
3 4
4 6
5 2
6 1
7 74
8 57
9 1
10 7
11 9
12 6
13 7
14 2
15 4
16 88
17 9
18 2
19 2
20 8
21 2
22 8
23 3
24 8
25 10
26 10
27 9
28 9
29 10
30 9
31 4
32 10
33 5
34 5
35 4
36 2
37 6
38 1
39 1
40 8
41 51
42 2
43 7
44 4
45 5
46 9
47 6
48 10
49 8
50 70
51 9
DEPOT_SECTION
1
-1
EOF
