NAME : mamut-san_francisco-n25-poi
COMMENT : Mamut2026 fastest metric; city san_francisco; 3-decimal seconds/meters; ENU ref in mamut-san_francisco-n25-poi.vrp.json
TYPE : CVRP
DIMENSION : 26
EDGE_WEIGHT_TYPE : EXPLICIT
EDGE_WEIGHT_FORMAT : FULL_MATRIX
CAPACITY : 193
EDGE_WEIGHT_SECTION
0.000 942.584 151.101 52.912 103.720 143.253 525.415 80.898 331.232 144.959 685.507 136.843 58.591 438.769 562.741 124.546 136.050 705.789 96.788 32.582 766.485 695.372 327.835 180.309 140.760 742.526
917.596 0.000 965.840 932.324 947.866 987.130 1059.315 927.525 825.671 905.338 1561.693 887.842 917.196 1021.217 1160.634 1006.451 899.760 1571.843 859.394 950.179 1368.772 1561.426 822.274 862.921 987.388 1486.628
151.826 984.478 0.000 115.073 98.867 21.290 629.733 191.227 428.098 109.713 722.039 183.333 121.013 537.680 612.714 72.658 94.782 625.016 193.655 138.168 815.642 614.598 424.701 287.994 219.603 779.057
80.384 956.507 116.212 0.000 50.808 118.268 572.781 128.265 345.155 95.839 704.356 130.954 38.069 486.135 594.098 99.753 83.228 685.516 110.711 80.612 797.026 675.099 341.758 207.345 187.701 761.374
89.081 965.204 103.668 40.826 0.000 106.639 581.478 136.962 353.852 81.904 713.488 139.651 46.766 494.832 603.231 92.801 69.293 677.339 119.408 89.309 806.158 666.921 350.455 216.042 196.824 770.507
144.448 983.304 34.146 102.748 77.577 0.000 622.435 183.929 415.773 88.423 723.881 165.113 108.688 530.382 613.624 73.567 73.492 625.925 181.329 130.790 816.552 615.508 412.376 277.963 219.368 780.900
511.066 1075.960 650.051 559.512 610.320 642.203 0.000 479.722 377.064 631.317 761.095 602.822 565.191 220.619 339.749 594.639 625.739 1175.521 477.895 525.763 507.578 1165.103 373.667 383.515 468.074 686.030
63.513 945.454 206.040 111.959 162.767 198.193 451.674 0.000 324.425 183.765 670.251 155.270 117.638 377.161 501.134 168.313 178.187 749.195 91.344 81.753 704.878 738.777 321.028 109.072 79.153 727.270
321.290 846.684 448.773 336.018 386.825 451.744 374.204 312.615 0.000 407.823 882.030 379.328 341.696 341.553 480.970 435.770 402.245 1021.534 248.618 353.872 689.108 1011.116 4.065 225.161 379.540 806.965
160.839 920.640 96.937 113.419 82.429 112.076 627.350 182.834 399.723 0.000 762.204 119.494 118.524 540.704 651.947 119.838 13.147 685.230 165.280 158.835 854.875 674.813 396.326 261.913 242.696 819.223
683.827 1562.465 727.326 706.254 743.095 727.049 733.107 689.177 863.568 774.957 0.000 790.481 711.933 573.211 525.713 671.432 762.346 1252.314 741.879 671.927 512.902 1241.897 860.171 759.243 660.573 105.836
131.406 890.183 165.480 134.457 147.506 186.770 585.851 141.335 358.225 104.978 781.165 0.000 114.288 499.205 623.178 206.090 99.400 771.483 123.781 156.830 826.922 761.066 354.828 220.415 201.197 838.183
50.933 918.438 148.482 51.185 92.591 151.453 534.712 90.196 307.085 123.016 726.483 101.527 0.000 448.066 572.038 150.937 114.107 724.607 72.642 73.558 775.783 714.190 303.688 169.275 150.058 783.501
426.366 1045.887 557.760 474.812 525.619 549.913 216.530 402.292 346.991 546.617 540.477 518.122 480.491 0.000 139.417 497.736 541.039 1078.618 447.822 437.390 347.555 1068.200 343.594 353.443 369.396 465.412
543.872 1184.901 622.745 592.318 630.944 614.898 352.016 519.798 486.004 662.806 522.544 635.628 597.997 195.647 0.000 559.281 650.195 1140.163 568.032 554.896 320.654 1129.746 482.607 492.456 436.875 447.479
118.023 998.406 63.636 81.269 71.662 55.789 595.930 157.424 394.295 103.525 688.518 180.094 87.209 503.876 578.261 0.000 90.914 623.037 159.851 104.365 781.189 612.620 390.898 254.191 185.800 745.537
147.691 916.238 92.535 100.272 71.304 98.929 622.948 178.432 395.321 34.696 749.057 115.092 105.377 536.302 638.800 106.690 0.000 672.083 160.878 145.687 841.727 661.666 391.924 257.511 236.499 806.076
737.591 1622.371 646.914 713.077 716.643 639.066 1186.798 763.906 1040.781 727.489 1272.364 804.179 738.368 1094.744 1162.107 662.690 712.559 0.000 806.338 723.933 1365.034 27.308 1037.385 859.807 774.304 1329.383
83.900 874.640 211.383 98.628 149.435 214.354 476.465 75.226 242.821 170.433 733.659 141.938 104.306 438.366 566.288 198.380 164.855 784.144 0.000 116.483 770.032 773.727 239.424 105.010 144.307 790.678
44.588 959.131 135.317 39.686 90.494 127.470 530.803 91.598 347.778 131.733 669.724 138.250 45.365 438.749 559.467 108.763 121.572 690.006 113.335 0.000 762.394 679.589 344.382 188.365 139.991 726.743
775.347 1415.727 854.221 823.793 862.419 846.373 559.835 751.273 716.831 894.281 528.790 867.104 829.472 426.473 355.075 790.756 881.670 1371.638 799.508 786.372 0.000 1361.221 713.434 723.282 668.351 453.725
723.914 1608.694 633.237 699.401 702.966 625.390 1173.121 750.229 1027.105 713.813 1258.687 790.502 724.691 1081.068 1148.430 649.013 698.882 10.417 792.661 710.256 1351.357 0.000 1023.708 846.130 760.628 1315.706
318.050 843.443 445.532 332.777 383.585 448.503 376.412 309.375 4.065 404.582 878.790 376.087 338.456 338.313 477.730 432.530 399.005 1018.293 245.378 350.632 685.868 1007.876 0.000 221.921 376.300 803.724
170.552 883.234 308.520 195.764 246.572 307.899 381.396 145.417 226.544 267.570 755.879 239.074 201.443 343.297 482.714 260.335 261.992 841.216 108.365 191.458 690.852 830.799 223.147 0.000 164.781 808.709
118.171 1000.111 228.434 165.389 209.229 220.586 457.488 97.898 378.161 238.422 655.189 209.927 171.068 365.435 438.976 177.125 228.480 758.007 146.132 129.195 641.904 747.589 374.764 162.808 0.000 692.312
745.247 1491.659 788.747 767.675 804.515 788.469 662.302 750.597 792.762 836.377 108.477 851.901 773.353 502.405 454.907 732.853 823.766 1313.734 803.299 733.347 442.096 1303.317 789.366 799.214 696.250 0.000
NODE_COORD_SECTION
1 27567.380647 -311.862562
2 18558.110903 15853.006480
3 29487.347060 722.427523
4 28109.050252 201.268483
5 28253.013969 490.198821
6 29194.524315 615.108414
7 20153.498359 -4712.093979
8 26837.037261 -847.084565
9 20645.207927 -345.848943
10 28306.400320 1279.699218
11 27620.544383 -15061.215451
12 27183.939810 1015.727688
13 27590.995832 222.692284
14 22242.849753 -7023.118427
15 21673.783172 -9409.615103
16 29023.164818 -150.950206
17 28488.398697 1287.141722
18 38480.547359 9446.723631
19 26094.369660 58.651241
20 27915.342580 -306.484125
21 20828.961636 -14863.878073
22 38338.690917 9366.322541
23 20701.578827 -342.655176
24 24811.866972 -974.825654
25 26894.992416 -2187.621195
26 26652.277364 -15914.960294
DEMAND_SECTION
1 0
2 7
3 5
4 9
5 1
6 10
7 1
8 6
9 2
10 5
11 4
12 2
13 9
14 7
15 2
16 87
17 5
18 83
19 3
20 8
21 9
22 6
23 9
24 10
25 4
26 10
DEPOT_SECTION
1
-1
EOF
