NAME : poryos-san_francisco-n100-hyb
COMMENT : Poryos2026 fastest metric; city san_francisco; 3-decimal seconds/meters; ENU ref in poryos-san_francisco-n100-hyb.vrp.json
TYPE : CVRP
DIMENSION : 101
EDGE_WEIGHT_TYPE : EXPLICIT
EDGE_WEIGHT_FORMAT : FULL_MATRIX
CAPACITY : 186
EDGE_WEIGHT_SECTION
0.000 182.594 587.686 441.868 27.243 609.744 842.660 120.634 106.704 63.430 170.942 61.091 136.092 324.495 253.563 561.384 439.321 467.916 140.760 166.068 149.718 194.965 840.373 201.268 214.574 180.492 1109.415 125.344 187.363 119.316 123.226 591.870 77.496 674.583 802.540 146.621 46.871 122.508 751.678 82.499 703.728 151.887 73.880 635.718 261.781 588.103 51.695 128.290 674.374 158.062 983.525 191.611 219.433 1036.372 225.251 623.941 693.540 116.461 191.472 293.230 851.314 654.907 231.120 217.203 172.133 681.358 161.353 96.725 705.625 393.321 314.581 962.419 210.003 426.953 158.570 1322.006 150.214 233.196 134.169 435.930 703.683 176.498 406.457 87.437 164.669 138.179 286.259 133.447 126.069 112.078 844.922 346.219 858.553 831.385 239.709 810.183 848.882 164.487 209.632 869.087 180.925
174.809 0.000 691.526 559.579 202.052 733.011 965.926 271.621 227.530 238.239 212.958 235.901 94.396 428.335 242.246 684.651 516.013 580.438 244.601 255.587 253.558 19.423 963.640 132.787 318.414 336.126 1232.682 200.139 35.399 201.822 179.641 715.137 242.048 778.423 925.807 240.230 183.496 160.020 874.945 257.309 826.995 168.413 228.939 758.985 299.091 664.795 168.312 186.086 797.641 89.581 1106.792 188.223 356.266 1159.638 262.561 763.002 816.807 291.270 27.576 427.980 687.419 778.174 334.960 254.512 275.973 804.624 265.193 147.543 809.465 532.382 320.713 798.524 206.616 503.645 262.410 1445.273 237.204 377.767 130.782 553.641 797.596 266.017 495.976 262.246 179.936 116.355 390.099 241.080 155.400 146.529 681.027 485.280 981.819 667.490 388.863 646.288 684.987 268.327 246.942 705.192 177.538
570.283 674.509 0.000 174.726 592.287 1070.528 1303.444 542.569 539.020 583.831 691.120 565.913 633.747 320.896 477.951 1022.168 225.205 362.072 463.286 462.375 450.803 669.755 1301.157 710.907 385.948 539.101 1570.199 665.900 689.305 659.872 668.406 1052.654 622.058 178.731 1263.325 644.677 612.688 610.133 1212.462 547.567 1164.512 532.640 547.397 1096.502 414.014 385.238 563.786 668.846 1135.158 667.701 1444.310 519.636 453.656 1497.156 435.593 557.683 1154.324 584.314 646.525 432.090 1121.040 1115.692 428.243 476.799 467.513 1142.142 483.792 593.886 250.707 488.600 506.675 1232.145 498.800 212.837 499.571 1782.790 447.776 528.083 570.490 216.583 212.006 430.162 232.706 544.289 542.381 635.240 334.833 533.628 582.758 594.244 1114.647 455.838 1319.337 1101.110 651.969 1079.909 1118.608 480.163 453.473 1138.813 567.721
436.754 558.704 173.307 0.000 435.282 913.523 1146.439 385.564 405.492 426.826 534.115 408.908 500.219 166.149 437.824 865.163 185.079 196.846 329.757 371.379 317.275 571.075 1144.152 577.379 252.419 382.096 1413.194 508.895 559.216 502.866 511.401 895.649 465.052 260.204 1106.319 487.672 457.468 476.604 1055.457 390.562 1007.507 447.849 390.392 939.497 373.887 397.388 430.257 511.841 978.153 534.173 1287.304 479.509 296.651 1340.151 395.466 505.834 997.319 427.309 567.582 285.803 1080.913 958.686 294.714 436.673 333.984 985.137 350.263 460.357 291.246 323.373 466.549 1192.018 458.674 172.711 366.042 1625.785 384.693 371.078 485.698 51.357 293.479 390.035 176.618 387.284 500.106 502.305 177.333 385.498 473.969 475.710 1074.521 290.612 1162.332 1060.984 494.964 1039.782 1078.481 346.634 413.347 1098.687 525.446
47.703 202.256 586.711 429.200 0.000 596.987 829.902 107.966 102.466 46.459 143.699 48.423 155.754 327.590 273.225 548.627 442.417 455.248 143.106 169.164 151.323 214.627 827.616 213.855 216.178 163.862 1096.657 99.407 207.025 93.378 101.913 579.112 60.525 673.608 789.783 129.650 36.760 142.171 738.921 69.831 690.970 161.739 69.640 622.960 270.449 591.199 62.444 102.353 661.617 177.724 970.768 211.273 206.765 1023.614 233.919 611.274 680.783 103.793 211.134 280.562 870.976 642.150 234.216 225.870 173.738 668.600 162.957 116.387 704.649 380.653 323.249 982.081 229.665 430.049 160.174 1309.248 153.310 220.528 153.832 423.262 702.708 179.593 409.553 74.769 184.331 157.841 289.355 129.209 145.731 131.740 864.584 333.551 845.795 851.047 223.079 829.845 868.544 166.092 218.300 888.750 200.587
636.953 761.742 1085.597 928.086 603.800 0.000 345.726 612.992 621.827 567.333 594.991 570.413 734.715 831.685 862.475 75.189 994.659 954.134 673.666 721.406 681.883 774.113 368.382 696.464 731.237 649.193 637.424 571.293 766.511 567.457 606.041 105.675 588.950 1172.494 330.550 549.706 626.010 731.420 249.451 579.252 231.737 729.427 605.309 81.175 838.138 1143.441 648.865 577.487 341.535 713.802 511.535 800.523 705.651 564.381 801.607 1110.160 221.549 588.713 770.620 779.448 1430.463 132.087 786.458 793.559 708.030 179.131 675.803 705.637 1203.536 879.539 890.937 1541.567 818.915 982.291 663.498 850.015 705.552 729.949 743.081 922.148 1201.594 731.835 961.795 584.190 773.581 736.801 791.971 625.265 734.980 720.989 1424.070 832.438 361.619 1410.533 702.809 1389.331 1428.030 690.730 785.989 1448.236 789.837
845.633 970.423 1294.278 1136.767 812.481 354.501 0.000 821.673 830.508 776.014 803.672 779.094 943.395 1040.366 1071.155 330.069 1203.339 1162.815 882.347 930.086 890.564 982.794 50.340 905.145 939.918 857.874 366.278 779.973 975.192 776.138 814.722 360.554 797.631 1381.175 275.112 758.387 834.691 940.101 210.963 787.933 223.135 938.108 813.990 284.452 1046.818 1352.122 857.546 786.168 550.215 922.483 195.939 1009.203 914.332 293.235 1010.288 1318.841 183.745 797.394 979.301 988.129 1639.143 416.815 995.139 1002.240 916.711 179.761 884.484 914.318 1412.217 1088.220 1099.618 1750.248 1027.596 1190.972 872.178 578.869 914.232 938.629 951.762 1130.829 1410.275 940.516 1170.476 792.870 982.262 945.482 1000.652 833.946 943.661 929.670 1632.751 1041.119 33.139 1619.214 911.490 1598.012 1636.711 899.410 994.670 1656.916 998.518
120.631 266.407 559.913 402.402 107.599 590.749 823.665 0.000 79.840 99.142 218.587 81.224 219.906 300.592 337.377 542.389 448.794 428.449 117.831 175.541 126.048 278.778 821.378 285.082 190.903 101.738 1090.420 187.873 271.177 181.844 190.379 572.875 137.369 646.810 783.545 167.020 129.784 206.322 732.683 59.398 684.733 194.925 69.941 616.723 303.635 597.576 114.134 190.819 655.379 241.876 964.530 275.425 148.870 1017.377 267.105 584.475 674.545 65.126 275.285 250.034 935.128 635.912 238.046 256.529 146.872 662.363 107.951 180.539 677.851 353.855 356.435 1046.233 293.817 436.426 95.646 1303.011 159.687 146.488 217.983 396.463 675.909 185.971 415.930 59.600 247.183 221.992 260.878 55.079 209.882 195.891 928.736 306.753 839.558 915.198 197.969 893.997 932.696 122.878 251.487 952.901 264.739
113.600 255.388 531.778 374.267 124.663 596.069 828.984 64.960 0.000 116.206 223.412 98.289 208.887 277.866 326.357 547.709 426.264 400.315 101.336 153.011 109.553 267.759 826.698 274.063 174.408 150.474 1095.739 191.441 260.158 185.412 193.947 578.194 149.241 618.675 788.865 170.217 146.849 195.303 738.003 76.462 690.053 181.095 62.910 622.043 289.805 575.046 107.103 194.387 660.699 230.857 969.850 264.405 149.605 1022.696 253.275 556.341 679.865 114.135 264.266 225.629 924.109 641.232 218.063 233.999 130.377 667.682 98.150 169.520 649.717 325.720 342.605 1035.214 282.798 413.896 85.845 1308.330 137.156 171.106 206.964 368.329 647.775 163.440 393.400 76.664 233.352 210.973 238.152 47.612 198.863 184.872 917.716 278.619 844.877 904.179 223.786 882.978 921.677 113.077 237.657 941.882 253.720
69.620 224.173 568.388 410.877 36.492 578.753 811.669 89.643 84.223 0.000 156.234 30.100 177.671 314.475 295.142 530.393 456.026 436.924 137.397 182.773 145.614 236.544 809.382 226.390 210.469 149.501 1078.424 111.942 228.942 105.913 114.448 560.879 61.100 655.285 771.549 115.896 58.677 164.087 720.687 51.508 672.737 176.047 51.317 604.727 284.757 604.808 81.536 114.888 643.383 199.641 952.534 233.190 188.442 1005.380 248.227 592.950 662.549 85.470 233.050 262.239 892.893 623.916 247.825 240.178 166.438 650.366 155.657 138.304 686.326 362.330 337.557 1003.998 251.582 443.658 149.134 1291.015 166.919 202.205 175.748 404.938 684.384 193.203 423.162 56.445 206.248 179.758 274.762 110.902 167.647 153.656 886.501 315.228 827.562 872.964 208.718 851.762 890.461 158.791 232.608 910.666 222.504
195.475 212.997 686.546 529.036 158.591 580.825 813.740 212.702 224.962 140.738 0.000 170.597 230.555 435.208 374.402 532.465 593.604 555.083 277.190 320.351 285.406 225.368 811.454 138.697 334.760 171.605 1080.495 72.301 217.766 68.465 94.147 562.951 130.344 773.443 773.621 75.709 167.289 243.348 722.759 185.208 674.809 292.640 192.055 606.799 416.064 742.386 218.755 78.496 645.455 156.036 954.606 312.450 309.175 1007.452 379.534 697.811 664.621 164.794 221.875 382.972 881.717 625.988 385.403 371.486 307.176 652.438 279.326 217.565 804.485 467.191 444.940 992.822 330.843 581.236 267.021 1293.087 304.497 292.866 255.009 523.097 802.543 330.781 560.740 190.145 304.163 232.641 395.495 228.789 257.971 232.917 875.325 420.089 829.633 861.788 224.341 840.586 879.285 294.253 363.915 899.490 301.765
87.537 242.090 566.545 409.034 54.385 548.653 781.568 87.800 102.141 17.918 138.991 0.000 195.589 312.632 313.059 500.293 473.944 435.081 154.614 200.690 162.830 254.461 779.282 221.097 212.184 119.549 1048.324 106.649 246.860 100.620 109.155 530.779 57.919 653.442 741.449 85.796 76.595 182.005 690.587 49.665 642.637 193.964 69.235 574.627 302.674 622.726 99.454 109.595 613.283 217.559 922.434 251.107 186.599 975.280 266.144 591.107 632.449 59.126 250.968 260.396 910.811 593.816 265.743 258.096 184.355 620.266 159.601 156.222 684.483 360.487 355.474 1021.916 269.500 461.576 147.295 1260.915 184.836 200.362 193.666 403.096 682.541 211.120 441.080 54.603 224.166 197.675 272.919 109.063 185.565 171.574 904.418 313.385 797.461 890.881 178.767 869.680 908.379 174.527 250.526 928.584 240.422
128.733 94.205 636.066 504.118 155.976 712.239 945.155 225.545 181.454 192.163 234.070 189.824 0.000 372.874 202.217 663.880 475.984 524.978 189.140 207.629 207.482 106.576 942.868 194.840 272.337 299.308 1211.910 187.079 58.997 181.051 184.961 694.365 195.971 722.963 905.036 238.700 137.419 65.624 854.173 211.232 806.223 120.455 182.862 738.213 251.133 624.766 122.236 190.025 776.870 151.635 1086.021 140.265 310.190 1138.867 214.603 716.926 796.036 245.194 103.083 381.903 762.926 757.403 279.500 206.555 229.897 783.853 219.116 53.147 754.005 486.305 272.755 874.030 158.658 463.616 216.333 1424.501 189.246 331.691 82.824 498.180 749.638 218.059 448.018 216.170 131.978 21.959 334.638 195.004 91.028 65.061 756.533 439.204 961.048 742.996 358.525 721.794 760.493 222.250 198.984 780.699 129.580
318.568 440.517 285.119 149.836 341.052 827.392 1060.308 299.432 287.305 340.695 447.983 322.777 382.032 0.000 449.773 779.032 253.101 185.636 211.571 253.193 199.088 452.888 1058.021 459.192 134.233 295.965 1327.063 422.764 441.029 416.735 425.270 809.518 374.238 372.016 1020.188 401.541 360.973 358.418 969.326 304.431 921.376 329.662 304.261 853.366 310.648 418.583 312.070 425.710 892.022 415.986 1201.173 371.753 210.520 1254.020 307.531 493.884 911.188 341.178 449.395 180.375 1092.863 872.555 176.528 283.476 215.798 899.005 232.076 342.171 403.057 263.264 441.920 1203.967 406.214 240.733 247.856 1539.654 254.452 279.634 367.512 143.898 401.115 236.838 170.472 301.153 378.825 384.119 70.424 281.913 355.783 357.523 1086.470 216.162 1076.201 1072.933 408.833 1051.731 1090.430 228.448 325.411 1110.636 404.166
246.009 233.602 498.197 452.455 273.251 850.207 1083.122 342.820 298.730 309.439 375.401 307.100 208.601 444.787 0.000 801.847 308.727 566.398 304.259 272.502 324.757 228.848 1080.836 345.786 389.613 416.583 1349.878 328.411 248.398 322.382 326.292 832.333 313.247 585.123 1043.003 380.031 254.695 182.368 992.141 328.508 944.191 186.049 300.138 876.181 159.017 457.510 239.511 331.357 914.837 302.580 1223.988 90.044 427.465 1276.834 165.537 833.791 934.003 362.470 205.617 499.179 680.132 895.370 378.214 204.910 347.172 921.820 336.392 172.780 667.496 603.170 132.263 791.237 57.892 296.360 333.609 1562.469 254.119 448.966 148.418 468.336 592.928 264.235 299.795 333.445 139.781 205.161 449.757 312.280 173.036 164.165 673.740 556.069 1099.015 660.203 475.800 639.001 677.700 339.526 149.918 697.905 137.383
590.806 715.595 1039.451 881.940 557.653 78.987 324.522 566.846 575.680 521.186 548.844 524.267 688.568 785.538 816.328 0.000 948.512 907.987 627.519 675.259 635.736 727.966 322.235 650.317 685.090 603.046 591.277 525.146 720.365 521.310 559.894 46.649 542.803 1126.347 284.403 503.559 579.863 685.273 233.540 533.105 185.590 683.281 559.162 101.532 791.991 1097.294 602.718 531.341 295.388 667.655 465.388 754.376 659.504 518.234 755.461 1064.013 175.403 542.566 724.473 733.302 1384.316 143.443 740.311 747.412 661.883 163.220 629.656 659.490 1157.389 833.393 844.791 1495.421 772.768 936.144 617.351 803.868 659.405 683.802 696.934 876.001 1155.447 685.689 915.648 538.043 727.434 690.654 745.825 579.119 688.834 674.843 1377.923 786.291 340.415 1364.386 656.663 1343.185 1381.884 644.583 739.842 1402.089 743.690
431.494 513.215 246.161 200.419 453.977 987.700 1220.616 459.739 415.598 479.135 588.336 472.612 488.214 279.854 316.656 939.340 0.000 354.967 374.524 316.181 407.417 508.460 1218.329 572.118 365.296 518.449 1487.371 544.043 528.011 538.015 545.496 969.826 493.201 333.087 1180.496 558.408 473.899 461.981 1129.634 464.739 1081.684 386.446 436.914 1013.674 252.719 278.939 424.996 546.990 1052.330 528.912 1361.481 358.341 433.005 1414.328 274.298 674.973 1071.496 502.563 485.230 411.439 959.745 1032.863 340.417 330.605 438.085 1059.313 437.335 452.393 415.459 485.748 345.381 1070.850 337.505 16.543 434.552 1699.962 301.582 507.432 424.296 242.276 340.892 283.968 92.523 461.461 381.086 484.774 314.182 424.201 436.564 443.778 953.353 438.647 1236.509 939.816 615.417 918.614 957.313 440.469 292.179 977.518 406.427
457.224 579.174 361.827 196.346 459.428 937.669 1170.585 409.710 425.961 450.972 558.261 433.054 520.688 199.514 564.228 889.309 349.087 0.000 350.227 391.849 337.744 591.545 1168.298 597.848 272.889 406.242 1437.340 533.041 579.686 527.013 535.547 919.795 489.199 448.724 1130.466 511.818 481.614 497.074 1079.603 414.708 1031.653 468.318 414.538 963.643 500.292 526.512 450.727 535.987 1002.299 554.642 1311.451 559.661 320.797 1364.297 501.073 551.692 1021.465 451.455 588.052 309.949 1207.318 982.832 315.184 477.018 354.454 1009.283 370.733 480.827 479.766 336.983 592.953 1318.423 585.078 336.719 386.512 1649.931 405.163 395.224 506.168 185.327 481.999 430.380 266.458 411.430 520.576 522.775 190.339 409.644 494.439 496.180 1200.925 212.059 1186.478 1187.388 519.110 1166.186 1204.885 367.104 518.953 1225.091 545.916
118.171 240.121 463.105 331.157 137.163 661.961 894.877 119.498 81.144 152.867 262.067 138.159 185.436 199.913 300.492 613.602 365.987 352.017 0.000 92.734 32.894 252.492 892.590 258.795 97.749 166.776 1161.632 217.775 244.434 211.746 220.281 644.087 166.933 550.002 854.758 223.954 159.348 161.822 803.895 142.355 755.945 133.066 102.460 687.935 241.777 514.770 111.674 220.721 726.592 215.589 1035.743 224.409 165.908 1088.589 205.246 593.623 745.758 168.674 248.999 223.695 908.841 707.125 120.215 173.723 63.562 733.575 62.812 145.575 581.044 363.002 294.576 1019.946 256.933 353.620 60.029 1374.223 76.880 187.409 170.916 325.219 579.102 103.164 333.124 142.557 185.324 187.523 161.677 75.751 159.187 160.928 902.449 315.901 910.770 888.912 279.645 867.710 906.409 65.946 189.628 926.614 210.664
148.295 255.944 481.515 371.597 170.779 704.502 937.417 176.541 132.399 195.937 305.137 189.414 209.287 240.352 270.674 656.142 307.491 392.456 91.325 0.000 104.264 251.190 935.131 288.919 169.035 258.102 1204.172 260.845 267.997 254.816 262.297 686.627 210.003 568.442 897.298 275.210 190.700 183.055 846.435 181.540 798.485 103.248 153.715 730.475 184.695 456.273 141.798 263.791 769.132 245.713 1078.283 194.590 249.135 1131.129 158.630 650.686 788.298 219.365 227.960 280.759 888.892 749.665 105.712 115.226 134.933 776.115 138.086 171.898 621.483 420.066 264.758 999.997 227.114 295.123 151.354 1416.763 18.383 278.734 141.097 365.658 576.246 44.667 274.627 178.262 155.505 205.847 202.117 141.003 153.366 164.852 882.499 372.964 953.310 868.962 332.219 847.761 886.460 141.221 159.809 906.665 180.845
126.388 248.337 450.611 318.663 145.379 670.178 903.094 127.715 89.361 161.083 270.284 146.375 201.836 187.419 319.307 621.818 398.881 338.045 32.894 104.264 0.000 260.708 900.807 267.012 64.856 174.993 1169.849 225.992 253.107 219.963 228.498 652.304 175.150 537.508 862.975 232.171 167.565 188.252 812.112 150.572 764.162 165.960 110.677 696.152 274.670 547.663 119.891 228.938 734.808 223.806 1043.959 257.303 154.632 1096.806 238.140 560.729 753.974 176.890 257.215 190.802 917.058 715.341 124.305 206.616 30.668 741.792 38.162 162.469 568.549 330.108 327.470 1028.163 275.747 386.513 53.890 1382.440 109.774 195.625 199.913 312.725 566.608 136.058 335.965 150.774 218.217 203.922 147.706 83.968 191.812 177.821 910.666 283.007 918.987 897.128 287.862 875.927 914.626 41.296 222.522 934.831 243.558
187.181 19.423 698.112 571.950 214.423 745.382 978.298 283.992 239.902 250.611 225.329 248.272 106.767 440.706 237.493 697.022 511.259 592.809 256.972 250.833 265.929 0.000 976.011 145.158 330.785 348.498 1245.053 212.510 47.770 214.193 192.012 727.508 254.419 785.038 938.178 252.601 195.867 159.979 887.316 269.680 839.366 163.660 241.310 771.356 294.337 660.042 180.683 198.457 810.012 101.952 1119.163 183.470 368.638 1172.010 257.807 775.374 829.178 303.642 22.823 440.351 682.666 790.545 347.332 249.759 288.344 816.996 277.564 150.390 821.836 544.753 315.960 793.771 201.862 498.892 274.781 1457.644 232.450 390.138 126.028 566.012 792.842 261.263 491.223 274.617 175.182 127.723 402.470 253.452 150.646 141.776 676.273 497.651 994.191 662.736 401.234 641.535 680.234 280.698 242.189 700.439 172.784
853.614 978.403 1302.258 1144.747 820.461 386.409 53.091 829.653 838.488 783.994 811.652 787.074 951.376 1048.346 1079.136 338.049 1211.320 1170.795 890.327 938.067 898.544 990.774 0.000 913.125 947.898 865.854 374.258 787.954 983.172 784.118 822.702 368.535 805.611 1389.155 283.092 766.367 842.671 948.081 246.499 795.913 258.672 946.088 821.970 319.989 1054.799 1360.102 865.526 794.148 558.196 930.463 231.653 1017.184 922.312 301.215 1018.269 1326.821 219.281 805.374 987.281 996.109 1647.124 450.864 1003.119 1010.220 924.691 215.297 892.464 922.298 1420.197 1096.200 1107.598 1758.229 1035.576 1198.952 880.159 586.849 922.213 946.610 959.742 1138.809 1418.255 948.496 1178.456 800.851 990.242 953.462 1008.632 841.926 951.641 937.650 1640.731 1049.099 68.984 1627.194 919.470 1605.992 1644.691 907.391 1002.650 1664.897 1006.498
194.053 131.582 710.770 578.822 221.296 670.579 903.494 290.865 246.774 221.177 138.191 251.036 195.349 447.578 343.203 622.219 562.405 599.682 263.844 289.152 272.802 143.953 901.208 0.000 337.657 261.359 1170.250 156.736 136.352 153.581 144.185 652.705 210.783 797.667 863.375 165.463 202.740 212.149 812.513 272.586 764.563 261.441 248.182 696.553 384.865 711.187 187.556 142.683 735.209 66.751 1044.360 281.251 375.510 1097.206 348.335 782.246 754.375 254.548 140.460 447.224 800.303 715.742 354.204 340.286 295.217 742.192 284.436 186.365 828.709 551.625 413.741 911.408 299.643 550.037 281.653 1382.841 273.298 382.620 223.810 572.884 826.767 299.581 529.541 277.523 272.964 201.442 409.343 260.324 226.772 201.718 793.911 504.524 919.387 780.373 314.095 759.172 797.871 287.571 332.716 818.076 270.566
191.243 313.193 385.755 253.808 210.235 720.123 953.039 192.164 154.216 225.939 335.139 211.231 266.692 122.563 384.162 671.763 353.738 273.189 97.749 169.044 64.856 325.564 950.752 331.868 0.000 210.364 1219.794 290.847 317.962 284.819 293.353 702.249 240.005 472.652 912.919 294.272 232.421 253.108 862.057 197.162 814.107 230.816 175.532 746.097 339.526 517.565 184.746 293.793 784.753 288.662 1093.904 322.158 107.015 1146.751 302.996 495.873 803.919 234.986 322.071 125.946 981.914 765.286 92.379 271.472 81.565 791.737 102.990 227.325 503.694 265.253 392.326 1093.019 340.603 341.370 118.746 1432.385 174.629 168.733 264.769 247.869 501.752 200.913 271.109 193.884 283.073 268.778 82.850 148.824 256.668 242.677 975.521 218.151 968.932 961.984 323.233 940.782 979.481 99.361 287.377 999.687 308.413
191.593 329.056 542.680 385.169 171.523 588.226 821.142 102.330 169.273 138.994 173.521 142.074 289.796 299.217 407.267 539.867 510.662 411.217 167.369 260.103 175.585 341.427 818.855 260.260 207.925 0.000 1087.897 170.849 333.826 164.820 173.355 570.352 128.649 629.577 781.023 135.156 191.978 276.212 730.160 125.788 682.210 284.338 163.007 614.200 393.048 677.667 193.447 173.795 652.856 277.599 962.008 345.315 198.408 1014.854 356.518 553.065 672.022 90.650 337.934 257.815 997.777 633.390 286.601 341.091 196.409 659.840 157.489 250.429 660.618 322.444 445.848 1108.882 363.707 498.295 145.183 1300.488 244.249 149.520 287.873 379.231 658.677 270.533 428.034 128.566 328.221 291.883 268.659 135.039 289.620 265.782 991.384 276.223 837.035 977.847 125.330 956.646 995.345 172.415 340.899 1015.550 334.629
1114.326 1239.116 1562.971 1405.460 1081.174 647.121 396.269 1090.366 1099.201 1044.707 1072.365 1047.787 1212.088 1309.059 1339.848 598.762 1472.032 1431.508 1151.040 1198.779 1159.257 1251.487 393.983 1173.838 1208.611 1126.567 0.000 1048.666 1243.885 1044.830 1083.414 629.247 1066.324 1649.868 543.805 1027.080 1103.384 1208.794 555.081 1056.626 525.894 1206.801 1082.683 612.071 1315.511 1620.815 1126.239 1054.861 818.908 1191.176 257.254 1277.896 1183.025 241.002 1278.981 1587.534 504.013 1066.087 1247.993 1256.822 1907.836 711.577 1263.832 1270.933 1185.404 523.879 1153.177 1183.011 1680.910 1356.913 1368.311 2018.941 1296.289 1459.665 1140.871 326.449 1182.925 1207.322 1220.455 1399.522 1678.968 1209.209 1439.169 1061.563 1250.955 1214.175 1269.345 1102.639 1212.354 1198.363 1901.444 1309.812 412.163 1887.907 1180.183 1866.705 1905.404 1168.103 1263.362 1925.609 1267.211
124.773 190.449 640.011 482.500 88.725 553.120 786.035 167.406 168.912 84.689 74.950 114.548 163.422 386.098 307.270 504.760 525.147 508.547 213.581 251.894 221.798 202.820 783.749 146.690 285.650 177.631 1052.791 0.000 195.219 21.931 34.748 535.246 74.294 726.908 745.916 79.580 96.587 176.215 695.054 136.098 647.104 225.507 136.006 579.094 348.931 673.929 148.427 6.195 617.750 144.914 926.901 245.318 260.065 979.747 312.401 664.573 636.916 141.341 199.327 333.862 859.170 598.283 316.946 304.353 244.213 624.733 230.216 150.432 757.949 433.953 377.808 970.275 263.710 512.779 217.911 1265.382 236.040 282.628 187.876 476.561 756.007 262.324 492.283 141.035 237.030 165.509 346.385 179.679 190.838 165.784 852.778 386.851 801.929 839.240 236.848 818.039 856.738 236.566 296.783 876.943 234.632
177.866 35.208 694.583 562.635 205.109 736.067 968.983 274.678 230.587 241.296 216.014 238.957 58.997 431.391 258.755 687.708 532.522 583.495 247.657 266.626 256.615 47.579 966.696 135.843 321.470 339.183 1235.738 203.195 0.000 204.879 182.697 718.193 245.104 781.480 928.864 243.287 186.552 124.621 878.001 260.365 830.051 179.452 231.995 762.041 310.130 681.304 171.369 189.142 800.698 92.637 1109.849 199.263 359.323 1162.695 273.600 766.059 819.864 294.327 44.086 431.036 703.929 781.231 338.017 265.552 279.030 807.681 268.249 112.144 812.522 535.438 331.753 815.033 217.655 520.154 265.466 1448.329 248.243 380.824 141.821 556.697 808.635 277.056 507.016 265.303 190.975 80.957 393.155 244.137 150.025 124.059 697.536 488.337 984.876 683.999 391.919 662.797 701.496 271.383 257.981 721.702 188.577
131.976 219.770 639.062 481.551 95.092 531.189 764.104 166.457 168.648 84.425 53.019 114.284 192.743 385.149 319.078 482.829 531.514 507.598 219.948 258.261 228.165 232.141 761.818 176.011 284.701 164.562 1030.860 29.320 224.539 0.000 64.069 513.315 74.030 725.958 723.985 57.649 103.789 188.023 673.123 135.149 625.173 237.315 135.742 557.163 360.245 680.297 155.630 35.515 595.819 174.234 904.970 257.126 259.115 957.816 323.715 663.624 614.985 140.392 228.648 332.913 888.491 576.352 323.313 315.667 250.580 602.802 229.267 162.240 757.000 433.004 389.616 999.595 275.518 519.147 216.962 1243.451 242.407 281.679 199.684 475.612 755.058 268.691 498.651 140.086 248.838 194.829 345.436 178.730 202.646 177.592 882.098 385.902 779.997 868.561 217.299 847.359 886.058 242.933 308.096 906.264 246.440
124.692 177.067 668.357 510.846 101.655 610.435 843.351 195.752 197.191 113.035 95.721 142.894 163.341 411.563 307.188 562.076 526.390 536.894 227.829 253.137 236.787 189.438 841.065 141.311 301.642 205.977 1110.106 77.563 181.836 79.247 0.000 592.561 102.641 755.254 803.232 136.896 96.506 176.134 752.369 164.444 704.419 225.426 164.352 636.409 348.850 675.172 148.346 63.510 675.066 139.534 984.217 245.236 288.411 1037.063 312.320 692.919 694.232 169.687 185.945 362.208 845.788 655.599 318.189 304.271 259.202 682.049 248.421 150.350 786.295 462.299 377.726 956.892 263.628 514.022 245.638 1322.697 237.283 310.974 187.795 504.908 784.354 263.566 493.526 169.381 236.948 165.427 373.327 208.025 190.757 165.703 839.395 415.197 859.244 825.858 265.194 804.656 843.355 251.555 296.701 863.561 234.550
638.035 762.824 1086.680 929.169 604.883 126.217 366.308 614.075 622.910 568.416 596.074 571.496 735.797 832.767 863.557 63.393 995.741 955.217 674.749 722.488 682.966 775.196 364.021 697.547 732.320 650.276 633.063 572.375 767.594 568.539 607.123 0.000 590.033 1173.577 326.189 550.789 627.093 732.503 270.990 580.335 227.376 730.510 606.392 89.447 839.220 1144.524 649.947 578.570 342.617 714.885 507.174 801.605 706.734 560.020 802.690 1111.243 217.188 589.796 771.702 780.531 1431.545 189.548 787.540 794.642 709.113 200.670 676.886 706.720 1204.618 880.622 892.020 1542.650 819.998 983.374 664.580 845.654 706.634 731.031 744.164 923.231 1202.677 732.918 962.878 585.272 774.664 737.884 793.054 626.348 736.063 722.072 1425.153 833.520 382.201 1411.616 703.892 1390.414 1429.113 691.812 787.071 1449.318 790.920
80.014 234.567 578.782 421.271 46.164 560.922 793.837 100.037 94.618 10.394 144.832 40.253 188.066 324.869 305.536 512.562 466.420 447.319 147.791 193.167 156.008 246.938 791.551 214.988 220.864 131.434 1060.592 100.540 239.336 94.511 103.046 543.048 0.000 665.679 753.718 97.680 69.072 174.482 702.856 61.903 654.906 186.441 61.711 586.896 295.151 615.203 91.930 103.486 625.552 210.036 934.703 243.584 198.836 987.549 258.621 603.345 644.718 71.395 243.445 272.633 903.288 606.085 258.220 250.573 176.832 632.535 166.052 148.698 696.720 372.724 347.951 1014.392 261.976 454.053 159.529 1273.183 177.313 212.599 186.143 415.333 694.779 203.597 433.557 66.840 216.643 190.152 285.156 121.296 178.042 164.051 896.895 325.623 809.730 883.358 190.651 862.156 900.855 169.186 243.002 921.061 232.899
651.525 759.636 173.708 255.969 673.530 1151.770 1384.686 623.811 620.263 665.073 772.362 647.155 714.990 402.138 563.078 1103.411 310.332 443.314 544.528 547.502 532.046 754.882 1382.400 792.149 467.190 620.343 1651.441 747.143 773.987 741.114 749.649 1133.896 703.300 0.000 1344.567 725.919 693.930 691.375 1293.704 628.809 1245.754 617.767 628.639 1177.744 499.141 507.938 645.028 750.089 1216.401 748.943 1525.552 604.763 534.899 1578.398 520.720 493.949 1235.567 665.557 731.652 513.332 1206.167 1196.934 509.485 561.926 548.755 1223.384 565.034 675.128 174.094 569.842 591.802 1317.272 583.927 297.964 580.813 1864.032 532.903 609.326 655.617 297.826 128.105 515.289 317.833 625.531 627.508 717.076 416.075 614.870 667.885 679.371 1199.774 537.080 1400.579 1186.237 733.212 1165.036 1203.735 561.405 538.600 1223.940 652.848
763.402 888.191 1212.047 1054.536 730.249 296.197 302.330 739.442 748.276 693.782 721.440 696.863 861.164 958.134 988.924 247.837 1121.108 1080.583 800.116 847.855 808.332 900.562 329.235 822.913 857.686 775.643 598.276 697.742 892.961 693.906 732.490 278.323 715.400 1298.944 0.000 676.156 752.460 857.870 206.055 705.702 172.626 855.877 731.759 261.147 964.587 1269.890 775.314 703.937 467.984 840.252 472.387 926.972 832.101 525.233 928.057 1236.609 138.867 715.162 897.069 905.898 1556.912 360.652 912.907 920.008 834.479 174.853 802.252 832.086 1329.985 1005.989 1017.387 1668.017 945.364 1108.740 789.947 810.867 832.001 856.398 869.531 1048.598 1328.043 858.285 1088.244 710.639 900.030 863.250 918.421 751.715 861.430 847.439 1550.519 958.887 318.223 1536.982 829.259 1515.781 1554.480 817.179 912.438 1574.685 916.286
153.677 233.113 638.694 481.183 116.537 530.822 763.737 166.089 168.281 84.058 59.915 113.917 219.428 384.782 352.281 482.462 540.084 507.231 221.454 266.830 229.671 245.484 761.451 158.814 284.334 142.892 1030.492 56.005 237.883 52.170 90.754 512.948 73.663 725.591 723.618 0.000 136.992 221.226 672.756 134.782 624.806 260.104 135.374 556.796 368.814 688.866 165.593 62.200 595.452 176.152 904.603 290.329 258.748 957.449 332.284 663.257 614.618 136.081 241.991 332.545 901.834 575.985 331.883 324.236 250.495 602.435 228.900 195.443 756.633 432.637 421.614 1012.939 308.721 527.716 216.595 1243.083 250.976 264.153 232.887 475.245 754.691 277.260 507.220 139.719 282.041 221.514 345.069 178.362 235.849 210.796 895.442 385.535 779.630 881.904 195.628 860.703 899.402 242.849 316.666 919.607 279.643
68.423 202.558 621.443 463.932 34.732 595.512 828.427 142.698 137.198 63.938 124.163 83.155 156.057 362.196 273.527 547.152 477.023 489.979 177.838 203.769 186.055 214.929 826.141 193.012 250.910 161.888 1095.183 78.564 207.327 72.535 81.070 577.638 58.552 708.340 788.308 127.677 0.000 142.473 737.446 104.563 689.496 191.765 104.372 621.486 302.163 625.805 92.077 81.510 660.142 178.027 969.293 211.575 241.497 1022.139 265.633 646.005 679.308 124.939 211.436 315.294 871.279 640.675 268.822 257.585 208.470 667.125 197.689 116.689 739.381 415.385 344.065 982.383 229.967 464.655 194.906 1307.774 187.915 255.260 154.134 457.994 737.439 214.199 444.159 109.501 203.288 158.143 323.960 163.936 157.096 132.042 864.886 368.283 844.320 851.349 221.105 830.147 868.846 200.823 250.015 889.052 200.890
108.906 159.829 611.300 479.352 136.149 713.104 946.020 205.718 161.627 172.336 238.298 169.997 65.624 348.108 181.289 664.744 453.072 500.212 164.374 183.481 187.654 161.805 943.733 215.811 252.510 279.480 1212.775 191.308 124.621 185.279 189.189 695.230 176.144 698.197 905.900 242.928 117.592 0.000 855.038 191.405 807.088 96.307 163.035 739.078 226.985 601.855 102.409 194.254 777.734 172.605 1086.885 119.337 289.397 1139.732 190.455 693.906 796.900 225.367 138.575 362.076 799.507 758.267 254.734 182.407 210.070 784.717 199.289 36.189 729.238 463.285 251.827 910.612 137.729 440.705 196.506 1425.366 165.098 311.863 61.895 473.414 725.490 193.911 423.871 196.342 109.090 67.710 309.872 175.177 44.113 39.803 793.114 416.184 961.913 779.577 338.697 758.376 797.075 202.423 174.837 817.280 108.651
761.618 886.407 1210.262 1052.751 728.465 239.424 190.284 737.657 746.492 691.998 719.656 695.078 859.380 956.350 987.140 239.003 1119.324 1078.799 798.331 846.071 806.548 898.778 232.987 821.129 855.902 773.858 540.289 695.958 891.177 692.122 730.706 269.489 713.615 1297.159 187.740 674.371 750.675 856.085 0.000 703.917 112.499 854.093 729.974 169.376 962.803 1268.106 773.530 702.153 466.200 838.467 386.223 925.188 830.316 467.246 926.273 1234.825 68.668 713.378 895.285 904.113 1555.128 301.738 911.123 918.224 832.695 64.684 800.468 830.302 1328.201 1004.205 1015.602 1666.233 943.580 1106.956 788.163 752.880 830.217 854.614 867.746 1046.813 1326.259 856.500 1086.460 708.855 898.246 861.466 916.637 749.931 859.645 845.655 1548.735 957.103 206.177 1535.198 827.475 1513.997 1552.696 815.395 910.654 1572.901 914.502
102.959 257.512 561.886 404.376 69.831 552.644 785.560 59.868 100.967 61.375 182.441 43.457 211.011 307.974 328.481 504.284 470.948 430.423 149.955 197.695 158.172 269.883 783.273 264.554 207.526 119.726 1052.315 150.106 262.282 144.077 152.612 534.770 99.601 648.783 745.441 129.246 92.017 197.427 694.578 0.000 646.628 205.717 84.386 578.618 314.427 619.730 114.620 153.052 617.274 232.981 926.425 266.530 181.940 979.272 277.897 577.374 636.440 55.695 266.390 255.737 926.233 597.807 262.747 269.848 180.294 624.258 141.373 171.644 679.825 346.754 367.227 1037.338 284.922 458.580 129.068 1264.906 181.841 172.429 209.088 398.437 677.883 208.124 438.084 49.944 239.588 213.097 268.261 88.502 200.987 186.996 919.840 299.652 801.453 906.303 178.943 885.102 923.801 156.300 262.278 944.006 255.844
751.854 876.643 1200.499 1042.988 718.701 270.529 217.865 727.894 736.728 682.234 709.892 685.315 849.616 946.586 977.376 236.289 1109.560 1069.035 788.568 836.307 796.784 889.014 249.483 811.365 846.138 764.094 518.525 686.194 881.413 682.358 720.942 266.775 703.852 1287.396 167.150 664.608 740.911 846.322 126.991 694.154 0.000 844.329 720.211 200.480 953.039 1258.342 763.766 692.389 456.436 828.704 392.635 915.424 820.553 445.481 916.509 1225.061 54.693 703.614 885.521 894.350 1545.364 332.843 901.359 908.460 822.931 95.789 790.704 820.538 1318.437 994.441 1005.839 1656.469 933.816 1097.192 778.399 731.116 820.453 844.850 857.983 1037.049 1316.495 846.737 1076.696 699.091 888.482 851.702 906.873 740.167 849.882 835.891 1538.971 947.339 233.758 1525.434 817.711 1504.233 1542.932 805.631 900.890 1563.137 904.738
133.895 169.572 549.842 449.298 161.138 714.710 947.625 199.025 154.883 197.325 289.715 194.986 122.915 318.054 184.301 666.350 372.155 470.158 134.320 102.563 159.736 164.818 945.339 267.228 224.591 283.210 1214.380 242.725 181.624 236.696 240.606 696.836 211.391 636.768 907.506 280.516 169.009 96.682 856.644 191.748 808.694 0.000 159.517 740.684 146.067 520.937 127.398 245.671 779.340 224.022 1088.491 122.349 259.343 1141.337 109.537 663.852 798.506 229.573 141.588 333.140 802.520 759.873 208.276 101.489 190.404 786.323 187.069 87.093 699.185 433.231 198.867 913.624 140.742 359.787 184.287 1426.971 84.180 305.171 54.725 443.360 644.572 112.993 342.953 188.470 72.434 119.475 279.818 163.487 66.993 78.479 796.127 386.130 963.518 782.590 342.427 761.388 800.087 190.204 93.919 820.293 102.546
76.777 231.330 563.456 405.945 62.017 584.351 817.267 93.184 74.211 53.616 174.689 35.699 184.829 309.543 302.299 535.992 446.014 431.992 127.385 172.761 135.601 243.701 814.980 250.005 200.457 154.924 1084.022 142.348 236.100 136.319 144.854 566.477 91.787 650.353 777.148 121.494 84.202 171.245 726.285 56.931 678.335 166.034 0.000 610.325 274.745 594.796 78.632 145.294 648.982 206.799 958.133 240.348 183.510 1010.979 238.214 588.018 668.148 90.893 240.208 257.307 900.051 629.515 237.813 230.166 156.426 655.965 145.645 145.462 681.394 357.398 327.544 1011.156 258.740 433.646 139.122 1296.613 156.907 207.627 182.906 400.007 679.452 183.190 413.150 51.514 213.406 186.915 269.830 100.890 174.805 160.814 893.658 310.296 833.160 880.121 214.141 858.920 897.619 148.779 222.596 917.824 229.662
669.637 794.426 1118.282 960.771 636.485 80.042 279.080 645.677 654.512 600.017 627.676 603.098 767.399 864.369 895.159 101.532 1027.343 986.819 706.351 754.090 714.567 806.797 321.783 729.148 763.921 681.878 599.904 603.977 799.196 600.141 638.725 117.393 621.635 1205.179 276.535 582.391 658.695 764.105 182.805 611.937 194.217 762.112 637.994 0.000 870.822 1176.125 681.549 610.172 374.219 746.487 474.014 833.207 738.336 526.861 834.292 1142.845 157.463 621.398 803.304 812.133 1463.147 170.608 819.142 826.244 740.714 112.484 708.488 738.321 1236.220 912.224 923.622 1574.252 851.600 1014.975 696.182 812.495 738.236 762.633 775.766 954.833 1234.279 764.520 994.479 616.874 806.266 769.485 824.656 657.950 767.665 753.674 1456.755 865.122 294.973 1443.217 735.494 1422.016 1460.715 723.414 818.673 1480.920 822.522
246.419 301.500 437.945 392.203 272.575 814.828 1047.744 299.144 255.002 297.733 406.933 295.334 254.843 298.787 161.816 766.468 248.475 477.350 234.439 183.207 259.854 296.746 1045.457 387.043 324.710 383.328 1314.499 362.539 313.552 356.511 360.421 796.954 311.799 524.871 1007.624 380.924 288.824 228.610 956.762 291.867 908.812 148.803 259.636 840.802 0.000 397.258 239.921 365.486 879.458 343.837 1188.609 118.639 359.462 1241.456 34.596 763.970 898.624 329.691 273.516 433.259 804.905 859.991 288.920 102.266 290.522 886.442 287.188 219.022 607.244 533.350 157.392 916.010 153.100 236.108 284.405 1527.090 168.609 405.289 186.653 408.084 532.676 160.762 239.543 288.589 141.384 251.403 362.138 263.605 198.921 210.407 798.513 486.248 1063.637 784.976 442.545 763.774 802.473 290.322 52.477 822.678 166.724
569.558 651.279 388.039 402.716 592.042 1125.764 1358.680 597.804 553.662 617.199 726.400 610.677 626.278 417.918 454.720 1077.404 265.685 523.355 512.588 454.245 545.481 646.525 1356.393 710.182 515.013 674.133 1625.435 682.108 666.075 676.079 683.560 1107.890 631.266 508.837 1318.561 696.472 611.963 600.046 1267.698 602.803 1219.748 524.510 574.978 1151.738 390.783 0.000 563.061 685.054 1190.394 666.976 1499.546 496.405 588.689 1552.392 412.363 843.361 1209.560 640.628 623.295 569.763 1097.810 1170.928 478.481 468.669 576.150 1197.378 575.399 590.457 584.190 641.432 483.445 1208.914 475.570 253.318 572.617 1838.026 439.646 660.415 562.360 425.294 515.600 422.032 256.753 599.525 519.150 622.838 472.506 562.265 574.628 581.843 1091.417 594.331 1374.573 1077.880 753.482 1056.678 1095.377 578.534 430.243 1115.583 544.491
6.497 189.091 576.066 444.118 33.740 616.241 849.157 112.506 93.450 69.927 177.439 67.588 142.590 312.874 260.060 567.882 427.700 464.977 129.140 154.447 138.097 201.462 846.870 207.766 202.953 186.989 1115.912 131.842 193.860 125.813 129.723 598.367 83.993 662.963 809.038 153.118 53.369 129.006 758.175 88.997 710.225 147.022 60.626 642.215 255.732 576.482 0.000 134.788 680.871 164.560 990.023 198.108 222.186 1042.869 219.202 628.922 700.037 122.958 197.969 298.211 857.812 661.405 219.499 211.154 160.512 687.855 149.732 103.222 694.004 398.302 308.532 968.916 216.500 415.332 146.949 1328.503 138.593 239.693 140.667 438.180 692.062 164.877 394.836 93.934 171.167 144.676 274.638 120.194 132.566 118.575 851.419 351.200 865.050 837.882 246.207 816.680 855.379 152.866 203.583 875.585 187.423
119.414 208.944 633.816 476.305 82.530 546.925 779.841 161.211 162.717 78.494 68.755 108.353 181.917 379.903 306.516 498.565 518.952 502.352 207.386 245.699 215.603 221.315 777.554 165.185 279.455 171.436 1046.596 21.765 213.714 15.736 53.243 529.051 68.099 720.713 739.721 73.385 91.227 175.461 688.859 129.903 640.909 224.753 129.811 572.899 347.683 667.735 143.068 0.000 611.555 163.409 920.706 244.564 253.870 973.553 311.153 658.378 630.721 135.146 217.822 327.667 877.665 592.088 310.751 303.105 238.018 618.538 224.021 149.678 751.754 427.758 377.054 988.770 262.956 506.585 211.716 1259.187 229.845 276.433 187.122 470.367 749.812 256.129 486.089 134.840 236.276 184.004 340.190 173.484 190.084 165.030 871.273 380.656 795.734 857.735 230.653 836.534 875.233 230.371 295.534 895.438 233.878
668.352 793.141 1116.997 959.486 635.199 341.574 535.344 644.392 653.226 598.732 626.390 601.813 766.114 863.084 893.874 310.386 1026.058 985.533 705.065 752.805 713.282 805.512 533.057 727.863 762.636 680.592 802.099 602.692 797.911 598.856 637.440 338.158 620.349 1203.893 495.225 581.105 657.409 762.819 444.362 610.651 396.412 760.827 636.708 328.402 869.537 1174.840 680.264 608.887 0.000 745.201 676.210 831.922 737.050 729.056 833.007 1141.559 386.224 620.112 802.019 810.847 1461.862 259.134 817.857 824.958 739.429 374.042 707.202 737.036 1234.935 910.939 922.337 1572.967 850.314 1013.690 694.897 1014.690 736.951 761.348 774.480 953.547 1232.993 763.235 993.194 615.589 804.980 768.200 823.371 656.665 766.380 752.389 1455.469 863.837 551.237 1441.932 734.209 1420.731 1459.430 722.129 817.388 1479.635 821.236
150.847 88.376 667.564 535.616 178.090 686.676 919.592 247.659 203.568 214.277 155.529 211.938 152.143 404.372 299.997 638.317 519.199 556.476 220.638 245.946 229.596 100.747 917.305 66.645 294.451 278.697 1186.347 153.804 93.146 155.487 141.253 668.802 207.851 754.461 879.473 182.801 159.534 168.943 828.610 233.346 780.660 218.235 204.976 712.650 341.659 667.981 144.350 139.751 751.306 0.000 1060.458 238.045 332.304 1113.304 305.129 739.040 770.472 267.308 97.254 404.018 757.097 731.840 310.998 297.080 252.011 758.290 241.230 143.159 785.503 508.419 370.535 868.202 256.437 506.831 238.447 1398.938 230.092 353.805 180.604 529.678 783.561 256.375 486.335 238.284 229.758 158.236 366.137 217.118 183.566 158.512 750.705 461.318 935.485 737.167 331.434 715.966 754.665 244.365 289.510 774.870 227.360
999.191 1123.981 1447.836 1290.325 966.039 531.986 212.758 975.231 984.066 929.572 957.230 932.652 1096.953 1193.924 1224.713 483.627 1356.897 1316.373 1035.905 1083.644 1044.122 1136.352 240.789 1058.703 1093.476 1011.432 259.003 933.531 1128.750 929.695 968.279 514.112 951.189 1534.733 428.670 911.945 988.249 1093.659 406.475 941.491 410.759 1091.666 967.548 479.964 1200.376 1505.680 1011.104 939.726 703.773 1076.041 0.000 1162.761 1067.890 197.480 1163.846 1472.399 379.257 950.952 1132.858 1141.687 1792.701 596.442 1148.697 1155.798 1070.269 375.273 1038.042 1067.876 1565.774 1241.778 1253.176 1903.806 1181.154 1344.530 1025.736 471.594 1067.790 1092.187 1105.320 1284.387 1563.833 1094.074 1324.034 946.428 1135.820 1099.040 1154.210 987.504 1097.219 1083.228 1786.309 1194.677 228.651 1772.772 1065.048 1751.570 1790.269 1052.968 1148.227 1810.474 1152.076
179.251 188.501 538.571 492.829 206.494 783.449 1016.365 276.063 231.972 242.681 308.644 240.343 141.844 373.419 87.138 735.090 349.101 551.981 225.206 193.449 250.622 183.746 1014.079 286.157 315.477 349.826 1283.120 261.653 200.553 255.625 259.535 765.575 246.490 625.497 976.246 313.274 187.938 115.611 925.383 261.751 877.433 119.292 233.380 809.423 123.014 497.883 172.754 264.600 848.080 242.951 1157.231 0.000 350.229 1210.077 86.484 754.738 867.246 295.712 160.516 424.026 730.227 828.613 299.162 125.857 280.415 855.063 269.635 106.022 707.869 524.117 139.743 841.332 43.579 336.733 266.852 1495.711 175.066 382.209 81.661 508.710 633.302 185.182 340.169 266.688 71.040 138.404 370.704 245.522 106.278 97.408 723.835 477.016 1032.258 710.298 409.043 689.096 727.795 272.769 70.865 748.000 68.642
210.578 354.436 423.211 265.137 204.779 683.020 915.936 155.060 176.406 196.322 310.364 178.405 307.935 179.748 423.679 634.660 391.194 291.185 187.324 245.220 154.735 366.807 913.649 373.111 89.879 175.534 1182.691 278.392 359.205 272.363 280.898 665.146 234.549 510.108 875.816 257.169 226.965 285.009 824.954 160.058 777.004 256.253 159.889 708.994 364.963 558.198 204.081 281.338 747.650 329.905 1056.801 347.596 0.000 1109.647 328.433 450.454 766.816 197.883 363.314 104.160 1023.157 728.183 168.555 320.385 163.705 754.633 163.459 268.567 541.150 219.833 417.763 1134.261 380.120 378.826 163.972 1395.282 232.377 139.512 294.103 259.199 539.208 258.661 308.565 156.781 308.510 310.021 150.613 154.995 282.374 283.920 1016.764 172.732 931.829 1003.227 288.403 982.025 1020.724 167.587 312.815 1040.930 333.851
1034.494 1159.284 1483.139 1325.628 1001.342 567.289 316.438 1010.534 1019.369 964.875 992.533 967.955 1132.257 1229.227 1260.016 518.930 1392.201 1351.676 1071.208 1118.947 1079.425 1171.655 314.151 1094.006 1128.779 1046.735 266.295 968.834 1164.053 964.999 1003.583 549.415 986.492 1570.036 463.973 947.248 1023.552 1128.962 475.249 976.794 446.062 1126.969 1002.851 532.239 1235.679 1540.983 1046.407 975.029 739.076 1111.344 200.904 1198.065 1103.193 0.000 1199.149 1507.702 424.181 986.255 1168.162 1176.990 1828.004 631.745 1184.000 1191.101 1105.572 444.047 1073.345 1103.179 1601.078 1277.081 1288.479 1939.109 1216.457 1379.833 1061.039 478.886 1103.093 1127.490 1140.623 1319.690 1599.136 1129.377 1359.337 981.731 1171.123 1134.343 1189.513 1022.807 1132.522 1118.531 1821.612 1229.980 332.331 1808.075 1100.351 1786.873 1825.572 1088.271 1183.531 1845.778 1187.379
211.823 266.904 457.255 411.513 237.979 780.232 1013.148 264.547 220.406 263.137 372.337 260.738 220.247 311.642 162.063 731.872 267.785 490.205 199.843 168.086 225.258 262.150 1010.861 352.447 290.114 348.732 1279.903 327.943 278.956 321.915 325.825 762.358 277.203 544.181 973.028 346.328 254.228 194.014 922.166 257.270 874.216 114.207 225.040 806.206 41.698 416.568 205.325 330.889 844.862 309.241 1154.013 84.043 324.866 1206.859 0.000 729.374 864.028 295.095 238.919 398.663 805.152 825.395 273.798 93.167 255.926 851.845 252.592 184.425 626.554 498.754 154.210 916.257 118.504 255.418 249.809 1492.494 149.702 370.693 152.057 427.394 551.986 151.663 258.853 253.993 106.788 216.807 345.341 229.009 164.325 175.811 798.760 451.652 1029.041 785.223 407.949 764.021 802.720 255.726 17.881 822.925 132.128
546.711 690.568 665.825 508.314 540.912 1019.152 1252.068 491.193 512.539 532.455 629.241 514.537 644.067 422.362 759.812 970.792 633.808 492.032 523.457 582.415 491.930 702.939 1249.781 709.243 427.075 471.424 1518.823 614.524 695.338 608.496 617.030 1001.278 570.682 694.462 1211.949 590.875 563.097 621.141 1161.086 496.191 1113.136 592.386 496.021 1045.126 701.096 800.812 540.213 617.470 1083.782 666.037 1392.934 683.728 402.280 1445.780 664.566 0.000 1102.948 522.435 699.446 386.991 1359.289 1064.316 505.750 656.517 500.901 1090.766 500.655 604.700 656.002 254.153 753.896 1470.394 716.252 621.440 501.168 1731.414 568.510 476.707 630.235 492.639 729.481 594.793 551.179 492.913 644.643 646.153 424.666 491.127 618.506 620.052 1352.896 321.382 1267.961 1339.359 584.292 1318.158 1356.857 504.783 648.947 1377.062 669.983
717.857 842.646 1166.502 1008.991 684.705 226.935 179.672 693.897 702.732 648.237 675.896 651.318 815.619 912.589 943.379 202.292 1075.563 1035.039 754.571 802.310 762.787 855.017 221.428 777.368 812.141 730.098 490.470 652.197 847.416 648.361 686.945 232.778 669.855 1253.399 133.153 630.611 706.915 812.325 83.397 660.157 56.299 810.332 686.214 156.887 919.042 1224.345 729.769 658.392 422.439 794.707 364.581 881.427 786.556 417.427 882.512 1191.065 0.000 669.618 851.524 860.353 1511.367 289.249 867.362 874.464 788.934 52.195 756.708 786.541 1284.440 960.444 971.842 1622.472 899.820 1063.195 744.402 703.061 786.456 810.853 823.986 1003.053 1282.499 812.740 1042.699 665.094 854.486 817.706 872.876 706.170 815.885 801.894 1504.975 913.342 195.565 1491.437 783.714 1470.236 1508.935 771.634 866.893 1529.140 870.742
136.921 291.474 583.772 426.261 103.793 562.149 795.064 65.126 130.925 70.993 170.679 74.073 244.973 340.309 362.443 513.789 499.879 452.308 168.915 226.625 177.132 303.845 792.778 257.419 241.451 90.844 1061.820 155.934 296.244 149.906 158.440 544.275 110.994 670.669 754.945 132.314 125.979 231.389 704.083 55.695 656.133 239.641 118.311 588.123 348.351 648.661 148.582 158.880 626.779 266.943 935.930 300.491 199.955 988.776 311.821 595.037 645.945 0.000 300.352 289.662 960.195 607.312 289.130 303.773 197.956 633.762 159.035 205.606 701.710 364.416 401.151 1071.300 318.884 487.511 146.730 1274.411 210.771 190.091 243.050 420.322 699.768 237.055 467.015 83.869 273.550 247.059 302.185 106.164 234.949 220.958 953.802 317.314 810.957 940.265 150.061 919.063 957.762 173.962 296.203 977.968 289.806
182.191 27.985 675.288 566.960 209.434 740.392 973.308 279.003 234.912 245.621 220.339 243.282 101.778 435.716 215.759 692.032 489.526 587.820 251.982 228.010 260.940 23.230 971.021 140.168 325.795 343.508 1240.063 207.520 42.780 209.203 187.022 722.518 249.429 762.215 933.189 247.612 190.877 137.156 882.326 264.690 834.376 140.836 236.320 766.366 271.514 638.308 175.694 193.467 805.022 96.962 1114.174 160.647 363.648 1167.020 234.984 770.384 824.188 298.652 0.000 435.361 660.932 785.556 333.723 226.936 283.355 812.006 272.574 127.567 816.847 539.763 293.137 772.037 179.039 477.158 269.791 1452.654 209.627 385.148 103.205 561.022 770.019 238.440 468.400 269.627 152.359 104.899 397.480 248.462 127.823 118.953 654.540 492.662 989.201 641.002 396.244 619.801 658.500 275.708 219.366 678.705 149.961
287.462 431.320 431.968 279.843 281.663 759.904 992.819 231.944 253.290 273.206 387.247 255.288 384.818 168.777 500.563 711.544 399.951 305.891 223.604 281.195 190.710 443.691 990.533 449.994 125.854 252.418 1259.574 355.276 436.089 349.247 357.782 742.029 311.433 518.865 952.700 334.052 303.848 361.892 901.838 236.942 853.887 333.137 236.772 785.877 441.847 570.055 280.965 358.222 824.534 406.788 1133.685 424.479 141.968 1186.531 405.317 466.885 843.700 274.767 440.197 0.000 1100.040 805.067 204.530 391.352 199.681 831.517 207.192 345.451 549.907 236.265 494.647 1211.145 457.003 387.583 222.971 1472.165 294.509 216.395 370.986 273.905 547.965 320.793 317.322 233.664 385.394 386.905 125.328 231.878 359.258 360.803 1093.648 189.163 1008.712 1080.111 365.286 1058.909 1097.608 203.563 389.698 1117.813 410.734
825.536 671.330 1119.178 1073.436 852.779 1383.737 1616.653 922.348 878.257 888.966 863.684 886.627 745.123 1065.768 655.942 1335.378 929.709 1187.379 895.327 871.356 904.285 666.575 1614.367 783.513 969.140 986.853 1883.408 850.865 686.126 852.549 830.368 1365.863 892.774 1206.105 1576.534 890.957 834.223 780.501 1525.671 908.035 1477.721 784.182 879.665 1409.711 779.998 1078.491 819.039 836.812 1448.368 740.307 1757.519 711.025 1006.993 1810.365 786.518 1413.729 1467.534 941.997 643.345 1078.707 0.000 1428.901 977.068 825.891 926.700 1455.351 915.919 770.912 1288.477 1183.108 753.245 325.622 678.874 917.341 913.136 2095.999 852.972 1028.494 746.551 1089.317 1213.909 881.785 920.777 912.973 760.763 748.245 1040.825 891.807 771.168 762.298 129.483 1136.007 1632.546 80.180 1039.589 90.565 337.934 919.054 770.899 232.291 758.365
666.379 791.169 1115.024 957.513 633.227 140.671 411.103 642.419 651.254 596.760 624.418 599.840 764.142 861.112 891.901 143.269 1024.086 983.561 703.093 750.832 711.310 803.540 436.463 725.891 760.664 678.620 705.504 600.719 795.938 596.884 635.468 173.755 618.377 1201.921 398.630 579.133 655.437 760.847 314.829 608.679 299.817 758.854 634.736 170.608 867.564 1172.868 678.292 606.914 281.511 743.229 579.615 829.950 735.078 632.461 831.034 1139.587 289.487 618.140 800.047 808.875 1459.889 0.000 815.885 822.986 737.457 244.508 705.230 735.064 1232.963 908.966 920.364 1570.994 848.342 1011.718 692.924 918.095 734.978 759.375 772.508 951.575 1231.021 761.262 991.222 613.616 803.008 766.228 821.398 654.692 764.407 750.416 1453.497 861.865 426.996 1439.960 732.236 1418.758 1457.457 720.156 815.416 1477.663 819.264
207.842 329.792 425.247 293.299 230.326 764.049 996.965 233.157 191.947 255.484 364.684 248.961 271.307 162.055 376.386 715.689 332.513 314.158 113.659 105.712 117.731 342.163 994.678 348.467 90.737 280.435 1263.720 320.392 330.304 314.364 321.845 746.175 269.550 512.144 956.845 334.757 250.248 247.692 905.983 241.087 858.033 208.960 213.263 790.023 290.408 481.295 201.345 323.338 828.679 305.261 1137.830 300.302 180.513 1190.676 264.342 572.389 847.845 278.912 333.672 202.461 994.604 809.212 0.000 220.938 140.598 835.662 151.553 231.446 543.185 341.768 370.470 1105.709 332.826 320.145 167.281 1476.311 124.096 242.773 246.809 287.361 541.243 150.379 299.649 237.809 261.217 273.393 123.819 189.410 245.058 246.798 988.212 294.667 1012.858 974.674 391.766 953.473 992.172 154.687 265.521 1012.377 286.557
200.384 255.466 493.482 426.013 226.541 768.793 1001.709 253.109 208.967 251.698 360.899 249.300 208.808 283.250 202.816 720.434 319.457 461.813 175.803 117.460 208.696 250.711 999.423 341.008 273.552 337.294 1268.464 316.505 267.518 310.476 314.386 750.919 265.765 580.408 961.590 334.889 242.789 182.576 910.727 245.832 862.777 102.769 213.601 794.767 105.988 468.239 193.887 319.451 833.424 297.802 1142.575 124.795 313.427 1195.421 79.922 717.936 852.590 283.657 227.481 387.224 845.905 813.957 223.172 0.000 239.365 840.407 238.614 172.987 662.780 487.315 194.963 957.010 159.256 307.089 235.831 1481.055 102.861 359.255 140.618 420.075 588.212 95.014 286.593 242.554 95.349 205.368 314.500 217.571 152.887 164.373 839.512 440.214 1017.602 825.975 396.511 804.774 843.473 241.749 88.960 863.678 120.690
157.056 279.006 467.321 335.373 176.048 691.002 923.918 148.539 110.185 185.117 300.952 167.200 232.504 204.129 349.975 642.643 429.549 354.755 63.562 134.933 30.668 291.377 921.631 297.680 81.565 195.817 1190.673 256.660 283.775 250.631 259.166 673.128 205.818 554.218 883.799 252.995 198.233 218.920 832.936 171.396 784.986 196.628 131.501 716.976 305.338 578.332 150.559 259.606 755.632 254.474 1064.784 287.971 157.491 1117.630 268.808 569.379 774.798 197.714 287.883 199.452 947.726 736.166 147.456 237.285 0.000 762.616 54.956 193.137 585.259 338.758 358.138 1058.831 306.415 417.182 70.736 1403.264 140.442 216.449 230.581 329.435 583.317 166.726 352.674 171.598 248.886 234.591 164.415 104.792 222.480 208.490 941.334 291.657 939.811 927.797 308.686 906.595 945.294 51.327 253.190 965.499 274.226
703.019 827.808 1151.664 994.153 669.867 180.826 174.656 679.059 687.894 633.399 661.058 636.480 800.781 897.751 928.541 180.404 1060.725 1020.201 739.733 787.472 747.949 840.179 217.359 762.530 797.303 715.260 524.661 637.359 832.578 633.523 672.107 210.890 655.017 1238.561 172.112 615.773 692.077 797.487 78.381 645.319 96.871 795.494 671.376 110.777 904.204 1209.507 714.931 643.554 407.601 779.869 370.595 866.589 771.718 451.618 867.674 1176.227 53.040 654.780 836.686 845.515 1496.529 243.139 852.524 859.626 774.096 0.000 741.869 771.703 1269.602 945.606 957.004 1607.634 884.981 1048.357 729.564 737.252 771.618 796.015 809.148 988.215 1267.661 797.902 1027.861 650.256 839.648 802.867 858.038 691.332 801.047 787.056 1490.137 898.504 190.549 1476.599 768.876 1455.398 1494.097 756.796 852.055 1514.302 855.904
148.080 270.029 483.433 351.485 167.072 659.044 891.960 112.192 90.872 165.804 286.388 147.886 223.528 220.241 340.999 610.685 428.799 370.867 62.812 138.086 38.162 282.400 889.674 288.704 102.990 159.470 1158.715 247.684 274.799 241.655 250.190 641.170 196.842 570.330 851.841 233.193 189.257 209.944 800.978 139.438 753.028 195.736 112.188 685.018 304.447 577.581 141.583 250.630 723.675 245.498 1032.826 279.047 134.394 1085.672 267.916 569.999 742.841 161.368 278.907 206.963 938.750 704.208 158.127 236.534 54.956 730.658 0.000 184.161 601.371 339.379 357.246 1049.855 297.439 416.431 33.110 1371.306 139.692 180.103 221.605 345.547 599.430 165.976 368.787 139.640 247.994 225.614 180.527 68.445 213.504 199.513 932.358 292.277 907.853 918.820 272.339 897.619 936.318 19.656 252.298 956.523 268.361
99.555 142.108 606.887 474.940 126.797 703.753 936.668 196.366 152.275 162.985 228.947 160.646 64.729 343.696 156.838 655.393 430.604 495.799 159.962 162.249 178.303 137.354 934.382 206.460 243.159 270.129 1203.423 181.957 123.726 175.928 179.838 685.879 166.793 693.784 896.549 233.577 108.241 36.787 845.687 182.054 797.737 75.075 153.684 729.727 205.753 579.387 93.057 184.903 768.383 163.254 1077.534 94.886 281.011 1130.380 169.223 687.747 787.549 216.016 114.124 352.725 775.056 748.916 250.321 161.175 200.718 775.366 189.938 0.000 724.826 457.127 227.376 886.161 113.278 418.237 187.155 1416.015 143.866 302.512 37.444 469.002 704.258 172.679 402.639 186.991 86.598 61.964 305.460 165.826 40.406 15.352 768.663 410.025 952.561 755.126 329.346 733.925 772.624 193.072 153.605 792.829 84.200
687.067 809.016 251.964 291.510 709.071 1187.312 1420.228 659.352 655.804 700.615 807.903 682.697 750.531 437.680 641.120 1138.952 388.374 478.856 580.070 621.692 567.587 821.387 1417.941 827.691 502.732 655.885 1686.983 782.684 809.528 776.655 785.190 1169.438 738.841 175.332 1380.108 761.461 729.472 726.917 1329.246 664.351 1281.296 695.809 664.181 1213.286 577.183 581.000 680.569 785.630 1251.942 784.485 1561.093 682.805 570.440 1613.940 598.762 449.435 1271.108 701.098 809.694 548.874 1284.209 1232.475 545.027 639.968 584.297 1258.925 600.575 710.670 0.000 600.896 669.844 1395.314 661.969 376.007 616.355 1899.574 610.945 644.867 733.659 333.367 226.956 593.331 395.875 661.073 705.550 752.618 451.617 650.412 724.282 726.022 1277.816 572.622 1436.121 1264.279 768.753 1243.078 1281.777 596.947 616.643 1301.982 730.890
435.118 578.976 489.151 323.669 429.319 907.560 1140.476 379.600 400.946 420.862 517.648 402.945 532.475 310.770 648.219 859.200 488.403 359.891 411.864 470.823 380.338 591.347 1138.189 597.651 315.482 360.604 1407.231 502.932 583.745 496.903 505.438 889.686 459.089 576.048 1100.356 479.283 451.505 509.549 1049.494 384.598 1001.544 480.793 384.429 933.534 589.503 665.828 428.621 505.878 972.190 554.445 1281.341 572.136 290.688 1334.187 552.973 291.970 991.356 410.843 587.854 275.399 1247.697 952.723 394.158 544.925 389.308 979.173 389.062 493.107 561.316 0.000 642.303 1358.801 604.660 476.035 389.576 1619.822 456.917 365.115 518.643 302.996 609.323 483.201 405.774 381.320 533.050 534.561 313.074 379.535 506.914 508.460 1241.304 164.065 1156.369 1227.767 473.473 1206.565 1245.264 393.191 537.355 1265.470 558.391
305.481 321.466 525.047 479.305 331.637 873.890 1106.806 358.206 314.064 356.795 441.609 354.397 274.809 438.887 129.171 825.530 335.577 593.247 293.501 261.744 318.916 316.712 1104.519 419.123 383.772 442.390 1373.561 394.619 333.519 388.590 392.500 856.016 370.861 611.973 1066.687 439.986 320.903 248.577 1015.824 350.929 967.874 207.557 318.698 899.864 153.117 484.360 298.984 397.565 938.520 375.917 1247.671 137.870 418.524 1300.518 154.778 823.033 957.686 388.753 293.482 492.321 772.260 919.053 367.456 194.152 349.584 945.504 346.250 238.988 694.346 592.412 0.000 883.365 144.584 323.210 343.467 1586.152 243.361 464.351 214.626 495.186 619.778 253.477 326.645 347.651 167.122 271.369 438.999 322.667 233.165 230.374 765.867 545.310 1122.699 752.330 501.607 731.129 769.828 349.384 139.160 790.033 192.463
974.034 819.828 1267.676 1221.934 1001.277 1532.235 1765.151 1070.846 1026.755 1037.464 1012.183 1035.125 893.621 1214.266 804.440 1483.876 1078.207 1335.877 1043.825 1019.854 1052.783 815.073 1762.865 932.011 1117.638 1135.351 2031.906 999.363 834.624 1001.047 978.866 1514.361 1041.272 1354.603 1725.032 1039.455 982.721 928.999 1674.169 1056.533 1626.219 932.680 1028.163 1558.209 928.496 1226.989 967.537 985.311 1596.866 888.805 1906.017 859.523 1155.491 1958.863 935.016 1562.227 1616.032 1090.495 791.843 1227.205 328.996 1577.399 1125.566 974.389 1075.198 1603.849 1064.417 919.410 1436.975 1331.606 901.743 0.000 827.372 1065.839 1061.634 2244.497 1001.470 1176.992 895.049 1237.815 1362.407 1030.283 1069.275 1061.471 909.261 896.743 1189.324 1040.305 919.666 910.796 322.603 1284.505 1781.044 309.066 1188.087 287.864 526.286 1067.552 919.397 122.268 906.863
200.147 209.397 516.381 470.639 227.390 804.345 1037.261 296.959 252.868 263.577 329.540 261.238 162.739 406.610 53.145 755.986 326.912 584.582 258.397 226.641 278.896 204.642 1034.974 307.053 343.751 370.722 1304.016 282.549 221.449 276.520 280.431 786.471 267.385 603.307 997.142 334.170 208.834 136.507 946.279 282.646 898.329 140.188 254.276 830.319 156.205 475.694 193.650 285.495 868.975 263.847 1178.127 44.182 381.604 1230.973 119.675 787.929 888.141 316.608 181.412 453.318 696.234 849.509 332.353 159.048 301.311 875.959 290.530 126.918 685.680 557.309 144.583 807.339 0.000 314.544 287.747 1516.607 208.257 403.105 102.556 486.520 611.112 218.374 317.980 287.584 93.920 159.299 403.896 266.418 127.174 118.304 689.842 510.207 1053.154 676.305 429.939 655.103 693.802 293.665 104.057 714.007 91.522
414.951 496.672 229.618 183.876 437.435 971.157 1204.073 443.197 399.055 462.592 571.793 456.070 471.671 263.311 300.113 922.797 12.368 338.424 357.981 299.638 390.874 491.918 1201.786 555.575 348.753 501.907 1470.828 527.501 511.468 521.472 528.953 953.283 476.659 316.544 1163.954 541.865 457.356 445.438 1113.091 448.196 1065.141 369.903 420.371 997.131 236.176 262.396 408.454 530.447 1035.787 512.369 1344.939 341.798 416.462 1397.785 257.755 658.430 1054.953 486.020 468.687 394.896 943.203 1016.320 323.874 314.062 421.543 1042.771 420.792 435.850 398.917 469.206 328.838 1054.307 320.963 0.000 418.009 1683.419 285.039 490.889 407.753 225.733 324.349 267.425 75.980 444.918 364.543 468.231 297.639 407.658 420.021 427.236 936.810 422.104 1219.966 923.273 598.874 902.071 940.770 423.927 275.636 960.976 389.884
142.349 264.299 514.599 382.651 161.341 639.211 872.126 92.359 80.194 155.126 266.554 137.209 217.798 251.407 335.268 590.851 423.069 402.033 57.081 149.815 65.298 276.670 869.840 282.974 130.154 139.637 1138.882 234.583 269.068 228.554 237.089 621.337 191.111 601.496 832.007 213.359 183.527 204.214 781.145 119.605 733.195 190.006 101.510 665.185 298.716 571.851 135.852 237.529 703.841 239.768 1012.992 273.316 138.768 1065.838 262.186 574.373 723.007 141.534 273.177 235.672 933.020 684.374 177.296 230.804 86.122 710.824 39.693 178.431 632.537 343.753 351.516 1044.125 291.709 410.701 0.000 1351.473 133.961 160.269 215.875 376.713 630.596 160.245 390.205 119.807 242.263 219.884 211.693 48.612 207.774 193.783 926.627 296.651 888.020 913.090 252.505 891.888 930.587 56.780 246.567 950.793 262.631
1328.688 1453.477 1777.332 1619.821 1295.535 861.483 606.482 1304.727 1313.562 1259.068 1286.726 1262.148 1426.450 1523.420 1554.210 813.123 1686.394 1645.869 1365.401 1413.141 1373.618 1465.848 608.344 1388.199 1422.972 1340.928 325.601 1263.028 1458.246 1259.192 1297.776 843.609 1280.685 1864.229 758.166 1241.441 1317.745 1423.155 769.443 1270.987 740.255 1421.162 1297.044 826.432 1529.873 1835.176 1340.600 1269.222 1033.270 1405.537 466.660 1492.258 1397.386 455.364 1493.342 1801.895 718.374 1280.448 1462.355 1471.183 2122.198 925.938 1478.193 1485.294 1399.765 738.241 1367.538 1397.372 1895.271 1571.274 1582.672 2233.302 1510.650 1674.026 1355.233 0.000 1397.287 1421.684 1434.816 1613.883 1893.329 1423.570 1653.530 1275.925 1465.316 1428.536 1483.706 1317.000 1426.715 1412.724 2115.805 1524.173 622.375 2102.268 1394.544 2081.066 2119.765 1382.465 1477.724 2139.971 1481.572
133.696 237.561 465.661 384.904 156.180 689.903 922.818 161.942 117.800 181.338 290.538 174.815 190.904 253.660 252.290 641.543 291.637 405.763 76.726 18.383 109.620 232.807 920.532 274.321 174.476 243.503 1189.573 246.246 249.613 240.217 247.698 672.029 195.404 552.588 882.699 260.611 176.101 164.671 831.837 166.941 783.887 84.864 139.117 715.877 168.841 440.419 127.199 249.192 754.533 231.115 1063.684 176.207 234.536 1116.530 142.776 639.045 773.699 204.766 209.577 294.054 870.509 735.066 124.096 99.372 140.288 761.516 139.538 155.083 634.790 408.424 246.374 981.613 208.731 279.269 136.755 1402.165 0.000 264.135 122.714 378.965 560.392 28.813 258.773 163.663 137.121 187.464 215.424 126.404 134.982 146.468 864.116 361.323 938.711 850.579 317.620 829.377 868.076 142.672 141.426 888.282 162.462
233.300 379.076 523.321 365.810 223.843 706.655 939.571 144.105 182.338 215.386 300.212 197.468 332.575 264.000 450.045 658.296 491.303 391.858 180.434 273.168 188.651 391.447 937.285 386.951 163.552 148.444 1206.326 297.539 383.846 291.511 300.045 688.781 253.613 610.218 899.452 261.846 246.028 318.991 848.589 175.744 800.639 306.123 182.610 732.629 414.833 658.308 226.802 300.486 771.286 354.545 1080.437 388.093 112.279 1133.283 378.303 547.884 790.452 193.406 387.954 213.443 1047.797 751.819 242.228 354.156 209.475 778.269 170.554 293.208 641.260 317.263 467.633 1158.902 406.486 478.936 158.249 1418.917 257.314 0.000 330.652 359.872 639.318 283.598 408.675 196.309 358.380 334.661 224.287 148.104 322.551 308.560 1041.404 270.162 955.464 1027.867 261.312 1006.666 1045.365 185.481 362.684 1065.570 377.408
135.370 144.619 600.315 499.772 162.612 739.568 972.483 232.181 188.091 198.800 264.762 196.461 97.962 368.528 159.348 691.208 422.628 520.632 184.794 153.037 210.209 139.865 970.197 242.275 275.065 305.944 1239.239 217.772 156.671 211.743 215.653 721.694 202.608 687.241 932.364 269.392 144.056 71.729 881.502 217.869 833.552 65.863 189.499 765.542 196.541 571.410 128.872 220.718 804.198 199.069 1113.349 97.396 309.817 1166.195 160.011 714.326 823.364 251.831 116.635 383.614 777.567 784.731 258.749 151.963 236.533 811.181 225.753 62.141 749.658 483.705 229.886 888.671 115.789 410.260 222.970 1451.830 134.654 338.327 0.000 493.834 695.046 163.467 393.427 222.806 78.646 94.522 330.292 201.641 52.850 53.526 771.174 436.604 988.376 757.637 365.161 736.435 775.134 228.887 144.392 795.340 86.711
427.291 549.240 216.933 51.451 425.819 904.060 1136.975 376.100 396.028 417.362 524.651 399.445 490.755 156.685 464.925 855.700 228.704 185.327 320.294 361.916 307.811 561.611 1134.689 567.915 242.956 372.632 1403.730 499.432 549.752 493.403 501.938 886.186 455.589 303.830 1096.856 478.208 448.004 467.141 1045.994 381.098 998.044 438.385 380.928 930.034 400.988 427.208 420.794 502.378 968.690 524.709 1277.841 506.610 287.188 1330.687 422.568 484.146 987.856 417.846 558.118 276.340 1108.015 949.223 285.251 434.189 324.521 975.673 340.800 450.894 334.871 301.685 493.650 1219.119 485.775 216.336 356.579 1616.321 375.230 361.615 476.235 0.000 337.105 387.552 167.155 377.820 490.642 492.842 167.869 376.035 464.506 466.246 1101.622 268.923 1152.868 1088.085 485.501 1066.883 1105.582 337.171 440.448 1125.788 515.983
700.963 803.542 224.878 307.139 722.967 1201.208 1434.124 673.249 669.700 714.511 821.800 696.593 764.427 451.576 606.984 1152.848 354.238 494.484 593.966 591.408 581.483 798.788 1431.837 841.587 516.628 669.781 1700.879 796.580 818.338 790.551 799.086 1183.334 752.737 130.927 1394.005 775.357 743.368 740.813 1343.142 678.247 1295.192 661.673 678.077 1227.182 543.047 505.922 694.466 799.526 1265.838 798.381 1574.989 648.669 584.336 1627.836 564.626 530.883 1285.004 714.994 775.558 562.770 1250.073 1246.371 558.923 605.832 598.193 1272.822 614.472 724.566 235.130 621.012 635.708 1361.178 627.833 341.870 630.251 1913.470 576.809 658.763 699.523 348.996 0.000 559.195 361.739 674.969 671.414 764.273 465.513 664.308 711.791 723.277 1243.680 588.250 1450.017 1230.143 782.649 1208.942 1247.641 610.843 582.507 1267.846 696.754
168.365 276.014 436.848 369.380 190.849 724.572 957.487 196.611 152.469 216.007 325.207 209.484 229.357 226.617 258.974 676.212 262.823 405.180 111.395 53.052 144.289 271.260 955.201 308.989 209.144 278.172 1224.242 280.915 288.067 274.886 282.367 706.697 230.073 523.774 917.368 295.280 210.770 203.125 866.505 201.610 818.555 123.318 173.785 750.545 162.146 411.606 161.868 283.861 789.202 265.783 1098.353 180.953 269.205 1151.199 136.080 673.714 808.368 239.435 248.030 328.723 902.063 769.735 158.764 92.676 174.957 796.185 174.207 191.968 606.147 443.093 251.121 1013.168 215.414 250.456 171.424 1436.833 38.453 298.804 161.167 363.442 531.579 0.000 229.960 198.332 175.575 225.917 250.093 161.073 173.436 184.922 895.670 395.992 973.380 882.133 352.289 860.932 899.631 177.341 145.118 919.836 200.915
387.295 494.329 253.282 174.479 409.779 943.502 1176.417 415.541 371.399 434.937 544.137 428.414 448.287 206.961 297.771 895.142 87.559 266.602 330.325 271.982 341.787 489.575 1174.131 527.919 276.931 430.085 1443.172 499.845 506.997 493.816 501.297 925.627 449.003 340.209 1136.298 514.210 429.700 422.055 1085.436 420.540 1037.486 342.248 392.715 969.476 233.834 260.054 380.798 502.791 1008.132 484.714 1317.283 339.456 344.640 1370.129 255.413 586.608 1027.298 458.365 466.345 323.074 940.860 988.665 296.219 286.407 358.497 1015.115 374.775 410.898 422.581 397.384 326.495 1051.965 318.620 75.191 390.354 1655.763 257.383 419.067 380.097 168.541 348.013 239.769 0.000 417.262 362.201 444.847 225.817 380.003 392.366 403.852 934.467 350.282 1192.310 920.930 542.953 899.728 938.427 371.147 273.293 958.633 387.541
97.365 243.141 550.797 393.286 108.567 579.972 812.888 58.925 63.193 100.110 207.316 82.192 196.640 296.884 314.110 531.613 445.282 419.334 120.355 172.029 128.571 255.512 810.601 261.816 193.427 144.748 1079.643 175.344 247.911 169.316 177.850 562.098 133.145 637.694 772.769 154.121 130.752 183.056 721.906 60.366 673.956 171.659 46.675 605.946 280.369 594.064 90.867 178.291 644.602 218.610 953.754 252.158 168.624 1006.600 243.839 575.360 663.769 98.191 252.019 244.648 911.862 625.136 237.081 235.791 149.395 651.586 117.169 157.273 668.735 344.739 333.169 1022.967 270.551 432.914 104.863 1292.234 156.175 190.124 194.717 387.348 666.794 182.459 412.418 0.000 223.916 198.726 257.171 66.631 186.616 172.625 905.469 297.637 828.781 891.932 207.690 870.731 909.430 132.095 228.220 929.635 241.473
157.152 177.591 555.840 502.281 184.395 766.896 999.812 252.007 207.866 220.582 297.734 218.243 130.934 371.037 136.179 718.536 366.371 523.140 187.303 155.546 212.718 172.836 997.525 275.247 277.574 336.192 1266.567 250.743 189.643 244.715 248.625 749.022 234.648 642.767 959.693 302.364 177.028 104.701 908.830 239.651 860.880 71.260 211.281 792.870 140.284 515.153 150.655 253.689 831.526 232.041 1140.678 68.885 312.326 1193.524 103.753 716.834 850.692 273.613 149.606 386.123 779.269 812.060 261.258 95.705 243.386 838.510 240.052 95.112 725.139 486.214 167.127 890.373 92.620 354.003 237.269 1479.158 137.162 358.153 67.202 496.343 650.571 165.976 357.439 241.453 0.000 127.493 332.801 216.469 79.471 86.498 772.876 439.112 1015.705 759.339 395.409 738.137 776.836 243.186 88.135 797.042 40.948
130.819 116.164 638.152 506.205 158.062 714.326 947.241 227.631 183.540 194.249 236.156 191.911 21.959 374.960 195.789 665.966 469.556 527.064 191.226 201.201 209.568 128.130 944.955 211.357 274.424 301.394 1213.996 189.166 80.957 183.137 187.047 696.452 198.058 725.049 907.122 240.786 139.506 67.710 856.260 213.319 808.310 114.027 184.949 740.300 244.705 618.338 124.322 192.112 778.956 168.151 1088.107 133.837 312.276 1140.953 208.175 719.012 798.122 247.280 104.899 383.990 765.832 759.489 281.586 200.127 231.983 785.939 221.203 55.233 756.091 488.392 266.327 876.936 152.230 457.188 218.420 1426.587 182.818 333.777 76.396 500.266 743.210 211.631 441.590 218.256 125.550 0.000 336.725 197.090 88.508 62.541 759.439 441.290 963.134 745.902 360.611 724.700 763.399 224.337 192.556 783.605 123.152
266.885 388.834 340.172 177.256 289.368 779.341 1012.257 251.382 235.622 292.644 406.685 274.726 330.349 69.892 445.405 730.981 308.154 190.339 159.888 201.510 147.405 401.205 1009.970 407.509 82.549 269.583 1279.012 373.397 389.346 367.368 375.903 761.467 322.555 427.069 972.138 353.490 309.290 306.735 921.275 256.380 873.325 277.979 256.210 805.315 374.568 481.190 260.387 376.343 843.971 364.303 1153.122 369.322 166.233 1205.969 350.159 504.381 863.137 294.204 397.712 125.328 1057.555 824.504 124.845 311.666 164.115 850.955 180.393 290.488 458.110 273.760 439.489 1168.660 401.845 295.787 196.173 1491.603 214.824 227.951 315.829 171.318 456.169 241.107 225.526 253.102 330.236 332.435 0.000 230.229 304.100 305.840 1051.162 226.659 1028.150 1037.625 382.451 1016.424 1055.123 176.764 334.540 1075.328 355.577
110.359 244.994 528.537 371.026 121.422 592.828 825.743 56.152 46.916 112.965 220.171 95.048 198.493 270.077 315.963 544.468 415.870 397.074 75.751 142.616 83.968 257.365 823.457 263.669 148.824 134.447 1092.498 188.200 249.764 182.171 190.706 574.953 146.000 615.434 785.624 166.976 143.608 184.909 734.762 73.221 686.812 170.701 59.669 618.802 279.411 564.652 103.862 191.146 657.458 220.463 966.609 254.011 133.578 1019.455 242.881 553.100 676.624 105.327 253.872 222.388 913.715 637.991 195.966 223.605 104.792 664.441 65.871 159.126 646.476 322.479 332.211 1024.820 272.404 403.502 53.566 1305.089 126.762 155.079 196.570 365.088 644.534 153.046 383.006 73.423 222.958 200.579 230.363 0.000 188.469 174.478 907.322 275.378 841.636 893.785 220.545 872.584 911.283 80.798 227.262 931.488 243.326
122.592 155.066 597.962 479.153 149.834 729.019 961.934 219.403 175.313 186.022 254.213 183.683 90.420 347.909 169.795 680.659 420.275 500.013 164.175 150.683 189.591 150.312 959.648 231.726 254.446 295.395 1228.689 207.222 149.417 201.194 205.104 711.144 192.059 684.888 921.815 258.843 133.507 44.113 870.953 205.091 823.002 63.510 176.721 754.992 194.187 569.057 116.094 210.169 793.649 188.520 1102.800 107.843 289.198 1155.646 157.657 693.707 812.815 239.053 127.081 362.995 788.014 774.182 254.535 149.609 220.259 800.632 212.975 51.591 729.040 463.086 229.991 899.118 126.236 407.907 210.192 1441.280 132.300 325.549 40.219 473.215 692.692 161.113 391.073 210.028 76.292 89.589 309.673 188.863 0.000 42.977 781.621 415.985 977.827 768.084 354.612 746.882 785.581 216.109 142.039 805.787 97.158
107.889 126.756 594.175 483.274 135.132 712.087 945.003 204.700 160.610 171.319 237.281 168.980 74.448 352.030 141.485 663.727 415.252 504.133 168.296 146.897 186.637 122.002 942.716 214.794 251.493 278.463 1211.758 190.291 133.445 184.262 188.172 694.213 175.127 681.101 904.883 241.911 116.575 44.248 854.021 190.388 806.071 59.723 162.018 738.061 190.401 564.034 101.392 193.237 776.717 171.588 1085.868 79.533 289.346 1138.715 153.871 696.082 795.883 224.350 98.771 361.059 759.704 757.250 252.609 145.822 209.053 783.700 198.272 34.660 733.160 465.461 212.023 870.808 97.926 402.884 195.489 1424.349 128.514 310.846 22.092 477.336 688.906 157.327 387.286 195.325 71.246 72.657 313.794 174.160 36.274 0.000 753.311 418.359 960.896 739.774 337.680 718.572 757.271 201.406 138.252 777.477 68.848
821.531 667.325 1115.174 1069.432 848.774 1379.733 1612.648 918.343 874.252 884.961 859.680 882.623 741.118 1061.763 651.937 1331.373 925.704 1183.374 891.323 867.351 900.280 662.571 1610.362 779.509 965.136 982.848 1879.404 846.861 682.121 848.544 826.363 1361.859 888.770 1202.100 1572.529 886.952 830.218 776.496 1521.667 904.031 1473.717 780.177 875.661 1405.707 775.993 1074.486 815.034 832.808 1444.363 736.303 1753.514 707.020 1002.988 1806.360 782.513 1409.724 1463.529 937.992 639.341 1074.702 129.483 1424.896 973.063 821.886 922.695 1451.346 911.915 766.907 1284.472 1179.104 749.240 321.618 674.869 913.336 909.132 2091.995 848.968 1024.489 742.546 1085.313 1209.905 877.781 916.772 908.968 756.758 744.240 1036.821 887.802 767.164 758.293 0.000 1132.002 1628.541 56.067 1035.585 61.596 360.771 915.049 766.895 228.286 754.360
364.775 508.633 453.420 287.938 358.976 837.217 1070.132 309.257 330.603 350.519 464.560 332.602 462.132 261.785 577.876 788.857 452.672 221.594 341.521 399.417 308.932 521.004 1067.846 527.308 244.076 305.658 1336.888 432.589 513.402 426.560 435.095 819.343 388.746 540.317 1030.013 411.365 381.162 439.206 979.151 314.255 931.201 410.450 314.086 863.191 519.160 630.097 358.278 435.535 901.847 484.102 1210.998 501.793 219.282 1263.844 482.630 396.545 921.013 352.080 517.511 199.535 1177.354 882.380 322.752 474.582 317.902 908.830 317.656 422.764 571.358 163.842 571.960 1288.458 534.317 440.304 318.169 1549.479 386.574 293.709 448.300 267.265 573.592 412.858 370.043 310.977 462.707 464.218 263.526 309.192 436.571 438.117 1170.961 0.000 1086.026 1157.424 418.526 1136.222 1174.921 321.784 467.012 1195.127 488.048
871.570 996.359 1320.214 1162.703 838.417 365.341 25.936 847.609 856.444 801.950 829.608 805.030 969.332 1066.302 1097.092 356.005 1229.276 1188.751 908.283 956.023 916.500 1008.730 68.823 931.081 965.854 883.810 392.214 805.910 1001.129 802.074 840.658 386.491 823.567 1407.111 301.048 784.323 860.627 966.037 221.802 813.869 233.975 964.044 839.926 295.292 1072.755 1378.058 883.482 812.105 576.152 948.419 221.875 1035.140 940.268 319.171 1036.225 1344.777 194.584 823.330 1005.237 1014.065 1665.080 427.654 1021.075 1028.176 942.647 190.600 910.420 940.254 1438.153 1114.157 1125.554 1776.185 1053.532 1216.908 898.115 604.805 940.169 964.566 977.698 1156.765 1436.211 966.452 1196.412 818.807 1008.198 971.418 1026.589 859.882 969.597 955.606 1658.687 1067.055 0.000 1645.150 937.427 1623.948 1662.647 925.347 1020.606 1682.853 1024.454
807.994 653.788 1101.637 1055.895 835.237 1366.196 1599.111 904.806 860.715 871.424 846.143 869.086 727.581 1048.226 638.400 1317.836 912.167 1169.837 877.785 853.814 886.743 649.033 1596.825 765.972 951.599 969.311 1865.866 833.323 668.584 835.007 812.826 1348.321 875.232 1188.563 1558.992 873.415 816.681 762.959 1508.130 890.494 1460.180 766.640 862.123 1392.170 762.456 1060.949 801.497 819.271 1430.826 722.766 1739.977 693.483 989.451 1792.823 768.976 1396.187 1449.992 924.455 625.803 1061.165 80.180 1411.359 959.526 808.349 909.158 1437.809 898.377 753.370 1270.935 1165.566 735.703 308.081 661.332 899.799 895.595 2078.457 835.430 1010.952 729.009 1071.776 1196.367 864.243 903.235 895.431 743.221 730.703 1023.284 874.265 753.626 744.756 56.067 1118.465 1615.004 0.000 1022.047 41.821 311.468 901.512 753.358 214.749 740.823
263.034 383.477 653.722 496.211 225.943 642.647 875.562 198.211 245.476 193.415 227.942 196.495 344.217 410.259 461.687 594.287 618.308 522.259 278.411 345.055 286.628 395.848 873.276 314.681 318.967 127.015 1142.318 225.269 388.246 219.241 227.775 624.773 183.070 740.619 835.443 189.576 246.399 330.633 784.581 182.037 736.631 353.077 228.958 668.621 461.787 767.090 273.151 228.216 707.277 332.019 1016.428 399.735 309.450 1069.274 425.257 664.107 726.443 150.304 392.355 368.858 1052.197 687.810 397.643 417.208 307.452 714.260 268.531 304.850 771.661 433.486 514.587 1163.302 418.128 605.940 256.225 1354.909 329.201 260.562 342.294 490.273 769.719 355.485 539.076 210.211 391.448 346.303 379.702 232.506 345.256 320.202 1045.805 387.265 891.455 1032.268 0.000 1011.066 1049.765 283.458 409.638 1069.970 389.050
790.339 636.133 1083.981 1038.239 817.582 1348.540 1581.456 887.151 843.060 853.769 828.487 851.430 709.926 1030.571 620.745 1300.181 894.512 1152.182 860.130 836.158 869.088 631.378 1579.169 748.316 933.943 951.656 1848.211 815.668 650.928 817.352 795.170 1330.666 857.577 1170.907 1541.337 855.760 799.025 745.304 1490.474 872.838 1442.524 748.985 844.468 1374.514 744.801 1043.294 783.842 801.615 1413.171 705.110 1722.322 675.828 971.796 1775.168 751.321 1378.532 1432.337 906.800 608.148 1043.509 90.965 1393.704 941.871 790.694 891.503 1420.154 880.722 735.715 1253.280 1147.911 718.047 290.425 643.677 882.144 877.939 2060.802 817.775 993.297 711.353 1054.120 1178.712 846.588 885.580 877.776 725.566 713.048 1005.628 856.610 735.971 727.101 61.596 1100.810 1597.349 43.745 1004.392 0.000 322.253 883.856 735.702 197.094 723.168
840.234 686.028 1133.876 1088.134 867.477 1398.435 1631.351 937.046 892.955 903.664 878.383 901.325 759.821 1080.466 670.640 1350.076 944.407 1202.077 910.025 886.054 918.983 681.273 1629.065 798.211 983.838 1001.551 1898.106 865.563 700.824 867.247 845.066 1380.561 907.472 1220.803 1591.232 905.655 848.921 795.199 1540.369 922.733 1492.419 798.880 894.363 1424.409 794.696 1093.189 833.737 851.510 1463.066 755.005 1772.217 725.723 1021.691 1825.063 801.216 1428.427 1482.232 956.695 658.043 1093.405 334.867 1443.599 991.766 840.589 941.398 1470.049 930.617 785.610 1303.175 1197.806 767.943 520.407 693.572 932.039 927.834 2110.697 867.670 1043.192 761.249 1104.015 1228.607 896.483 935.475 927.671 775.461 762.943 1055.523 906.505 785.866 776.996 360.094 1150.705 1647.244 310.791 1054.287 321.176 0.000 933.752 785.597 427.075 773.063
151.214 273.164 479.804 347.856 170.206 671.397 904.313 124.545 94.006 168.938 290.011 151.020 226.662 216.612 344.133 623.037 431.933 367.238 65.946 141.221 41.296 285.535 902.026 291.838 99.361 171.823 1171.068 250.818 277.933 244.789 253.324 653.523 199.976 566.701 864.194 236.816 192.391 213.078 813.331 151.791 765.381 198.871 115.322 697.371 307.581 580.716 144.717 253.764 736.027 248.632 1045.179 282.181 143.031 1098.025 271.051 573.261 755.193 173.720 282.042 203.334 941.884 716.560 161.262 239.669 51.327 743.011 19.656 187.295 597.742 342.641 360.381 1052.989 300.573 419.566 39.037 1383.659 142.826 190.360 224.739 341.918 595.801 169.110 365.158 151.993 251.128 228.749 176.899 80.798 216.638 202.648 935.492 295.539 920.206 921.955 284.691 900.753 939.452 0.000 255.432 959.657 271.495
200.032 255.114 467.705 421.964 226.189 768.442 1001.357 252.757 208.615 251.347 360.547 248.948 208.457 322.093 150.273 720.082 278.236 500.655 188.052 156.295 213.468 250.359 999.071 340.657 278.323 336.942 1268.112 316.153 267.166 310.124 314.034 750.568 265.413 554.632 961.238 334.538 242.437 182.224 910.376 245.480 862.426 102.417 213.250 794.416 52.149 427.018 193.535 319.099 833.072 297.451 1142.223 72.253 313.075 1195.069 15.619 717.584 852.238 283.305 227.129 386.872 793.362 813.605 262.008 88.703 244.136 840.055 240.802 172.635 637.004 486.963 142.420 904.467 106.713 265.868 238.019 1480.703 137.912 358.903 140.266 437.844 562.436 148.028 269.304 242.202 94.998 205.016 333.551 217.219 152.535 164.021 786.970 439.862 1017.250 773.432 396.159 752.231 790.930 243.936 0.000 811.135 120.338
884.517 730.311 1178.159 1132.417 911.760 1442.718 1675.634 981.329 937.238 947.947 922.665 945.608 804.103 1124.749 714.923 1394.358 988.689 1246.359 954.308 930.336 963.266 725.556 1673.347 842.494 1028.121 1045.834 1942.389 909.846 745.106 911.529 889.348 1424.844 951.755 1265.085 1635.515 949.938 893.203 839.482 1584.652 967.016 1536.702 843.162 938.646 1468.692 838.979 1137.472 878.020 895.793 1507.348 799.288 1816.500 770.006 1065.974 1869.346 845.499 1472.710 1526.514 1000.978 702.326 1137.687 239.478 1487.881 1036.049 884.872 985.681 1514.332 974.900 829.893 1347.458 1242.089 812.225 119.603 737.854 976.322 972.117 2154.980 911.953 1087.474 805.531 1148.298 1272.890 940.766 979.757 971.953 819.743 807.225 1099.806 950.788 830.149 821.279 233.086 1194.988 1691.527 219.549 1098.570 198.347 436.769 978.034 829.880 0.000 817.345
173.546 182.796 604.504 547.495 200.789 777.744 1010.660 270.358 226.267 236.976 302.938 234.637 136.138 416.251 174.178 729.384 415.034 568.355 232.517 200.760 252.295 178.041 1008.373 280.452 317.150 344.121 1277.415 255.948 194.848 249.919 253.830 759.870 240.784 691.430 970.541 307.568 182.232 109.906 919.678 256.045 871.728 113.587 227.675 803.718 188.947 563.816 167.049 258.894 842.374 237.246 1151.526 112.227 355.003 1204.372 152.417 761.739 861.540 290.007 154.811 426.716 815.743 822.908 306.473 144.369 274.710 849.358 263.929 100.317 773.802 531.118 215.791 926.848 130.619 402.666 261.146 1490.006 182.377 376.504 70.436 541.557 699.235 211.190 406.102 260.983 62.092 132.698 378.015 239.817 100.573 91.703 809.351 484.017 1026.553 795.813 403.338 774.612 813.311 267.063 136.798 833.516 0.000
NODE_COORD_SECTION
1 27567.380647 -311.862562
2 25516.626763 1773.205196
3 22285.304200 -10175.421527
4 24299.718521 -8032.141401
5 28021.440090 -189.892032
6 38386.082984 6227.564734
7 37346.094945 13033.736459
8 28558.042888 -1577.658353
9 27728.652337 -1328.204867
10 28358.643486 -407.949272
11 29203.365749 1216.734302
12 28516.750816 -516.909152
13 25855.219219 611.730041
14 25878.937527 -5630.525332
15 22085.566096 -467.379640
16 38041.607225 6142.353238
17 22148.545265 -6311.538716
18 26737.923929 -7224.134977
19 26894.992416 -2187.621195
20 25786.080172 -2669.799275
21 27165.749578 -2566.816002
22 25303.640828 1738.417634
23 37001.078904 12782.381627
24 27546.013525 2543.699329
25 27265.678962 -3823.897249
26 29888.849311 -1733.644538
27 30044.657523 15736.304640
28 28692.165652 827.837520
29 25723.168561 1420.423125
30 28901.442462 752.638737
31 28271.166305 973.048146
32 38153.023551 6361.117608
33 28500.207366 -264.978993
34 23128.408401 -12266.563631
35 36413.824345 9296.542510
36 29491.269348 625.744265
37 27993.176418 182.038358
38 25980.903404 -128.364264
39 39095.792163 9561.096481
40 28622.625663 -1009.905598
41 37519.987465 9521.948438
42 25481.059087 -941.327686
43 28028.714568 -1010.260525
44 38494.644633 6976.597640
45 23049.514235 -2122.480258
46 20593.141732 -6689.767955
47 27442.719656 -332.324126
48 28638.924139 761.233887
49 39293.751134 2062.901473
50 26829.106518 2306.104128
51 34959.644122 15570.172265
52 24016.409736 -507.983313
53 28483.938058 -3980.549104
54 33358.318868 14588.511893
55 23705.244014 -1941.100512
56 30362.669206 -12346.342503
57 37895.273696 9375.845135
58 29109.449549 -1061.198958
59 25098.920450 1588.871607
60 27772.818783 -4716.435308
61 17903.040301 12589.949060
62 38615.333586 5350.947567
63 26343.064931 -3482.688620
64 24781.048851 -1935.504361
65 27259.316149 -2528.392149
66 38408.842071 8918.928974
67 27637.818414 -2487.007469
68 25971.726443 -20.030792
69 24566.835745 -12682.726756
70 29138.869856 -8494.045818
71 23009.349029 -1350.905791
72 19808.470571 14547.026470
73 23288.989012 -341.573751
74 22217.129886 -6314.584021
75 27685.258601 -2266.328078
76 31321.454020 13663.435225
77 25766.035552 -2408.230442
78 28880.224924 -3030.972342
79 25335.615333 -264.586822
80 24930.820754 -7881.573179
81 22925.985008 -12529.288247
82 25118.163490 -2615.200704
83 22887.984345 -6205.441955
84 28235.109018 -1124.655351
85 24761.001558 -623.986255
86 25797.382212 429.719899
87 26742.930207 -5310.840943
88 27932.891369 -1816.771068
89 25706.970878 -297.844113
90 25593.248724 -83.671123
91 17978.985960 13602.108620
92 28616.303981 -7334.181910
93 37585.286741 13019.075832
94 17702.943282 13125.087225
95 29866.318544 -904.165272
96 17853.538518 13188.724125
97 15973.775738 10653.130291
98 27578.884119 -2588.851942
99 24021.923064 -1791.974956
100 18841.723311 15564.132102
101 24747.970654 -318.439963
DEMAND_SECTION
1 0
2 7
3 8
4 10
5 5
6 7
7 10
8 8
9 3
10 69
11 81
12 4
13 4
14 7
15 3
16 65
17 5
18 3
19 4
20 60
21 2
22 7
23 3
24 9
25 3
26 6
27 9
28 4
29 1
30 4
31 7
32 8
33 60
34 6
35 75
36 8
37 7
38 7
39 7
40 3
41 3
42 9
43 8
44 3
45 4
46 5
47 8
48 10
49 4
50 68
51 7
52 7
53 4
54 8
55 4
56 4
57 9
58 3
59 9
60 74
61 5
62 1
63 4
64 10
65 4
66 5
67 91
68 3
69 92
70 4
71 4
72 10
73 10
74 4
75 9
76 10
77 2
78 3
79 3
80 3
81 9
82 4
83 2
84 7
85 4
86 1
87 2
88 7
89 5
90 5
91 10
92 9
93 2
94 9
95 5
96 8
97 8
98 9
99 4
100 6
101 8
DEPOT_SECTION
1
-1
EOF
