NAME : mamut-tokyo-n100-hyb
COMMENT : Mamut2026 fastest metric; city tokyo; 3-decimal seconds/meters; ENU ref in mamut-tokyo-n100-hyb.vrp.json
TYPE : CVRP
DIMENSION : 101
EDGE_WEIGHT_TYPE : EXPLICIT
EDGE_WEIGHT_FORMAT : FULL_MATRIX
CAPACITY : 177
EDGE_WEIGHT_SECTION
0.000 264.901 206.469 160.463 177.859 562.593 759.715 609.182 397.066 344.990 239.051 230.300 550.035 294.511 263.659 200.922 442.840 160.598 275.470 369.350 191.398 611.938 75.715 360.703 311.432 314.008 595.038 164.682 411.622 286.306 317.847 449.887 194.077 157.964 183.933 256.106 174.164 384.960 529.165 517.477 329.396 328.763 158.666 429.231 179.828 354.711 221.976 235.821 307.450 441.210 212.930 396.012 448.044 861.980 259.564 398.844 458.228 245.685 340.724 439.156 424.754 166.308 406.162 415.409 173.068 353.179 253.584 519.803 423.768 540.722 355.567 242.685 651.682 605.811 599.879 119.169 400.746 897.075 451.153 284.222 608.991 618.750 478.264 756.386 460.665 682.224 605.669 503.238 238.807 380.757 394.551 391.322 552.035 453.533 131.826 270.170 405.775 251.857 144.735 305.986 386.289
262.646 0.000 256.673 299.582 118.876 407.552 907.789 698.020 441.948 484.109 408.932 299.596 500.426 464.374 333.445 307.607 450.999 326.427 88.663 485.745 314.894 789.333 205.844 483.816 467.578 382.408 606.138 386.033 437.483 442.071 495.242 549.968 412.826 214.580 298.759 275.988 269.224 360.557 632.093 568.652 313.111 451.877 200.014 538.573 302.942 416.206 361.095 405.702 402.701 594.467 274.074 306.594 587.163 1056.135 196.004 472.060 466.326 271.784 226.431 586.722 547.867 165.408 283.397 554.528 176.371 257.165 279.683 320.886 310.430 396.613 520.422 90.184 754.610 759.068 466.617 190.804 548.820 1091.230 305.383 423.341 748.111 796.145 626.338 909.643 261.748 810.576 798.359 561.442 146.259 519.876 229.449 303.889 700.109 254.616 310.173 245.876 249.266 322.822 170.974 421.993 534.363
208.047 257.392 0.000 104.241 233.674 600.155 708.101 469.529 545.506 262.775 255.402 385.456 627.475 297.078 82.574 378.418 554.557 338.095 281.266 546.847 72.483 635.428 157.421 538.199 469.617 139.828 418.792 299.860 541.041 445.075 371.977 620.942 289.560 101.545 361.430 155.871 340.198 218.705 389.513 336.393 183.778 506.260 58.431 606.727 357.325 173.626 148.428 252.172 152.100 573.648 22.024 287.887 365.828 932.870 198.746 569.900 569.884 84.901 279.906 616.653 602.250 156.854 299.346 333.194 138.603 292.362 107.966 453.405 336.815 400.056 353.126 243.830 512.030 683.016 459.213 184.902 336.949 967.964 470.363 210.675 518.823 616.215 414.047 842.289 382.983 558.526 675.094 322.154 190.580 296.263 333.733 284.506 500.421 375.851 309.323 159.671 298.959 70.772 211.006 169.943 322.492
176.823 317.463 111.104 0.000 276.469 660.226 644.548 496.793 543.339 232.601 185.416 376.573 655.374 227.092 151.270 347.194 572.602 306.871 341.338 515.622 79.009 578.602 175.466 506.975 414.519 201.619 482.649 244.762 557.895 389.978 302.551 596.159 234.462 148.027 330.206 215.943 320.437 287.401 416.776 405.088 278.717 475.036 118.503 575.503 326.101 242.322 109.587 182.186 195.061 518.551 100.541 356.582 335.655 875.518 258.817 545.117 587.928 188.855 339.978 585.429 571.026 216.925 368.041 303.020 198.674 352.433 201.499 522.100 413.677 468.751 283.140 303.902 539.293 625.665 527.908 217.779 289.627 910.612 530.435 171.833 496.603 559.389 362.953 784.938 451.679 569.835 617.742 390.849 250.651 268.368 393.804 353.201 436.868 444.547 278.098 263.625 367.654 139.468 243.883 193.597 275.170
216.065 171.124 275.749 298.164 0.000 498.850 874.349 739.476 390.598 482.691 395.381 253.381 449.076 450.823 352.521 261.392 399.649 262.612 157.776 445.212 329.099 759.510 159.263 437.601 417.675 409.775 681.606 322.218 386.133 392.548 465.419 499.972 368.500 228.792 252.544 312.356 223.009 396.925 659.459 606.339 349.479 405.662 219.090 498.041 256.727 443.573 359.677 392.151 422.047 547.452 293.150 386.669 585.745 1001.865 232.372 420.710 414.976 306.108 284.316 540.508 501.652 184.484 389.407 553.110 199.818 296.772 314.008 426.896 367.360 502.623 503.139 141.477 781.977 712.053 572.626 126.988 515.379 1036.959 396.681 419.916 746.693 766.322 600.789 862.628 367.757 819.925 744.089 592.101 182.626 518.459 335.458 381.980 666.669 360.625 246.358 282.243 355.275 341.898 107.159 441.069 500.923
563.158 410.255 599.817 642.725 443.015 0.000 1211.557 852.842 443.211 827.253 732.589 532.690 379.143 788.031 676.589 585.061 409.125 640.707 366.117 540.717 658.038 1069.087 519.647 654.879 736.646 722.121 814.144 692.886 438.793 719.525 818.900 491.827 713.747 557.724 576.212 615.702 546.677 622.619 890.937 776.658 652.825 620.322 543.158 593.591 580.395 737.956 704.238 729.359 742.415 784.882 617.217 544.088 930.306 1230.165 535.718 473.323 467.635 611.497 490.430 864.176 608.080 508.551 520.891 896.726 523.886 521.163 619.397 427.665 574.429 512.760 844.079 433.328 948.100 892.286 621.438 533.947 852.587 1265.260 256.576 757.124 1060.942 1115.801 937.997 1042.861 461.575 1075.100 1019.447 824.604 497.239 863.020 493.448 541.383 1003.876 477.932 647.212 585.589 486.760 665.966 514.118 765.136 838.130
784.575 938.026 746.059 671.548 850.539 1235.273 0.000 683.609 1112.487 542.377 646.911 965.223 1229.444 677.927 745.201 916.342 1155.154 843.985 948.149 1061.284 713.965 814.349 758.018 1052.636 903.961 733.529 769.282 734.204 1127.043 879.419 738.649 1165.307 712.360 779.971 899.354 847.887 907.624 865.869 632.384 690.357 880.759 1020.697 750.447 1129.430 895.248 758.635 637.172 643.681 729.345 1007.992 735.496 942.458 499.934 1226.359 890.762 1114.265 1170.480 820.799 971.922 1113.819 1116.687 837.488 953.917 446.071 819.237 984.377 819.873 1107.976 999.552 981.741 718.180 915.365 726.109 1049.688 972.247 800.331 448.349 1261.454 1123.832 613.481 497.554 802.327 405.775 1158.702 1023.097 635.273 866.640 794.459 873.604 529.232 1025.748 939.077 354.477 1006.966 866.748 895.569 953.530 773.715 826.435 654.370 497.150
609.481 692.050 469.023 504.950 695.168 853.958 681.790 0.000 951.646 465.760 623.453 809.230 960.239 665.130 409.300 779.851 926.161 739.528 657.121 948.280 461.380 998.002 608.123 939.632 852.557 364.785 144.597 682.800 947.181 828.015 740.588 1028.816 672.500 565.619 762.863 555.707 753.094 425.722 171.169 185.041 512.016 907.693 522.505 1008.160 758.758 378.368 431.000 620.224 388.595 956.588 458.460 454.920 470.007 1313.555 557.000 977.774 976.024 479.733 591.863 1018.086 1003.683 608.485 477.473 451.987 590.233 599.054 451.129 546.741 590.613 366.970 720.439 705.324 95.258 1063.702 347.114 648.976 493.847 1348.650 681.734 474.818 257.977 978.790 532.841 1222.975 509.288 240.583 1053.417 295.821 590.416 387.517 594.881 471.228 616.919 493.158 710.756 517.910 518.874 447.952 675.080 311.966 525.477
396.932 446.423 545.713 527.129 349.679 405.282 1088.465 959.745 0.000 711.657 550.952 246.908 200.754 568.555 622.486 263.813 99.822 350.608 364.081 153.579 558.065 703.507 393.242 267.741 419.753 679.739 860.712 439.538 25.505 425.816 580.546 163.026 499.951 488.632 263.696 586.494 256.055 665.369 895.832 823.227 640.020 233.184 489.054 206.453 242.587 713.538 588.642 547.722 674.116 397.744 563.114 586.839 814.710 843.027 522.913 30.112 70.995 576.073 530.141 570.688 220.942 478.033 563.641 782.076 496.146 560.875 583.972 534.568 614.141 619.663 618.267 432.018 1018.349 505.148 728.341 391.630 764.452 878.122 457.441 650.889 975.658 798.907 844.930 655.723 550.506 1048.891 653.867 862.065 473.167 747.424 533.159 584.134 880.785 543.374 407.726 572.784 529.510 611.863 371.801 672.653 749.995
335.006 475.646 252.303 230.475 434.652 818.409 544.327 456.121 701.522 0.000 294.467 534.756 813.557 336.113 234.544 505.377 730.785 465.054 499.521 673.805 228.230 664.985 333.649 665.158 539.622 222.872 446.517 369.865 716.078 515.081 411.572 754.342 359.565 306.210 488.389 374.126 478.620 378.786 376.104 380.724 370.103 633.219 276.686 733.686 484.284 247.978 126.516 291.237 218.688 643.654 241.740 447.968 170.762 981.640 417.000 703.300 746.111 332.581 498.161 743.612 729.209 375.109 459.427 133.804 356.857 510.616 309.217 613.486 505.062 560.137 379.565 462.085 498.621 731.786 611.570 375.962 123.115 1016.734 688.618 111.775 392.974 645.772 195.276 891.059 543.064 472.725 720.399 389.008 408.834 164.740 551.987 444.587 345.888 535.932 436.281 386.208 459.040 263.058 402.066 143.713 120.694
254.087 424.826 266.264 184.894 360.425 745.159 624.360 634.866 565.917 316.532 0.000 418.653 718.886 85.313 301.552 369.772 611.690 297.416 448.700 478.796 238.086 444.471 267.904 470.149 316.318 339.692 609.503 151.590 580.473 306.795 160.771 618.737 102.383 270.437 352.784 361.234 361.055 434.189 554.849 546.173 425.505 438.210 263.794 566.067 348.679 387.711 247.660 59.315 333.134 425.505 259.618 503.371 419.586 724.124 381.161 567.695 627.078 334.146 462.322 547.234 534.200 324.288 514.830 380.788 306.037 474.777 351.782 641.401 545.366 615.540 141.361 411.265 677.366 474.270 674.696 310.217 348.733 759.218 633.718 239.611 634.676 436.389 422.059 633.543 582.262 707.908 466.348 536.412 360.404 406.441 516.148 499.990 416.680 575.130 320.178 391.768 514.443 298.545 336.321 331.670 334.276
229.631 302.619 385.721 359.828 211.103 516.971 940.551 808.548 246.905 544.356 403.038 0.000 363.091 421.223 462.493 101.086 255.957 203.276 220.168 245.973 390.764 674.863 233.250 294.357 307.431 513.374 774.877 291.623 242.441 281.925 433.214 304.515 352.037 328.639 114.281 426.502 84.043 548.890 728.531 716.312 499.791 262.418 329.062 298.802 98.475 553.545 421.341 399.808 506.815 405.008 403.122 475.334 647.409 881.246 384.337 253.473 271.283 416.080 395.170 426.576 313.336 333.831 452.136 614.775 343.464 425.904 423.980 489.625 479.170 565.353 470.935 293.443 851.048 569.609 635.356 247.429 600.112 916.340 420.922 483.587 808.357 721.577 677.629 720.184 430.487 881.590 625.223 702.073 334.592 580.123 398.188 472.629 732.871 423.355 240.425 434.209 418.005 451.223 220.306 505.352 585.655
518.962 495.167 618.423 632.743 398.423 355.071 1208.928 949.881 171.006 817.271 672.983 332.414 0.000 690.586 695.195 385.843 142.752 472.639 412.825 275.610 663.678 825.537 478.749 389.771 541.783 752.449 909.456 561.568 153.161 547.846 702.577 138.809 621.982 565.508 385.726 651.641 378.085 714.114 986.249 871.971 688.764 355.215 561.764 303.196 364.617 786.248 694.256 669.753 764.721 519.774 635.824 635.583 920.324 965.058 571.657 193.876 140.257 647.436 578.885 692.718 342.972 533.224 612.386 887.690 548.558 609.619 655.336 524.704 662.885 609.799 740.298 480.763 1045.139 627.178 718.477 463.703 849.959 1000.152 447.577 754.495 1081.272 920.938 935.368 777.753 558.614 1154.505 775.898 921.643 521.912 853.038 581.903 632.878 1001.248 574.971 529.756 621.529 578.254 684.573 443.874 778.267 835.502
295.764 466.503 299.282 217.912 402.102 786.835 657.378 667.884 564.326 349.550 101.296 417.497 717.295 0.000 334.570 368.182 610.100 277.088 490.377 486.210 271.104 391.427 309.580 456.961 271.759 372.710 642.521 192.589 578.883 262.235 106.277 617.147 143.381 312.114 351.193 394.252 359.464 467.207 587.867 579.191 458.523 445.624 296.812 573.481 347.088 420.729 280.678 100.720 366.152 391.557 292.636 536.388 452.604 667.170 422.838 566.105 625.488 367.164 503.998 515.322 541.614 365.965 547.847 413.806 347.713 516.454 384.799 683.077 587.042 648.558 88.317 452.941 710.384 417.317 707.714 351.893 381.751 702.265 675.395 272.629 667.694 383.344 455.077 576.590 623.939 740.926 409.394 569.430 402.081 439.459 557.825 533.007 449.698 616.807 357.778 433.444 547.460 331.563 369.192 364.688 367.294
285.987 357.039 104.596 182.021 333.321 699.802 708.748 400.295 645.153 236.560 305.214 485.104 727.123 346.891 0.000 456.358 654.205 416.035 380.914 624.786 131.998 679.764 257.069 616.139 534.318 76.084 386.151 364.561 640.689 509.776 422.349 705.323 354.261 201.193 439.370 251.540 429.601 230.675 320.278 322.820 221.991 584.200 158.079 684.667 435.265 125.526 146.028 301.985 69.526 638.349 94.033 299.856 339.613 995.316 280.136 654.281 669.531 167.897 362.493 694.593 680.190 256.501 311.315 306.979 238.250 364.894 154.690 465.374 356.951 412.025 402.200 343.478 442.795 745.463 471.182 284.549 310.734 1030.411 566.032 206.483 490.283 660.551 387.833 904.736 394.953 504.440 735.178 328.578 286.248 270.048 416.320 296.475 501.068 387.821 387.262 238.097 310.928 70.642 310.653 97.099 296.277
186.563 312.291 362.768 316.761 220.776 578.916 878.097 765.480 252.723 501.289 340.584 106.770 405.692 358.187 419.957 0.000 298.497 140.240 229.840 232.059 347.696 619.498 214.504 238.993 241.175 470.306 751.337 229.170 267.279 215.669 370.178 305.543 289.583 309.894 53.328 407.756 58.647 536.610 685.464 673.776 481.046 207.054 310.316 284.888 32.218 511.010 378.274 337.354 463.748 349.644 369.228 485.006 604.342 825.881 394.010 254.501 313.885 397.334 404.843 360.320 299.422 317.958 461.809 571.708 324.718 435.577 405.234 499.298 488.842 575.025 407.899 303.116 807.981 514.245 645.029 239.660 557.044 860.976 482.867 440.520 765.290 666.212 634.562 664.820 440.160 838.523 569.859 659.537 344.265 537.056 407.861 482.301 670.417 433.028 197.357 421.820 427.678 408.155 208.771 462.285 542.588
445.699 444.512 558.003 559.526 347.768 344.720 1135.711 899.183 104.840 744.053 599.719 259.197 145.659 617.323 634.775 312.580 0.000 399.376 362.171 202.346 590.461 752.274 405.532 316.508 468.520 692.028 858.802 488.305 100.422 474.583 629.314 214.261 548.718 500.921 312.463 598.784 304.822 663.459 928.228 821.316 638.109 281.952 501.344 255.220 291.354 725.827 621.039 596.490 704.300 446.511 575.403 584.928 847.107 891.795 521.002 134.952 129.264 588.362 528.231 619.455 269.709 482.569 561.731 814.472 497.904 558.965 596.262 474.006 612.230 559.101 667.035 430.108 994.441 553.915 667.779 403.919 776.741 926.889 396.879 681.278 1008.055 847.675 862.151 704.490 507.916 1081.287 702.634 870.946 471.257 779.821 531.249 582.223 928.031 524.273 456.493 570.874 527.600 624.152 384.090 705.049 762.285
141.072 307.045 317.276 271.269 232.688 615.946 801.548 719.989 325.462 455.797 264.035 178.632 478.431 281.638 374.466 129.317 371.235 0.000 260.221 274.307 302.205 587.720 167.948 265.660 238.402 424.815 705.845 152.620 340.018 213.275 293.629 378.282 213.034 263.338 112.329 361.200 120.600 490.054 639.972 628.284 434.490 233.720 263.760 342.405 108.224 465.518 332.782 260.805 418.256 368.179 323.736 501.106 558.850 830.076 364.658 327.240 386.623 350.779 420.237 335.519 329.711 271.402 492.189 526.216 278.162 432.692 358.678 529.678 503.281 605.406 331.350 277.398 762.489 532.780 675.409 193.104 503.405 865.170 513.777 394.283 719.798 594.532 576.732 683.355 470.540 793.031 572.300 614.045 318.547 491.564 438.241 496.416 593.868 463.408 150.802 375.264 458.058 362.664 162.215 416.793 488.948
287.049 111.946 301.507 344.416 126.256 385.220 935.448 676.087 373.897 528.944 453.766 230.415 432.375 507.647 378.280 238.426 382.949 294.072 0.000 417.694 359.729 795.140 231.165 414.634 398.396 435.079 584.204 376.437 369.433 372.890 519.638 480.787 436.850 259.415 229.577 328.659 200.042 363.191 660.997 546.718 365.782 382.695 244.848 470.523 233.760 468.877 405.929 450.536 447.805 525.285 318.908 284.660 631.997 1001.523 248.675 404.009 398.275 324.455 204.497 517.541 478.685 210.242 261.463 599.363 225.577 235.231 332.354 298.952 288.497 374.680 557.359 135.019 771.345 689.886 444.683 198.890 576.478 1036.617 283.051 468.175 792.945 820.541 661.888 840.461 239.814 845.160 745.500 565.906 198.930 564.711 207.515 281.955 727.767 232.682 300.577 298.547 227.332 367.657 179.061 466.827 562.021
369.553 490.381 545.757 499.750 403.340 502.928 1037.889 948.470 151.695 684.278 463.029 246.210 304.664 471.637 602.947 243.293 197.468 300.032 408.040 0.000 530.686 562.623 397.493 126.857 300.106 653.296 898.779 370.130 166.251 306.169 483.628 204.530 427.848 492.883 243.176 590.745 251.197 703.436 868.453 856.765 664.035 92.300 493.305 102.564 222.066 693.999 561.263 459.799 646.737 256.859 552.217 624.905 787.331 702.143 576.574 153.473 212.856 580.324 568.208 513.083 67.363 500.947 601.708 749.677 507.707 598.942 588.223 606.289 652.207 691.384 521.349 485.680 990.970 364.264 793.442 422.649 705.539 737.237 529.127 610.075 948.279 675.992 790.948 514.839 588.573 1021.512 512.983 842.526 526.829 720.045 571.226 622.200 830.209 581.441 380.347 604.809 567.577 591.145 391.760 645.274 691.082
197.666 317.032 64.263 93.700 293.314 659.795 679.296 451.913 564.182 229.204 231.461 397.416 676.217 273.138 104.430 368.037 593.445 327.714 340.906 536.466 0.000 606.623 196.309 527.818 459.236 156.739 437.769 289.479 578.738 434.694 348.596 617.002 279.179 151.553 351.049 215.511 341.280 240.560 371.896 358.248 231.877 495.879 118.071 596.346 346.944 195.482 119.623 228.232 150.181 563.267 53.700 309.742 332.257 921.563 258.386 565.960 608.771 144.541 339.546 606.272 591.869 216.494 321.201 299.623 198.243 352.002 154.659 475.260 366.836 421.911 329.059 303.471 494.413 671.710 481.068 238.622 303.378 956.658 530.003 181.869 485.252 587.410 380.477 830.983 404.838 524.955 662.037 344.009 250.220 262.692 393.373 306.361 471.616 397.706 298.941 219.312 320.814 92.628 264.726 148.717 288.921
610.455 788.625 635.358 568.588 724.224 1055.319 832.786 1007.180 704.086 673.532 457.996 681.968 857.055 386.372 664.707 638.826 749.860 585.134 792.849 563.251 603.263 0.000 631.703 584.458 463.457 712.006 965.118 500.958 718.642 481.352 347.558 756.922 451.750 634.237 638.709 741.503 649.938 797.343 927.163 901.787 788.660 583.100 644.063 650.527 617.599 750.865 619.974 456.715 705.448 427.538 624.795 866.525 776.585 479.690 744.961 705.864 765.248 715.636 826.121 823.368 618.655 688.088 877.984 701.252 669.836 838.576 714.936 1005.200 909.165 978.694 326.168 775.064 1049.681 313.635 1037.851 674.016 703.529 514.784 957.319 596.610 996.163 126.179 742.523 412.032 946.062 1075.914 79.901 899.567 724.204 767.929 879.948 863.144 625.105 938.930 665.824 755.567 877.597 663.722 677.238 703.984 691.275
76.770 207.316 157.741 159.264 120.275 505.009 735.449 607.983 393.354 343.791 256.481 233.304 499.179 311.923 234.513 226.430 402.405 187.303 217.885 398.080 190.199 636.883 0.000 389.433 342.366 291.766 570.730 208.739 388.889 317.240 342.792 468.791 229.600 100.659 212.663 198.521 188.046 327.375 527.966 488.331 271.811 357.494 101.082 457.961 208.558 325.565 220.777 253.251 304.038 472.144 175.141 338.427 446.845 897.503 201.979 417.749 417.732 188.100 283.139 465.861 453.484 108.724 348.577 414.210 115.483 295.595 196.000 462.219 366.183 483.138 367.971 185.101 650.484 636.744 542.295 51.440 376.479 932.597 393.568 281.016 607.793 643.695 461.889 787.319 403.080 681.025 641.191 474.092 181.222 379.558 336.966 333.737 527.768 395.948 171.049 212.586 348.190 223.890 78.544 304.787 362.022
344.593 470.321 520.797 474.791 378.805 596.863 1012.930 923.510 245.630 659.318 438.069 276.988 398.598 446.678 577.987 233.846 291.403 275.073 387.870 104.794 505.726 574.690 372.533 0.000 244.933 628.336 909.366 345.171 260.186 250.996 447.048 298.465 402.888 467.923 233.729 565.785 244.959 694.639 843.493 831.805 639.075 64.208 468.346 192.065 212.620 669.039 536.303 434.839 621.778 268.927 527.258 643.035 762.371 714.210 552.039 247.408 306.791 555.364 562.872 488.123 160.198 475.988 619.838 724.717 482.747 593.606 563.264 630.860 646.872 715.955 484.768 461.145 966.010 376.331 803.058 397.689 680.579 749.304 553.698 585.116 923.319 643.602 765.989 526.906 598.189 996.552 525.050 817.566 502.294 695.085 565.890 640.331 805.249 591.057 355.387 579.850 585.707 566.185 366.801 620.314 666.122
296.530 455.406 453.498 387.976 363.890 721.634 865.707 837.948 404.330 535.364 294.411 291.225 557.299 260.854 504.634 238.848 450.104 213.011 372.954 284.290 438.426 447.648 327.359 227.645 0.000 542.774 823.804 194.779 418.887 42.532 247.459 457.151 239.947 406.584 221.859 513.851 231.351 637.271 757.931 753.733 587.140 254.028 416.411 371.566 217.754 590.793 450.741 291.181 536.216 163.039 459.958 628.120 638.417 654.031 517.308 406.109 465.492 503.429 547.957 389.742 339.693 430.813 604.923 599.619 437.573 578.691 511.329 642.412 631.957 718.139 285.180 436.808 880.448 327.640 788.143 352.514 567.564 689.125 603.935 458.442 837.757 494.362 640.890 478.215 583.274 910.990 398.008 739.494 477.957 609.523 550.975 625.415 658.027 576.142 310.212 527.915 570.792 498.885 321.626 534.752 553.107
305.829 368.771 141.565 201.298 367.710 715.064 704.500 364.586 672.344 232.312 319.802 505.579 764.092 361.478 77.585 476.200 691.174 435.876 415.303 644.628 157.728 694.351 294.038 635.981 548.905 0.000 353.845 379.148 677.658 524.363 436.937 725.165 368.848 238.162 459.211 228.250 449.442 193.241 284.569 289.189 184.558 604.041 195.048 704.509 455.106 77.758 160.615 316.572 38.751 652.936 131.002 262.423 335.366 1009.904 242.702 674.123 706.500 152.276 325.060 714.435 700.032 281.027 273.882 302.731 262.776 327.461 123.672 427.941 319.517 374.592 416.787 377.867 407.086 760.050 433.749 321.519 306.486 1044.998 542.742 221.071 454.575 675.138 383.585 919.323 357.519 468.732 749.765 282.307 262.958 265.800 378.887 259.042 496.820 350.387 407.104 200.663 273.495 116.237 347.623 78.518 292.029
575.515 597.130 419.003 470.984 636.970 812.619 769.272 156.878 856.361 466.628 589.488 773.134 914.839 631.164 375.335 745.886 865.413 705.563 562.201 899.532 427.415 964.037 571.476 905.667 818.591 330.819 0.000 648.834 851.897 794.050 706.623 965.736 638.534 515.600 728.898 505.688 719.128 335.107 196.678 82.399 461.996 873.728 472.486 952.360 724.792 313.401 428.427 586.258 354.629 922.623 408.440 359.635 485.113 1279.590 483.238 886.473 880.739 429.714 496.942 984.121 966.894 558.465 382.189 456.730 540.214 512.321 401.110 505.402 503.880 336.010 686.473 643.323 252.136 1029.736 316.154 598.956 498.590 1314.684 640.395 475.685 366.683 944.824 537.583 1189.009 416.318 380.840 1019.451 193.180 540.396 402.624 499.960 375.943 641.110 400.187 676.790 444.148 423.590 413.987 625.060 312.833 526.345
185.722 404.861 326.190 260.669 330.505 720.443 738.400 710.641 455.166 408.056 162.459 308.337 608.135 211.215 377.327 259.022 500.940 167.928 385.129 377.050 311.119 523.428 234.706 358.595 196.889 415.467 696.497 0.000 469.723 171.762 229.337 507.987 104.920 279.277 242.033 386.544 250.304 509.963 630.624 626.426 459.833 336.464 289.104 464.321 237.928 463.485 323.434 159.229 408.908 326.666 332.651 526.449 511.110 772.336 390.001 456.945 516.328 376.122 471.162 406.162 432.454 324.158 536.599 472.312 314.877 483.617 384.022 650.241 554.205 671.160 267.058 375.214 753.141 491.267 730.317 277.019 440.257 807.430 609.003 331.135 710.450 530.240 513.583 641.842 591.102 783.683 516.024 612.187 369.244 482.216 524.988 521.759 530.719 583.970 213.283 400.608 536.212 371.578 260.032 407.445 425.800
413.891 444.920 544.210 544.089 348.176 403.840 1105.425 958.304 23.253 728.617 567.912 245.405 175.249 585.515 620.983 280.773 98.381 367.568 362.578 170.539 575.024 720.467 391.739 284.701 436.713 678.236 859.209 456.498 0.000 442.776 597.506 168.438 516.911 487.129 280.656 584.991 273.014 663.866 912.792 821.724 638.517 250.144 487.551 223.413 259.547 712.035 605.602 564.682 690.508 414.703 561.611 585.336 831.670 859.987 521.410 46.123 54.823 574.570 528.638 587.648 237.902 476.530 562.139 799.036 494.643 559.372 582.469 533.126 612.638 618.222 635.227 430.516 1035.309 522.108 726.900 390.127 762.949 895.081 456.000 667.486 992.618 815.867 848.359 672.683 549.003 1065.851 670.827 860.562 471.664 764.384 531.656 582.631 897.745 541.871 424.686 571.282 528.007 610.360 370.298 689.613 748.492
274.850 444.775 431.818 366.296 368.395 733.184 844.027 816.268 433.385 513.683 286.053 295.730 586.353 252.496 482.954 243.353 479.158 191.331 377.459 313.344 416.746 476.702 305.679 256.699 62.315 521.094 802.124 173.099 447.941 0.000 255.173 486.205 231.588 384.904 226.364 492.171 235.856 615.591 736.251 732.053 565.460 283.082 394.731 400.620 222.259 569.112 429.061 282.823 514.536 192.093 438.278 632.076 616.737 683.085 495.628 435.163 494.546 481.749 552.462 394.247 368.748 409.133 609.428 577.939 415.892 570.422 489.649 646.917 636.461 722.644 292.893 415.128 858.768 356.694 792.648 330.834 545.884 718.179 631.015 436.762 816.077 511.943 619.210 507.269 587.779 889.310 427.063 717.814 456.277 587.843 555.480 627.387 636.346 580.647 288.532 506.235 575.297 477.205 299.946 513.072 531.427
323.361 501.532 378.229 312.273 437.131 821.865 720.756 762.245 585.279 430.951 172.240 438.449 738.248 116.078 422.126 389.134 631.053 298.041 515.241 507.163 360.683 372.759 344.610 464.028 279.746 467.071 722.538 213.865 599.835 270.222 0.000 638.099 164.657 347.143 372.146 454.410 380.417 554.763 682.228 659.207 527.700 466.576 356.970 594.434 368.041 508.285 375.039 185.156 460.513 399.459 382.215 594.315 534.005 639.561 457.867 587.057 646.441 437.779 539.028 536.275 562.567 400.994 604.466 495.207 382.743 551.483 451.888 718.107 622.072 736.114 116.389 487.971 804.745 389.708 795.271 386.923 463.151 674.656 710.425 354.030 753.583 379.571 536.478 548.981 658.969 833.334 381.785 656.987 437.111 525.348 592.854 589.626 513.076 651.837 378.731 468.474 604.079 421.142 390.144 459.049 448.695
449.360 552.142 620.152 579.558 459.051 488.231 1140.894 1028.277 164.131 764.085 603.381 303.496 169.486 620.984 682.754 316.242 209.256 403.037 469.690 206.066 610.493 755.994 467.681 320.228 472.181 733.103 970.084 491.966 166.771 478.244 632.975 0.000 552.380 563.071 316.125 660.933 308.483 774.742 948.260 932.599 734.223 285.672 563.493 203.579 295.015 773.806 641.071 600.151 726.545 450.231 632.025 696.211 867.139 895.515 632.285 142.550 137.468 650.512 639.513 623.116 268.920 571.135 673.014 834.504 577.895 670.247 658.411 644.001 723.513 729.097 670.696 541.391 1070.778 557.635 837.775 492.837 819.841 930.609 566.875 703.317 1028.087 851.336 897.359 708.210 659.878 1101.319 706.354 922.334 582.539 799.853 642.531 693.506 933.214 652.746 460.154 674.997 638.882 670.952 461.948 725.081 805.384
190.731 410.895 287.592 221.636 327.854 712.588 688.486 671.608 499.462 369.024 99.363 352.198 652.431 141.495 338.294 303.317 545.235 230.961 425.465 424.798 272.520 452.463 226.850 416.151 239.590 376.434 657.464 81.197 514.018 230.066 158.372 552.282 0.000 256.506 286.329 363.773 294.600 470.931 591.591 587.393 437.062 384.212 266.333 512.069 282.224 424.453 284.401 96.133 369.876 359.388 294.052 503.678 472.077 697.705 367.230 501.240 560.623 347.142 448.391 471.111 480.202 310.357 513.829 433.279 292.106 460.846 361.251 627.470 531.435 648.389 196.092 392.680 714.108 445.546 707.546 269.164 401.224 732.799 601.148 292.102 671.417 459.275 474.550 604.819 568.332 744.650 441.393 573.154 346.473 443.183 502.217 498.989 480.806 561.200 253.723 377.837 513.442 332.979 295.268 368.412 386.767
153.169 196.337 87.941 130.849 172.620 539.100 741.142 551.668 484.452 315.377 258.365 324.402 566.421 313.807 164.713 317.527 493.503 278.400 220.212 489.178 146.162 638.767 96.367 480.530 426.524 221.966 500.930 256.183 479.987 401.398 344.676 559.888 262.259 0.000 303.761 128.721 279.144 257.575 471.651 418.531 202.011 448.591 31.282 549.058 299.656 255.765 192.362 255.135 234.238 546.348 105.341 289.120 418.430 905.569 152.673 508.846 508.829 118.300 233.833 556.959 544.581 95.800 299.271 385.796 77.548 246.288 126.200 412.912 316.877 430.772 369.855 182.776 594.168 655.715 489.929 123.848 386.221 940.663 416.806 254.609 579.378 645.579 459.547 814.988 353.774 641.843 647.793 404.292 131.916 351.144 287.659 284.431 533.462 346.642 262.146 163.279 298.884 154.090 149.952 253.260 371.764
183.216 298.230 359.421 313.414 206.714 571.504 874.750 762.134 269.271 497.942 337.237 97.483 422.240 354.840 416.610 27.654 315.045 136.893 215.778 250.415 344.350 633.118 211.157 252.613 237.828 466.959 747.990 225.823 283.828 212.322 366.831 322.092 286.236 306.547 0.000 404.409 33.864 533.263 682.117 670.429 477.699 220.674 306.969 303.244 28.872 507.663 374.927 334.007 460.401 363.264 365.881 470.944 600.995 839.501 379.948 271.050 330.433 393.987 390.781 356.973 316.664 314.611 447.747 568.361 321.371 421.515 401.887 485.236 474.781 560.963 404.552 289.054 804.634 527.864 630.967 236.313 553.698 874.595 469.335 437.173 761.943 667.734 631.215 678.439 426.098 835.176 583.479 656.190 330.203 533.709 393.799 468.239 667.070 418.966 194.011 418.473 413.616 404.809 205.424 458.938 539.241
258.901 264.184 159.768 202.677 263.124 610.478 812.970 559.784 590.184 387.205 352.932 430.134 663.602 395.514 232.299 423.260 599.236 384.133 310.716 594.910 217.990 744.499 202.100 586.263 532.257 230.083 509.046 361.915 585.719 507.131 450.408 665.621 367.992 146.224 409.494 0.000 384.876 258.734 479.767 426.647 203.170 554.324 101.074 654.791 405.388 263.881 264.190 349.702 250.376 652.080 177.169 301.502 490.258 1011.301 165.054 614.579 614.562 119.458 246.215 662.691 650.314 182.657 311.653 457.624 164.406 258.670 127.358 434.261 329.259 431.930 451.562 273.280 602.285 761.448 491.087 229.580 458.048 1046.396 438.155 326.436 649.773 727.810 531.375 920.721 375.122 663.930 753.526 412.409 158.372 422.972 300.041 296.813 605.290 367.990 367.879 175.661 311.266 225.918 255.684 273.716 443.592
174.821 272.892 340.903 305.019 181.377 546.166 883.884 753.738 255.710 489.547 346.371 83.922 408.678 363.974 408.215 50.302 301.483 146.027 190.441 249.988 335.954 642.252 188.432 261.747 246.962 458.564 739.595 234.957 270.266 221.456 375.965 308.530 295.370 283.821 30.238 381.684 0.000 510.538 673.722 662.034 454.973 229.807 284.244 302.817 44.013 499.267 366.532 343.141 452.006 372.398 357.486 445.607 592.600 848.635 354.611 257.488 316.871 371.262 365.443 366.107 317.351 291.886 422.410 559.966 298.646 396.177 379.162 459.899 449.443 535.626 413.686 263.716 796.239 536.998 605.629 213.587 545.302 883.729 443.997 428.778 753.548 676.868 622.820 687.573 400.760 826.780 592.613 647.795 304.865 525.314 368.461 442.902 676.204 393.628 185.615 395.748 388.278 396.413 182.699 450.542 530.846
386.740 348.056 222.498 299.924 346.995 615.260 861.911 419.727 658.045 389.723 427.867 551.780 716.522 469.514 214.358 551.098 667.096 511.972 340.864 701.215 249.901 797.434 329.938 714.101 660.095 192.295 317.263 489.754 653.580 634.969 544.972 767.419 485.402 274.062 537.332 257.718 512.715 0.000 377.260 296.955 173.683 682.162 228.913 754.043 533.227 193.547 325.846 424.637 212.589 769.491 211.935 84.497 465.101 1114.089 193.263 688.156 682.422 181.745 240.777 790.530 768.577 299.619 107.051 436.191 281.368 235.317 153.141 317.825 226.876 196.691 522.008 357.152 499.778 864.236 255.847 357.419 463.897 1149.184 442.938 388.093 547.266 778.222 517.044 1023.509 226.193 561.423 852.849 233.467 251.012 382.612 278.623 100.805 654.231 210.063 495.718 154.173 148.452 220.857 383.523 235.929 449.440
526.000 612.748 385.542 421.469 611.687 884.043 631.342 164.962 892.515 382.279 539.973 725.749 986.263 581.649 325.819 696.371 921.778 656.047 633.625 864.799 377.899 914.522 524.642 856.152 769.076 281.304 193.800 599.319 907.072 744.534 657.107 945.336 589.019 482.139 679.382 472.227 669.613 373.448 0.000 114.875 428.535 824.212 439.025 924.680 675.277 294.887 347.520 536.743 305.114 873.107 374.979 431.059 364.032 1230.075 473.520 894.294 937.104 396.253 521.033 934.605 920.203 525.004 453.613 368.506 506.753 515.573 367.649 576.826 507.132 446.386 636.958 621.844 207.463 980.221 435.764 565.495 410.366 1265.169 711.819 391.337 207.529 895.309 449.360 1139.494 487.742 221.686 969.936 225.097 506.935 281.543 571.385 446.657 526.652 471.612 627.275 434.429 461.110 364.472 591.599 228.485 441.996
493.116 557.153 336.604 388.585 562.749 772.642 690.348 190.074 816.385 384.229 507.089 692.866 874.863 548.765 292.936 663.487 825.436 623.164 522.224 831.915 345.016 881.638 489.077 823.268 736.192 248.420 82.399 566.435 811.920 711.651 624.224 912.452 556.135 433.201 646.499 423.289 636.730 295.131 117.753 0.000 379.597 791.329 390.087 891.796 642.393 231.002 346.028 503.859 272.230 840.224 326.041 319.658 406.188 1197.191 409.634 846.497 840.763 347.315 456.966 901.722 887.319 476.066 342.212 377.805 457.815 451.688 318.711 465.425 443.246 334.985 604.074 572.906 240.270 947.337 324.363 516.557 419.665 1232.285 600.418 393.286 287.758 862.425 458.659 1106.610 376.341 301.916 937.052 110.781 457.997 323.699 459.984 335.966 562.186 360.211 594.391 370.544 383.613 331.588 542.661 230.435 443.946
281.579 265.251 136.800 223.870 264.190 611.544 818.797 478.883 606.191 346.609 375.030 452.812 664.669 416.707 168.412 445.937 615.242 406.810 311.782 617.588 203.955 754.320 224.777 608.940 554.934 149.181 428.145 384.593 601.726 529.808 473.086 688.298 390.669 168.901 432.171 152.557 407.554 177.832 398.866 345.746 0.000 577.001 123.751 677.468 428.066 182.980 279.900 371.800 169.474 674.758 154.200 232.380 449.662 1033.979 149.817 636.303 630.569 76.583 232.175 685.369 672.991 194.306 243.839 417.028 176.054 234.576 47.979 397.898 268.826 344.549 472.755 274.346 521.383 784.125 403.706 252.258 420.783 1069.073 439.222 342.147 568.871 735.107 497.881 943.398 327.477 583.029 776.203 331.507 159.438 380.097 286.002 228.999 611.117 320.345 390.556 91.682 243.452 174.911 278.362 192.815 406.326
365.072 490.800 541.277 495.270 399.285 575.896 1033.409 943.989 224.662 679.798 458.549 297.468 377.631 467.157 598.466 254.326 270.436 295.552 408.349 83.827 526.205 570.917 393.013 86.588 297.175 648.815 929.846 365.650 239.219 303.238 479.148 277.498 423.367 488.403 254.209 586.265 265.438 715.119 863.973 852.285 659.555 0.000 488.825 171.098 233.099 689.518 556.783 455.319 642.257 265.154 547.737 663.515 782.851 710.437 572.519 226.441 285.824 575.843 583.352 508.602 139.231 496.467 640.318 745.197 503.227 614.085 583.743 651.340 667.351 736.435 516.869 481.625 986.490 372.558 823.538 418.169 701.058 745.532 574.177 605.595 943.799 684.286 786.468 523.133 618.668 1017.031 521.277 838.046 522.773 715.565 586.370 660.810 825.729 611.536 375.866 600.329 606.187 586.664 387.280 640.793 686.602
157.827 200.996 58.694 101.603 177.278 543.759 711.896 522.422 489.110 286.131 251.858 329.060 571.079 294.440 135.467 322.186 498.161 283.059 224.870 493.836 116.916 643.425 101.025 485.189 431.183 192.720 471.684 260.841 484.645 406.057 349.334 564.547 266.918 45.149 308.419 97.440 283.802 226.294 442.405 389.285 170.729 453.250 0.000 553.717 304.314 226.519 163.116 248.628 204.992 551.006 76.095 276.762 389.184 910.227 140.315 513.505 513.488 87.018 221.475 561.617 549.240 100.458 286.913 356.550 82.207 233.930 94.918 408.038 304.519 399.490 350.488 187.434 564.922 660.374 458.647 128.506 356.974 945.322 411.932 225.362 550.132 626.736 430.301 819.647 348.899 612.597 652.451 375.046 132.148 321.898 275.302 272.073 504.216 341.767 266.805 146.623 286.526 124.844 154.610 224.014 342.517
417.989 531.959 594.193 548.187 444.918 544.506 1093.823 996.906 193.272 732.714 543.398 287.787 345.378 552.006 651.383 284.870 239.046 355.966 449.617 93.064 579.122 642.992 445.930 207.226 380.475 701.732 940.356 444.895 207.829 386.538 563.997 215.084 505.309 541.319 284.753 639.181 292.775 745.013 916.889 902.871 712.471 172.669 541.742 0.000 263.644 742.435 609.700 540.168 695.174 337.228 600.654 666.483 835.768 782.512 618.152 195.051 254.434 628.760 609.785 569.016 88.466 549.384 643.286 803.133 556.143 640.519 636.660 647.867 693.785 732.962 601.718 527.257 1039.406 444.633 835.019 471.085 785.908 817.606 570.705 671.946 996.716 756.361 865.988 595.208 630.150 1069.948 593.352 890.962 568.406 768.481 612.803 663.778 886.143 623.018 428.783 653.246 609.154 639.581 440.197 693.710 771.451
163.635 289.363 339.840 293.833 197.848 562.637 855.169 742.552 251.498 478.361 317.656 107.731 404.467 335.259 397.029 38.098 297.272 117.312 206.912 230.834 324.768 613.537 191.576 233.032 218.247 447.378 728.409 206.241 266.055 192.741 347.250 304.319 266.655 286.966 21.109 384.828 35.776 513.682 662.536 650.848 458.117 201.092 287.388 283.663 0.000 488.081 355.346 314.426 440.820 343.682 346.300 462.078 581.414 819.920 371.082 253.277 312.660 374.406 381.915 337.392 297.083 295.030 438.881 548.780 301.790 412.648 382.306 476.370 465.914 552.097 384.971 280.188 785.053 508.283 622.101 216.732 534.116 855.014 460.468 417.592 742.362 648.153 611.634 658.858 417.231 815.594 563.897 636.609 321.336 514.128 384.933 459.373 647.489 410.099 174.429 398.892 404.750 385.227 185.843 439.356 519.660
354.530 400.345 173.139 250.564 399.284 726.276 737.864 387.248 713.696 265.676 376.623 553.647 795.666 418.299 134.406 524.901 722.748 484.578 446.876 693.329 200.541 748.075 325.612 684.682 605.726 75.278 321.640 435.969 709.231 581.184 493.757 773.866 425.669 269.736 507.913 259.824 498.144 186.734 307.231 239.241 216.132 652.743 226.622 753.210 503.808 0.000 217.436 373.393 95.572 709.757 162.576 263.323 368.730 1064.730 274.276 722.824 738.074 183.850 334.319 763.136 748.733 312.601 274.782 336.095 294.350 328.859 155.246 428.841 320.417 375.492 472.649 409.441 429.748 814.877 420.006 353.092 339.850 1099.824 553.954 274.734 477.236 728.862 416.949 974.150 358.420 491.393 803.489 245.063 294.532 299.164 388.145 259.942 530.184 351.288 455.805 232.237 274.395 171.498 379.196 111.882 325.393
228.842 369.482 154.958 124.311 328.488 712.245 605.034 427.019 595.357 132.846 242.815 428.592 707.393 284.491 157.595 399.213 624.620 358.889 393.356 567.641 122.864 617.364 227.484 558.994 471.918 173.065 417.415 302.161 609.914 447.377 359.950 648.178 291.861 200.045 382.224 267.961 372.455 331.255 347.003 351.622 322.572 527.055 170.521 627.522 378.119 215.207 0.000 239.585 159.655 575.949 144.395 400.437 235.900 932.917 310.836 597.136 639.947 235.236 391.996 637.448 623.045 268.944 411.896 203.265 250.693 404.452 245.354 565.955 457.531 512.606 339.800 355.921 469.520 683.063 571.763 269.798 207.020 968.011 582.453 90.637 396.847 598.151 284.119 842.336 495.533 476.599 672.778 359.906 302.670 168.613 445.823 397.056 397.354 488.401 330.117 310.007 411.509 183.323 295.902 114.612 192.563
223.783 394.522 252.134 170.764 330.121 714.855 621.364 620.736 535.613 302.811 19.762 388.349 688.582 99.769 287.422 339.468 581.386 267.111 418.396 448.492 223.956 458.446 237.600 439.845 291.169 325.562 595.782 126.095 550.169 281.646 164.355 588.433 84.765 240.133 322.480 336.092 330.751 420.059 540.719 532.451 409.382 407.906 238.652 535.763 318.375 373.581 233.529 0.000 319.004 395.201 245.488 487.305 405.864 725.248 350.857 537.391 596.774 315.858 432.018 521.739 503.896 293.984 497.455 367.066 275.733 444.473 333.570 611.097 515.061 601.409 155.817 380.961 663.236 475.395 660.566 279.913 335.011 760.342 603.414 225.889 620.545 439.278 408.337 634.667 551.958 693.778 467.472 522.282 330.100 392.311 485.844 482.615 413.684 544.826 289.874 361.464 497.068 284.415 306.017 317.540 320.554
305.568 397.201 149.930 201.037 378.655 743.494 702.599 390.177 672.083 230.411 319.540 505.317 772.457 361.217 77.324 475.938 699.539 435.615 426.248 644.367 157.467 694.090 302.403 635.719 548.644 33.135 376.034 378.887 686.023 524.102 436.675 724.903 368.587 246.527 458.950 256.680 449.181 221.671 310.161 312.703 212.988 603.780 203.413 704.247 454.845 107.685 160.354 316.311 0.000 652.675 139.367 290.853 333.464 1009.642 271.132 673.861 714.865 180.706 353.490 714.173 699.770 301.835 302.312 300.830 283.584 355.891 152.102 456.371 347.947 403.022 416.526 388.812 432.678 759.789 462.179 329.883 304.585 1044.737 571.172 218.107 480.166 674.877 381.684 919.062 385.949 494.323 749.504 310.737 291.388 263.899 407.317 287.472 494.919 378.817 406.843 229.093 301.925 115.976 355.987 90.950 290.128
447.690 599.753 575.348 509.393 508.238 743.627 987.123 959.364 392.394 656.780 414.341 406.421 545.363 397.973 626.050 363.279 438.167 364.170 517.302 251.559 560.277 425.217 478.518 272.766 187.629 664.190 945.220 345.939 406.950 193.692 387.930 445.229 377.065 544.262 363.162 651.529 374.391 758.687 879.347 875.149 724.819 271.407 554.089 338.835 342.052 712.209 572.158 411.111 657.632 0.000 581.808 772.468 759.833 571.578 654.987 394.172 453.555 634.899 692.305 540.902 306.963 581.972 749.271 721.035 579.862 723.039 649.007 758.934 776.304 844.030 425.651 587.968 1001.865 226.858 932.491 503.674 688.980 606.672 681.772 579.858 959.174 538.586 762.307 386.131 727.621 1032.406 375.577 860.910 629.117 730.939 695.323 769.763 779.443 720.489 461.372 665.593 715.140 620.736 472.786 656.168 674.523
216.516 277.741 24.972 112.550 254.023 620.503 698.146 457.030 565.855 252.819 250.311 405.805 647.824 291.988 70.074 386.887 574.906 346.564 301.615 555.315 62.527 625.473 177.770 546.668 478.086 127.328 406.292 308.329 561.390 453.544 367.446 635.852 298.029 121.894 369.899 176.220 360.130 206.205 377.013 323.893 197.522 514.729 78.780 615.196 365.794 161.127 138.473 247.081 139.600 582.117 0.000 275.387 355.873 940.413 219.095 584.810 590.232 105.250 300.255 625.122 610.719 177.203 286.846 323.238 158.951 312.710 120.304 440.905 332.481 387.556 347.909 264.179 499.530 690.560 446.713 205.251 326.993 975.508 490.712 200.719 508.868 606.260 404.092 849.833 370.483 548.571 680.887 309.654 210.928 286.308 354.081 272.006 490.466 363.351 317.791 180.020 286.459 60.817 231.355 159.987 312.537
396.008 299.963 289.335 366.761 334.428 539.430 928.748 492.028 582.215 456.560 494.704 475.967 640.692 536.351 281.195 483.978 591.266 521.240 265.034 625.385 316.738 864.272 339.206 660.187 643.948 259.132 387.584 499.022 577.750 618.442 587.515 691.589 505.099 306.853 475.130 297.192 445.594 84.876 452.967 350.098 199.920 628.247 276.269 678.213 479.312 269.254 392.684 491.474 279.426 770.838 278.772 0.000 540.808 1148.408 180.696 612.327 606.592 248.582 199.776 763.093 692.747 292.350 28.899 511.897 274.099 208.661 219.978 241.995 185.420 204.930 588.845 344.585 575.484 898.555 264.087 366.687 530.734 1183.503 367.108 454.930 622.973 845.059 592.751 1057.828 171.574 637.130 890.632 311.928 238.445 458.318 202.793 25.058 721.068 164.442 504.986 165.716 70.300 287.694 386.527 302.766 516.277
436.154 576.794 353.451 331.623 535.800 919.557 493.872 469.407 802.670 150.046 395.614 635.904 914.705 437.261 335.692 606.525 831.933 566.202 600.669 774.953 329.378 766.133 434.797 766.306 640.770 324.020 472.934 471.013 817.226 616.228 512.720 855.490 460.713 407.358 589.537 475.273 579.768 452.684 378.005 394.010 471.251 734.367 377.834 834.834 585.431 349.126 227.663 392.385 319.836 744.801 342.888 529.273 0.000 1082.788 518.148 804.448 847.259 433.729 599.309 844.760 830.357 476.256 540.732 126.791 458.005 594.809 410.364 694.791 586.367 641.442 480.713 563.233 511.907 832.934 668.209 477.110 155.962 1117.882 789.766 212.923 308.171 746.920 153.755 992.207 624.369 432.986 821.547 420.350 509.982 100.504 653.135 525.892 345.568 617.237 537.429 487.356 540.345 364.206 503.214 244.861 204.763
859.205 1054.958 931.655 862.318 980.493 1198.953 1244.869 1312.289 847.720 987.229 725.666 878.676 1000.689 670.406 978.405 835.534 893.494 828.123 989.557 706.885 915.510 479.241 895.324 728.092 660.165 1017.115 1278.816 755.179 862.276 678.060 620.277 900.556 718.083 900.569 835.417 1007.836 846.646 1111.041 1232.273 1215.485 1081.126 726.734 910.396 794.161 814.308 1064.563 925.083 738.582 1010.557 571.172 937.041 1147.741 1090.283 0.000 1011.294 849.498 908.882 991.206 1092.454 1025.270 762.289 954.420 1157.892 1051.485 936.169 1104.909 1005.314 1231.190 1175.498 1292.392 657.997 1035.409 1354.790 442.965 1351.549 937.637 1019.430 69.610 1154.027 910.308 1309.861 592.610 1092.756 285.662 1199.877 1385.331 429.601 1213.265 990.537 1081.627 1146.280 1143.052 1037.189 1192.745 908.813 1021.900 1157.505 975.969 920.227 1009.093 1004.973
259.508 182.459 198.464 241.373 181.399 528.753 851.666 557.931 523.399 425.900 364.705 386.183 581.877 420.147 262.793 394.194 532.451 384.740 228.991 578.014 256.686 745.106 202.707 570.403 532.864 240.730 476.371 362.522 518.935 507.738 451.015 632.774 368.599 170.354 385.346 160.692 355.811 191.690 477.914 409.925 162.812 538.464 139.770 630.842 389.528 274.528 302.886 361.475 261.023 652.687 215.865 181.434 528.954 1011.908 0.000 553.511 547.777 158.154 110.024 663.298 634.454 155.850 191.585 496.319 137.599 122.480 156.088 315.799 193.068 331.491 476.195 191.555 600.432 762.055 390.648 230.187 496.744 1047.003 356.430 365.132 647.920 751.918 570.071 921.328 256.661 662.077 754.133 392.575 85.415 461.667 163.851 176.745 643.985 249.529 368.486 60.342 191.198 264.613 233.497 284.363 482.287
400.586 478.063 571.379 530.784 381.319 436.922 1092.120 979.503 33.714 715.312 554.607 254.722 213.477 572.210 633.980 267.468 131.462 354.263 395.722 157.234 561.719 707.162 418.907 271.396 423.408 684.329 892.353 443.193 43.911 429.471 584.201 146.965 503.606 514.297 267.351 612.159 259.709 697.010 899.487 854.867 671.660 236.839 514.720 207.152 246.241 725.032 592.297 551.377 677.771 401.398 583.251 618.479 818.365 846.682 554.553 0.000 81.128 601.738 561.782 574.343 224.597 509.673 595.282 785.731 527.787 592.515 609.638 566.208 645.781 651.303 621.922 463.659 1022.004 508.803 759.981 423.270 771.067 881.776 489.081 654.543 979.313 802.562 848.585 659.378 582.146 1052.545 657.522 873.560 504.808 751.079 564.800 615.774 884.440 575.014 411.380 604.425 561.150 622.178 403.441 676.307 756.611
434.388 447.356 546.646 548.170 350.612 406.276 1124.354 960.740 49.875 732.697 588.409 247.841 163.644 606.012 623.419 301.270 100.817 388.065 365.014 191.036 579.105 740.964 394.175 305.198 457.210 680.672 861.645 476.995 29.302 463.273 618.003 156.834 537.408 489.565 301.153 587.427 293.511 666.302 916.872 824.160 640.953 270.641 489.987 243.910 280.044 714.471 609.682 585.179 692.944 435.201 564.047 587.772 835.750 880.484 523.846 69.380 0.000 577.006 531.074 608.145 258.399 478.966 564.574 803.116 497.079 561.808 584.905 535.562 615.074 620.658 655.724 432.951 1039.389 542.605 729.336 392.563 765.385 915.578 458.436 669.922 996.698 836.364 850.795 693.180 551.439 1069.931 691.324 862.998 474.100 768.464 534.092 585.067 916.674 544.307 445.183 573.717 530.443 612.796 372.734 693.693 750.928
244.913 256.413 100.134 187.204 255.352 602.706 797.497 480.244 576.196 347.970 338.365 416.146 655.831 380.041 144.898 409.271 585.247 370.145 302.945 580.922 164.464 727.409 188.111 572.275 518.269 150.542 429.506 347.927 571.731 493.142 436.420 651.632 354.004 132.235 395.505 115.892 370.888 179.193 400.227 347.107 123.629 540.335 87.086 640.803 391.400 184.341 240.409 335.135 170.835 638.092 114.005 248.375 451.023 997.313 158.767 600.590 600.574 0.000 239.927 648.703 636.326 168.669 259.834 418.389 150.418 252.382 38.773 413.893 289.021 360.544 436.089 265.509 522.744 747.460 419.701 215.592 422.144 1032.408 430.384 302.656 570.232 708.196 499.242 906.733 343.471 584.389 739.537 332.868 150.600 381.458 293.753 244.994 589.817 336.339 353.891 111.877 259.447 149.334 241.696 194.176 407.687
373.790 208.738 312.746 355.654 264.327 471.059 965.947 582.909 513.844 540.182 478.986 384.742 572.321 534.429 375.950 392.753 522.895 448.399 173.809 557.014 370.967 859.388 316.988 568.961 552.723 353.887 491.027 476.804 509.379 527.217 565.297 623.218 482.881 284.635 383.904 274.974 354.369 270.014 565.542 453.541 275.970 537.022 254.051 609.842 388.087 381.828 417.167 475.757 374.181 679.612 330.146 191.483 643.235 1126.190 140.294 543.956 538.221 272.436 0.000 671.868 624.376 270.132 168.286 610.601 251.881 81.542 269.246 205.775 134.808 281.502 590.477 254.931 678.168 844.213 351.506 337.731 611.026 1161.284 298.737 479.414 735.547 866.200 684.352 994.788 146.637 749.704 868.414 472.729 169.820 570.893 53.827 188.778 758.267 139.505 454.904 190.166 134.155 378.895 317.902 397.521 596.569
442.666 590.699 618.870 572.864 499.184 863.973 1081.509 1021.583 570.286 729.867 505.899 426.519 723.255 514.139 676.060 374.141 616.059 329.398 508.248 512.570 603.799 819.436 469.542 503.923 405.049 726.409 1003.519 412.632 584.842 379.543 526.130 623.106 470.717 564.932 357.153 662.794 366.645 791.648 941.566 929.878 736.084 471.984 565.355 580.669 353.048 767.112 634.376 502.669 719.851 534.827 625.331 763.414 832.920 1025.819 666.252 572.064 631.447 652.373 683.251 0.000 567.974 572.997 740.217 792.547 579.756 713.984 660.273 777.706 767.250 853.433 563.851 578.992 1064.083 699.427 923.436 494.698 748.408 1060.913 761.804 652.945 1021.392 827.033 833.818 850.002 718.567 1094.625 769.796 915.639 620.141 793.158 686.269 760.709 873.829 711.435 452.396 676.859 706.085 664.258 463.810 718.387 733.952
438.235 563.963 614.439 568.433 472.447 585.124 1106.572 1017.152 233.891 752.960 531.711 328.406 386.860 540.320 671.629 325.489 279.665 368.715 481.512 86.662 599.368 631.305 466.176 195.539 368.788 721.978 980.975 438.813 248.447 374.851 552.311 286.727 496.530 561.565 325.372 659.428 333.393 785.632 937.135 925.447 732.717 160.982 561.988 89.472 304.263 762.681 629.946 528.481 715.420 325.542 620.900 707.102 856.014 770.825 645.681 235.669 295.053 649.006 650.404 581.765 0.000 569.630 683.904 818.360 576.390 681.138 656.906 688.486 734.404 773.581 590.032 554.787 1059.652 432.946 875.638 491.331 774.221 805.920 611.323 678.758 1016.962 744.674 859.631 583.521 670.769 1090.194 581.665 911.208 595.936 788.727 653.422 704.397 898.892 663.637 449.029 673.492 649.773 659.827 460.443 713.956 759.764
163.975 159.149 157.417 200.326 143.051 509.531 808.534 608.927 478.818 384.854 309.676 334.619 543.529 365.118 234.190 328.333 487.870 289.206 190.643 499.984 215.639 690.078 107.173 491.336 444.269 279.226 558.189 294.107 474.354 419.143 395.987 570.694 313.570 115.325 314.567 179.023 289.950 299.960 528.910 475.790 228.935 459.397 100.758 559.864 310.462 313.024 261.839 306.446 299.519 574.047 174.818 295.050 487.907 956.880 158.603 508.930 503.196 168.601 236.862 567.765 555.387 0.000 305.201 455.273 26.428 249.318 176.501 413.301 319.906 439.761 421.166 153.207 651.428 707.026 498.918 117.568 449.564 991.974 407.362 324.085 648.855 696.890 527.082 866.299 354.163 711.320 699.104 461.552 132.304 420.621 290.689 290.361 600.854 347.031 272.952 169.209 304.814 223.567 143.672 322.737 435.108
406.430 276.766 300.629 378.055 332.355 516.233 940.042 514.581 559.017 467.854 505.998 452.770 617.495 547.645 292.489 460.781 568.069 516.427 241.837 602.188 328.032 875.566 349.629 636.989 620.751 270.426 410.137 509.444 554.553 595.245 597.937 668.392 515.521 317.275 451.932 307.614 422.397 107.430 464.261 372.651 211.214 605.050 286.692 655.016 456.115 280.548 403.978 502.768 290.720 747.640 290.066 28.899 552.102 1158.830 191.119 589.129 583.395 259.876 176.578 739.896 669.550 302.772 0.000 523.191 284.521 207.312 231.272 218.798 193.742 227.483 600.139 322.959 586.778 908.977 286.640 377.109 542.028 1193.925 343.911 466.224 634.267 856.353 604.045 1062.816 148.377 648.424 901.055 334.482 248.867 469.612 179.596 47.611 732.362 141.245 515.408 176.138 46.669 298.988 396.949 314.060 527.571
435.707 576.347 353.004 331.176 535.354 919.110 476.352 472.636 802.223 149.599 395.168 635.457 914.258 436.815 335.245 606.078 831.486 565.755 600.222 774.507 328.931 710.906 434.350 765.859 640.323 323.573 476.163 470.566 816.779 615.782 512.273 855.043 460.266 406.911 589.090 474.827 579.321 455.913 392.619 397.239 470.804 733.920 377.387 834.387 584.985 348.679 227.217 391.938 319.389 744.355 342.441 532.502 147.483 1082.341 517.702 804.001 846.812 433.282 598.862 844.313 829.910 475.810 543.961 0.000 457.558 598.037 409.918 698.020 589.596 644.671 480.266 562.786 515.136 832.487 671.438 476.663 94.576 1117.435 789.319 212.476 382.340 698.885 127.301 991.760 627.598 462.092 763.197 423.579 509.535 154.106 652.688 529.121 284.182 620.466 536.982 486.909 543.574 363.759 502.767 244.414 143.377
172.741 162.158 139.166 182.075 158.827 525.307 790.283 590.676 500.693 366.602 291.425 343.974 559.305 346.867 215.938 337.099 509.745 297.972 206.419 508.750 197.388 671.826 115.939 500.102 453.035 260.974 539.938 289.242 496.228 427.909 377.735 579.460 295.319 97.074 323.333 160.772 298.716 285.301 510.659 457.539 214.276 468.163 82.507 568.630 319.228 294.773 243.588 288.195 281.268 579.407 156.567 280.391 469.656 938.628 143.943 528.418 525.071 150.350 225.103 576.531 564.153 36.571 290.541 437.021 0.000 237.559 158.250 404.183 308.147 425.102 402.915 168.983 633.176 688.775 484.259 139.443 431.313 973.723 408.077 305.834 630.604 678.638 508.831 848.048 345.044 693.069 680.853 443.300 123.186 402.370 278.930 275.701 582.602 337.912 281.718 154.550 290.154 205.316 165.547 304.486 416.856
353.106 243.826 292.061 334.970 245.119 511.844 945.263 599.340 554.628 519.498 458.302 425.526 613.106 513.744 347.552 433.537 563.679 452.671 214.593 597.798 350.283 838.704 296.304 609.746 593.507 325.488 517.866 456.119 550.163 568.001 544.613 664.002 462.196 263.951 424.688 254.289 395.153 233.185 519.323 451.333 255.271 577.806 233.367 650.626 428.871 335.610 396.483 455.072 345.782 720.396 309.462 167.199 607.164 1105.506 119.610 584.740 579.006 251.751 40.784 712.652 665.161 249.448 144.002 578.253 231.196 0.000 248.547 246.559 70.589 322.286 569.792 255.275 641.840 855.652 392.290 317.047 590.341 1140.600 339.521 458.729 689.329 845.516 659.107 1014.925 187.421 703.486 847.730 434.070 149.136 524.674 94.611 164.494 737.583 180.289 436.417 169.467 110.581 354.051 297.218 369.122 575.884
252.745 264.245 107.966 195.036 263.185 610.538 790.769 460.437 584.028 328.163 346.197 423.978 663.663 387.873 127.658 417.104 593.079 377.977 310.777 588.754 163.200 715.958 195.943 580.107 526.101 130.736 409.700 355.759 579.563 500.975 444.252 659.465 361.836 140.068 403.337 123.724 378.720 159.387 380.421 327.301 104.746 548.168 94.918 648.635 399.232 164.534 239.146 342.967 151.029 645.924 125.235 228.569 431.217 1005.145 165.584 608.423 608.406 38.773 247.759 656.535 644.158 176.501 240.028 398.582 158.250 250.343 0.000 394.087 284.592 340.738 440.532 273.341 502.938 755.292 399.895 223.424 402.337 1040.240 438.216 301.392 550.426 696.745 479.436 914.565 323.665 564.583 747.370 313.062 158.433 361.652 301.586 225.188 583.089 316.533 361.723 107.449 239.641 134.157 249.528 174.369 387.881
526.698 321.384 461.003 515.348 376.974 429.245 1100.416 550.907 535.534 628.227 631.894 490.466 535.527 687.336 452.863 505.399 501.448 561.045 286.455 605.141 488.405 1012.296 469.896 645.833 665.369 430.800 517.422 629.712 531.116 639.863 718.205 644.955 635.788 437.543 496.550 436.334 467.015 325.584 594.214 479.936 371.587 613.894 413.745 657.969 500.733 440.921 564.351 628.664 451.093 756.381 450.440 247.053 712.475 1232.619 319.340 565.646 559.958 420.249 221.196 784.514 672.504 420.875 223.856 683.565 404.788 251.930 391.645 0.000 300.710 210.825 743.384 367.577 646.165 920.982 319.503 465.864 702.401 1267.713 230.793 626.597 764.220 1016.726 764.418 1071.557 159.640 778.377 976.596 527.569 320.326 629.986 224.214 244.348 892.735 175.997 567.550 336.512 189.725 459.362 446.034 474.433 687.944
426.016 286.300 336.815 407.880 320.923 525.767 988.330 592.566 568.551 516.142 531.212 462.304 627.029 586.654 340.777 470.315 577.603 525.961 251.371 611.722 376.320 911.614 369.214 646.523 630.285 318.714 502.301 529.030 564.087 604.779 617.523 677.926 535.106 336.861 461.466 327.200 431.931 213.615 512.549 444.559 259.502 614.584 306.277 664.550 465.649 328.836 452.265 527.982 339.008 757.174 338.354 135.084 600.390 1178.416 195.413 598.663 592.929 288.953 97.269 749.430 679.084 322.358 111.887 571.479 304.106 113.413 274.804 228.332 0.000 303.623 642.702 331.079 635.066 921.775 362.780 392.851 590.316 1213.510 353.445 514.512 682.555 904.641 652.333 1072.350 157.911 696.712 920.640 427.296 224.939 517.900 151.096 132.379 780.650 150.779 512.220 195.724 78.465 347.276 373.021 362.348 575.859
516.390 376.449 376.211 453.637 432.038 523.134 948.250 340.131 629.423 543.436 581.580 552.452 629.415 623.227 368.071 560.463 595.337 616.110 341.519 699.030 403.614 951.148 459.588 736.672 720.434 346.008 310.240 619.404 625.005 694.928 698.685 738.844 625.481 419.818 551.615 403.474 522.080 171.778 424.920 310.642 286.796 704.733 374.668 751.858 555.798 356.130 479.559 578.350 366.302 847.323 365.648 182.773 627.684 1267.803 306.376 659.535 653.847 335.458 276.261 839.578 766.393 412.732 205.327 598.773 394.481 306.995 306.854 215.917 327.018 0.000 675.721 422.642 435.389 1011.924 108.727 487.069 617.610 1302.897 350.910 541.806 588.460 931.935 679.627 1162.499 193.687 571.067 1006.562 329.647 364.125 545.194 279.279 199.081 804.524 177.556 622.615 267.286 233.359 374.570 501.099 389.642 603.153
355.815 521.393 353.342 271.973 456.992 841.726 693.433 719.203 617.733 388.924 155.356 470.903 770.701 83.732 386.495 421.588 663.506 330.495 545.268 539.616 323.029 325.808 364.471 483.373 299.090 424.029 686.153 246.318 632.289 289.566 92.919 670.553 197.111 367.004 404.600 448.312 412.870 519.131 639.186 622.823 510.448 499.030 350.872 626.887 400.494 472.653 331.997 154.781 417.471 418.803 344.560 588.313 491.978 658.906 477.729 619.511 678.894 421.224 558.889 568.728 595.020 420.856 599.772 453.180 402.604 571.344 436.724 737.968 641.933 700.482 0.000 507.832 761.704 409.052 759.639 406.784 421.125 694.000 730.286 312.003 711.556 321.555 494.451 568.325 678.830 791.307 396.182 621.355 456.972 483.322 612.715 584.932 485.753 671.698 411.184 488.335 599.385 383.488 422.598 416.007 406.668
228.433 113.403 279.813 308.686 74.357 443.463 876.832 743.086 416.358 493.214 397.864 279.142 474.836 453.306 356.586 287.153 425.410 302.118 124.575 470.972 338.035 778.266 184.922 463.362 447.123 413.385 657.035 358.161 411.894 421.617 484.175 525.733 379.022 237.721 278.304 306.965 248.769 391.534 663.070 609.769 344.088 431.422 223.154 523.801 282.487 447.183 370.199 394.634 426.111 574.013 297.214 357.491 596.267 1041.371 226.981 446.470 440.736 302.761 277.328 566.268 527.413 188.548 334.294 562.001 203.883 291.381 310.660 371.783 361.327 447.510 509.354 0.000 785.587 738.613 517.514 166.494 517.862 1076.466 337.842 422.399 757.215 785.078 603.272 889.188 312.645 830.448 783.595 592.419 177.236 528.981 280.346 354.786 669.151 305.513 285.864 276.853 300.163 345.963 146.665 445.133 503.405
659.833 746.580 519.374 555.302 745.520 957.778 732.209 103.820 1026.348 516.112 673.805 859.582 1064.059 715.482 459.652 830.203 1029.981 789.880 760.941 998.632 511.732 1048.354 658.475 989.984 902.908 415.137 248.417 733.152 1040.904 878.367 790.940 1079.168 722.852 615.971 813.215 606.059 803.446 507.281 221.521 248.753 562.367 958.045 572.857 1058.512 809.110 428.720 481.352 670.575 438.947 1006.940 508.812 558.740 520.425 1363.907 607.352 1028.126 1070.937 530.085 654.866 1068.438 1054.035 658.837 581.294 502.339 640.585 649.406 501.481 650.561 640.965 470.791 770.790 755.676 0.000 1114.054 450.934 699.328 544.199 1399.002 785.554 525.170 283.111 1029.142 583.193 1273.327 613.109 191.122 1103.769 358.975 640.768 437.936 698.701 575.048 667.338 596.978 761.108 568.262 594.942 498.304 725.432 362.318 575.829
596.837 761.043 680.623 611.286 669.527 855.097 1026.002 1061.258 503.864 736.198 474.634 567.710 656.833 419.375 727.373 524.568 549.638 525.460 678.591 363.029 664.478 304.276 632.956 384.236 348.918 766.084 1027.784 492.811 518.420 354.981 369.245 556.700 456.905 649.538 524.451 756.804 535.680 860.010 981.241 964.454 830.094 382.877 659.365 450.305 503.342 813.532 674.051 487.550 759.526 227.316 686.010 896.710 839.251 450.636 760.262 505.642 565.026 740.174 841.422 702.191 418.433 703.389 906.860 800.453 685.138 853.878 754.283 920.223 924.466 1005.319 406.966 749.257 1103.758 0.000 1093.780 664.963 768.398 485.731 843.061 659.276 1058.829 417.645 841.725 288.479 888.911 1134.300 254.636 962.233 739.505 830.595 856.612 892.020 818.322 881.779 622.661 770.869 876.429 724.937 634.075 758.062 753.941
601.025 461.083 460.846 538.271 516.673 622.991 966.363 346.176 729.280 621.252 666.215 637.087 729.272 707.861 452.706 645.098 695.194 700.744 426.154 795.138 488.248 1035.782 544.223 821.307 805.068 430.643 316.284 704.039 724.861 779.562 783.320 838.700 710.115 504.453 636.250 488.109 606.714 256.412 439.588 325.309 371.431 789.367 459.303 847.966 640.432 425.235 564.194 662.985 450.936 931.958 450.283 267.408 668.714 1352.437 391.011 759.392 753.703 420.092 360.896 924.213 862.500 497.367 289.961 650.851 479.115 391.629 391.488 315.774 411.653 136.003 760.356 507.276 441.434 1096.558 0.000 571.704 692.711 1387.532 450.767 626.440 594.505 1016.569 731.705 1247.133 278.321 577.111 1091.197 335.692 448.760 586.225 363.914 283.716 822.637 262.191 707.249 351.920 317.993 459.205 585.733 467.458 680.969
118.937 191.135 184.580 201.036 116.778 533.898 777.221 648.308 390.676 385.564 298.254 246.478 472.381 353.696 261.353 250.110 399.728 210.983 188.591 421.760 231.972 678.655 51.440 413.113 366.046 318.606 597.570 250.511 386.212 340.920 384.564 492.471 271.372 131.665 236.343 225.361 211.726 354.215 568.291 515.171 298.651 381.174 127.921 481.641 232.238 352.405 262.549 295.024 330.878 495.824 201.981 365.267 488.617 939.275 228.819 420.788 415.054 214.940 304.327 489.541 477.164 116.263 375.417 455.983 134.377 316.782 222.839 458.049 387.371 509.978 409.744 161.488 690.808 660.424 569.134 0.000 418.252 974.370 426.578 322.789 649.565 685.467 503.662 810.999 398.911 722.798 682.964 500.932 202.637 421.331 358.153 360.577 569.541 391.779 194.729 239.425 375.030 250.730 55.530 346.560 403.795
422.699 574.344 357.298 298.822 488.663 873.396 456.760 502.959 784.226 140.875 356.692 622.448 867.567 398.339 339.539 593.070 793.277 541.872 586.273 724.672 333.226 676.042 396.141 716.024 601.847 327.868 506.486 432.090 779.761 577.306 473.797 842.035 421.790 407.246 576.081 475.162 566.312 483.782 422.942 427.561 475.098 684.085 377.722 811.942 571.976 352.974 231.511 353.462 323.684 705.879 346.735 552.963 189.789 1043.630 518.037 790.993 808.604 437.576 599.197 799.464 780.075 473.806 564.422 66.438 455.555 611.652 414.212 718.481 610.058 665.132 441.790 553.489 545.459 793.777 701.760 438.454 0.000 1078.725 761.956 216.771 412.663 664.020 107.709 953.050 648.060 492.414 728.333 453.902 509.870 184.429 653.023 549.582 249.317 640.928 523.974 491.204 564.035 368.054 464.559 248.709 78.774
892.531 1088.284 964.981 895.644 1013.819 1232.280 1278.196 1345.616 881.046 1020.556 758.992 912.002 1034.015 703.732 1011.731 868.860 926.820 861.449 1022.884 740.211 948.836 512.567 928.650 761.418 693.492 1050.442 1312.142 788.505 895.603 711.386 653.603 933.882 751.409 933.896 868.743 1041.162 879.973 1144.367 1265.599 1248.811 1114.452 760.060 943.722 827.487 847.634 1097.889 958.409 771.908 1043.883 604.498 970.368 1181.068 1123.609 62.895 1044.620 882.825 942.208 1024.532 1125.780 1058.596 795.615 987.747 1191.218 1084.811 969.495 1138.235 1038.640 1264.516 1208.824 1325.718 691.324 1068.735 1388.116 476.291 1384.875 970.963 1052.756 0.000 1187.354 943.634 1343.187 625.936 1126.082 318.988 1233.203 1418.658 462.927 1246.591 1023.863 1114.953 1179.607 1176.378 1070.515 1226.071 942.139 1055.226 1190.831 1009.295 953.553 1042.420 1038.299
451.883 308.384 479.392 522.300 341.145 255.870 1100.282 680.462 460.416 706.828 621.314 415.249 460.408 676.756 551.922 483.190 426.330 538.836 264.246 529.924 537.613 951.019 408.372 570.616 618.579 549.706 641.764 581.611 455.997 617.654 707.624 569.837 602.472 444.495 474.342 443.286 444.807 450.239 718.557 604.279 480.409 538.677 420.697 582.753 466.833 565.576 583.813 618.084 569.999 681.165 496.792 371.708 809.881 1157.402 363.302 490.528 484.840 439.082 318.014 762.305 597.287 406.681 348.511 777.247 411.740 348.748 446.981 232.458 402.014 340.380 732.804 328.278 775.720 845.765 449.058 432.077 741.312 1192.496 0.000 645.849 888.563 997.733 826.722 996.340 289.195 902.720 901.379 652.224 327.278 742.595 321.032 369.003 892.601 305.552 545.341 413.174 314.380 545.541 412.247 593.339 726.855
274.847 415.487 200.963 160.356 371.477 756.210 578.549 459.164 641.362 106.361 218.225 474.596 750.381 259.872 198.030 445.218 670.625 403.405 439.361 611.613 168.869 588.743 273.489 602.965 463.380 213.500 449.559 293.623 655.918 438.839 335.330 694.182 283.323 246.050 428.229 313.966 418.460 376.929 379.147 383.766 368.246 571.026 216.526 673.527 424.124 251.021 80.443 214.995 200.090 567.412 190.400 446.111 209.414 905.398 356.841 643.140 685.951 281.241 438.001 673.239 667.016 314.949 457.570 176.780 296.698 450.457 291.359 611.629 503.205 558.280 303.324 401.925 501.664 655.545 614.613 315.802 180.534 940.492 628.458 0.000 428.992 569.530 257.633 814.818 541.207 508.743 644.158 392.051 348.675 200.758 491.828 442.730 370.869 534.075 376.122 356.012 457.183 224.278 341.906 146.756 166.078
609.329 749.969 518.786 504.798 708.975 1057.869 496.306 260.504 975.845 381.728 623.302 809.079 1087.880 664.978 499.646 779.700 1005.108 739.377 773.844 948.128 494.714 972.986 607.972 939.481 852.405 455.130 367.626 682.648 990.401 827.864 740.437 1028.665 672.348 580.533 762.712 646.053 752.943 547.275 209.279 288.701 602.361 907.542 551.009 1008.009 758.607 468.714 400.839 620.072 478.940 956.437 508.224 604.885 313.321 1313.404 647.346 977.623 1020.434 570.079 694.860 1017.935 1003.532 649.431 627.439 361.013 631.180 689.399 541.475 750.652 680.958 616.022 712.395 736.408 277.610 1063.551 596.166 650.285 402.873 1348.498 885.645 444.604 0.000 960.965 371.636 1222.823 661.568 158.842 1025.277 398.923 680.761 265.235 745.211 620.483 431.237 645.438 710.604 608.255 634.936 529.542 676.389 402.311 447.592
540.969 703.890 520.356 453.587 639.489 1024.223 735.917 892.178 730.261 558.530 344.943 654.514 883.230 283.113 549.705 606.742 776.034 515.649 727.765 631.165 488.261 179.639 546.968 575.217 436.004 597.004 850.116 431.473 744.817 440.891 278.073 783.081 382.265 549.501 589.754 629.926 598.025 682.342 812.161 786.786 673.658 590.578 532.486 703.983 585.649 635.863 504.972 341.713 590.446 486.816 509.793 751.523 661.583 625.777 660.226 732.039 791.422 600.634 741.386 753.883 686.568 603.352 762.982 604.383 585.101 753.841 599.934 917.041 808.618 863.692 223.770 690.329 934.679 451.313 922.849 589.281 590.730 660.872 912.783 481.608 881.161 0.000 645.654 558.120 846.620 960.912 217.583 784.565 639.469 652.927 795.212 748.142 528.236 839.488 596.339 670.832 762.595 548.720 607.752 588.982 576.273
477.471 626.156 411.364 350.634 553.162 937.896 403.231 530.997 843.986 190.782 408.503 677.220 932.067 450.150 393.606 647.841 857.777 593.683 650.030 789.171 387.292 713.084 460.641 780.524 653.659 381.934 534.524 483.902 844.261 629.117 525.609 896.806 473.602 459.057 630.853 526.973 621.084 514.274 450.980 455.599 529.164 748.585 429.533 876.150 626.748 407.040 285.577 405.273 377.750 757.690 400.802 590.863 176.928 1095.676 569.848 845.764 873.104 491.642 651.008 863.517 844.575 525.618 602.322 94.476 507.367 656.398 468.278 756.381 647.957 703.032 493.602 612.594 573.497 845.823 729.798 502.954 96.754 1130.771 826.456 270.837 369.742 701.062 0.000 1005.096 685.959 507.462 765.375 481.940 561.682 200.404 704.835 587.482 253.369 678.827 578.746 545.270 601.935 422.120 529.058 302.775 145.555
755.893 911.214 839.680 770.343 819.698 1005.421 1174.699 1220.314 654.188 895.254 633.691 717.881 807.157 578.431 886.429 674.739 699.962 675.631 828.762 513.353 823.534 409.071 789.978 534.560 499.089 925.140 1186.841 651.868 668.744 505.152 528.301 707.024 615.962 808.594 674.622 915.861 685.851 1019.066 1140.297 1123.510 989.150 533.202 818.421 600.629 653.513 972.588 833.108 646.607 918.582 386.455 845.066 1055.766 998.308 286.206 919.318 655.966 715.350 899.230 1000.479 852.362 568.757 862.445 1060.731 959.510 844.194 1012.934 913.339 1070.394 1083.523 1155.490 566.022 899.428 1262.815 252.071 1243.951 815.134 927.454 321.300 993.232 818.333 1217.885 522.440 1000.781 0.000 1039.082 1293.356 359.431 1121.290 898.561 989.651 1006.783 1051.077 967.019 1031.950 772.832 929.925 1026.600 883.993 784.246 917.118 912.998
472.339 267.025 395.213 460.989 322.614 462.032 1015.128 506.887 557.909 562.437 577.535 443.029 568.313 632.977 387.073 451.040 534.235 506.686 232.096 601.079 422.615 957.936 415.537 627.248 611.010 365.010 415.005 575.352 553.445 585.504 663.846 667.284 581.429 383.184 442.191 381.975 412.656 225.909 491.797 377.519 305.797 595.309 359.386 653.908 446.374 375.131 498.561 574.305 385.303 737.899 384.650 181.263 646.685 1214.137 264.981 588.021 582.287 354.459 166.837 730.155 668.442 366.516 158.066 617.775 350.429 197.571 325.855 154.615 234.920 216.327 689.025 313.218 602.145 902.500 275.484 411.504 636.611 1249.231 289.808 560.807 661.803 950.936 698.628 1053.075 0.000 675.960 958.114 396.707 265.967 564.196 169.855 178.558 826.945 28.049 513.191 270.722 123.935 393.572 391.675 408.643 622.154
683.320 800.578 559.292 578.789 782.966 1071.873 634.155 242.404 1049.835 465.044 697.292 883.069 1161.870 738.969 513.649 853.690 1079.098 813.367 821.455 1022.119 535.219 1071.841 681.962 1013.471 926.396 469.134 375.548 756.639 1064.391 901.854 814.427 1102.655 746.339 649.817 836.702 660.056 826.933 561.278 223.282 302.705 616.364 981.532 613.100 1081.999 832.597 482.717 481.615 694.063 492.944 1030.427 548.729 618.889 422.282 1387.394 661.349 1051.613 1094.424 584.082 708.863 1091.925 1077.522 711.523 641.442 441.789 693.271 703.403 555.478 764.656 694.962 597.922 793.222 798.499 189.475 1137.541 578.066 724.275 483.649 1422.489 899.648 525.432 158.842 1052.629 509.683 1296.814 675.572 0.000 1127.256 412.927 694.765 339.793 759.214 634.486 569.284 659.441 784.595 622.259 648.939 552.301 750.379 416.315 530.909
610.131 804.355 681.052 611.715 731.800 1003.334 845.676 1056.701 652.101 723.053 475.063 629.983 805.070 419.803 714.228 586.840 697.875 577.520 740.864 511.266 652.784 78.749 646.250 532.473 411.472 761.527 1014.639 506.105 666.657 429.367 369.673 704.937 467.480 649.966 586.723 757.233 597.953 846.865 976.685 951.309 830.522 531.115 659.793 598.542 565.614 800.386 669.495 487.979 754.969 375.553 674.316 897.138 826.106 427.705 760.690 653.879 713.263 740.602 841.851 776.576 566.670 703.817 907.289 723.581 685.566 854.306 754.711 982.496 924.895 1028.215 388.293 784.806 1099.202 261.649 1087.372 688.563 725.859 462.799 905.334 646.131 1024.863 164.523 764.853 360.047 951.183 1125.435 0.000 949.088 739.933 817.450 895.677 892.449 637.996 944.051 658.210 771.297 906.902 713.243 669.624 753.505 712.170
499.299 549.301 322.095 394.768 548.240 818.189 800.642 300.927 861.932 390.411 513.271 699.048 920.410 554.948 299.118 669.670 870.983 629.346 560.200 838.098 349.497 887.821 474.568 829.451 742.375 254.603 193.252 572.618 857.467 717.833 630.406 918.634 562.318 418.692 652.681 408.780 642.912 276.998 228.047 110.853 365.088 797.511 375.578 897.979 648.576 237.185 352.210 510.042 278.413 846.406 311.532 358.347 432.770 1203.373 395.125 867.592 886.310 332.806 442.639 907.904 893.502 461.557 380.901 403.860 443.306 437.179 304.202 510.972 428.738 380.532 610.257 558.397 350.565 953.520 364.255 502.048 445.720 1238.468 645.965 399.469 398.053 868.608 484.713 1112.793 421.888 412.210 943.235 0.000 443.488 350.281 496.466 368.262 635.325 405.758 600.574 356.035 382.715 320.454 528.153 236.617 450.128
238.564 131.547 191.233 234.141 130.487 489.413 842.619 591.249 472.487 418.669 343.761 335.271 530.965 399.203 263.763 343.282 481.539 338.038 178.079 527.102 249.454 724.162 181.763 519.491 493.101 261.547 534.047 341.578 468.023 467.975 430.071 581.862 347.655 149.409 334.434 155.127 304.898 249.366 511.232 458.112 192.250 487.552 132.538 579.930 338.616 295.346 295.654 340.531 281.840 622.879 208.633 239.110 521.722 990.964 84.813 502.599 496.865 150.923 136.757 616.596 583.542 134.906 249.261 489.088 116.655 149.213 158.822 313.196 219.801 388.923 455.251 140.643 633.749 741.111 448.324 202.415 483.649 1026.059 317.090 357.901 681.237 730.974 561.167 900.384 254.057 695.394 733.189 443.873 0.000 454.436 190.584 234.421 634.938 246.925 321.784 132.524 241.576 257.382 182.585 305.180 469.192
403.323 543.963 306.694 298.792 502.969 886.726 549.695 387.350 769.839 178.261 417.296 603.073 881.874 458.972 288.936 573.694 799.101 533.371 567.838 742.122 282.622 791.845 401.965 733.475 646.399 277.264 390.877 476.642 784.395 621.858 534.431 822.659 466.342 374.527 556.706 442.442 546.937 370.626 295.947 311.952 424.494 701.536 345.003 802.003 552.600 292.065 194.832 414.066 273.080 750.431 296.131 447.216 133.011 1107.398 470.697 771.617 814.428 386.972 518.211 811.929 797.526 443.425 458.675 155.006 425.174 512.751 363.608 612.734 504.310 559.385 506.440 530.402 429.850 857.544 586.151 444.279 196.867 1142.492 737.846 238.650 285.099 772.632 223.525 1016.817 542.312 350.929 847.259 338.292 477.151 0.000 572.038 443.835 386.472 535.180 504.598 431.607 458.288 317.450 470.383 198.105 244.126
375.122 252.220 314.077 356.986 267.135 514.541 967.279 626.391 557.325 541.514 480.318 428.223 615.803 535.760 377.282 436.234 566.377 474.687 217.291 600.496 372.299 860.720 318.320 612.443 596.205 355.219 534.509 478.135 552.861 570.699 566.629 666.700 484.212 285.967 427.386 276.306 397.851 272.077 558.215 490.225 277.302 580.504 255.383 653.324 431.569 374.502 418.499 477.088 375.512 723.094 331.478 224.092 644.567 1127.522 141.626 587.437 581.703 273.767 43.482 715.350 667.858 271.464 200.895 611.933 253.212 74.216 270.577 249.257 127.481 324.984 591.808 277.291 680.732 877.668 394.988 339.063 612.357 1162.616 342.219 480.745 728.220 867.532 685.684 1036.941 190.118 742.378 869.746 472.962 171.152 563.566 0.000 221.387 759.599 182.986 458.433 191.498 167.474 380.227 319.234 398.852 597.900
391.529 297.189 285.728 363.154 329.950 536.657 925.141 510.740 579.441 452.953 491.097 473.193 637.919 532.744 277.588 481.204 588.492 516.761 262.260 622.611 313.131 860.665 334.727 657.413 641.174 255.525 406.295 494.543 574.976 615.668 583.036 688.815 500.620 302.374 472.356 292.713 442.821 103.588 449.360 368.810 196.313 625.474 271.791 675.439 476.538 265.647 389.076 487.867 275.819 768.064 275.165 25.058 537.201 1143.929 176.217 609.553 603.819 244.975 197.002 760.319 689.974 287.871 47.611 508.290 269.620 204.183 216.371 239.222 178.841 223.642 585.238 340.106 571.877 894.076 282.799 362.208 527.127 1179.024 364.334 451.323 619.366 841.452 589.144 1053.349 168.800 633.523 886.154 330.640 233.966 454.711 200.020 0.000 717.461 161.668 500.507 161.237 82.820 284.087 382.048 299.159 512.670
624.481 773.166 558.209 497.644 700.172 1084.906 330.212 572.923 990.996 354.805 555.513 824.230 1079.077 597.160 540.451 794.851 1004.787 740.693 797.040 936.181 534.137 801.356 607.651 927.534 800.669 528.779 546.023 630.912 991.271 776.127 672.619 1043.816 620.612 606.067 777.863 673.983 768.094 656.051 484.849 485.579 676.009 895.595 576.543 1023.160 773.758 553.885 432.422 552.283 524.595 904.700 547.647 732.640 274.574 1213.366 716.858 992.774 1020.114 638.487 798.018 1010.527 991.585 672.628 744.099 286.105 654.377 798.176 615.123 880.513 789.735 750.073 640.612 759.604 615.423 992.833 740.579 649.964 288.383 1248.460 973.466 417.682 386.867 789.334 245.596 1145.708 791.429 524.587 853.646 562.791 708.692 303.871 851.845 729.259 0.000 775.298 725.756 692.115 743.712 568.965 676.069 449.620 333.076
453.877 248.563 376.751 442.527 304.153 486.286 1001.316 493.076 539.448 543.976 559.073 424.567 592.568 614.515 368.611 432.578 548.499 488.224 213.634 582.618 404.153 939.475 397.075 608.787 592.548 346.548 401.193 556.891 534.983 567.042 645.384 648.822 562.967 364.722 423.730 363.513 394.194 212.097 477.986 363.707 287.336 576.847 340.924 635.446 427.912 356.669 480.099 555.843 366.841 719.438 366.188 162.802 628.223 1195.675 246.519 569.559 563.825 335.997 148.376 711.693 649.980 348.054 139.605 599.313 331.967 179.109 307.393 178.869 216.458 202.515 670.563 294.756 588.334 884.038 261.672 393.043 618.150 1230.769 314.062 542.345 647.991 932.474 680.167 1034.613 42.314 662.149 939.653 382.895 247.505 545.734 151.393 160.097 808.484 0.000 494.729 252.260 105.473 375.110 373.213 390.182 603.693
131.245 317.965 307.449 261.443 243.609 653.958 842.165 710.162 401.864 445.970 304.652 235.098 554.833 354.187 364.639 205.719 447.638 163.371 298.233 374.148 292.378 660.269 178.869 365.500 318.434 414.988 696.018 193.238 416.420 293.307 366.178 454.684 253.651 260.536 188.731 364.738 178.962 493.592 630.145 618.457 438.027 333.561 267.298 434.028 184.626 455.691 322.956 301.422 408.430 448.211 313.910 504.643 549.024 902.624 368.195 403.642 463.026 354.316 431.157 441.929 429.551 274.940 514.793 516.389 281.699 443.612 362.216 567.690 514.201 643.418 403.898 288.318 752.662 612.812 708.511 204.024 501.726 937.718 551.789 385.202 709.972 667.081 579.244 763.387 508.552 783.204 644.848 604.218 329.467 481.737 476.253 499.953 634.485 501.420 0.000 378.802 496.070 352.837 173.136 406.966 487.269
270.660 231.508 159.671 246.741 230.448 577.801 857.034 518.548 572.448 396.290 375.856 435.232 630.926 431.299 218.093 435.018 581.500 395.892 278.040 606.669 227.531 756.258 213.858 598.021 544.016 198.862 436.987 373.674 567.984 518.889 462.167 677.379 379.751 181.505 421.252 171.844 396.635 152.306 438.531 370.541 123.429 566.082 146.623 666.549 417.147 232.661 303.477 372.627 219.155 663.839 177.072 166.161 499.343 1023.060 60.050 602.560 596.826 111.810 159.073 674.450 662.072 167.002 176.312 466.709 148.751 161.474 97.660 330.371 195.724 292.108 487.347 240.604 561.048 773.207 351.264 241.339 470.464 1058.154 405.479 365.723 608.536 763.070 547.562 932.479 259.949 622.694 765.284 353.191 132.134 429.778 212.900 161.472 649.354 252.817 379.638 0.000 175.925 224.592 267.443 242.496 456.007
406.171 247.025 300.370 377.796 302.615 486.493 939.783 544.019 529.277 467.595 505.739 423.029 587.755 547.386 292.230 431.040 538.328 486.687 212.096 572.447 327.773 875.306 349.369 607.249 591.010 270.167 451.538 509.185 524.812 565.504 597.678 638.651 515.262 317.016 422.192 307.355 392.657 148.831 464.002 396.012 210.955 575.310 286.432 625.276 426.374 280.289 403.718 502.509 290.461 717.900 289.807 70.300 551.843 1158.571 190.859 559.389 553.655 259.616 146.838 710.155 639.810 302.513 46.669 522.932 284.262 177.572 231.012 189.058 171.248 264.348 599.880 293.218 586.519 882.501 323.505 376.850 541.769 1193.666 314.170 465.965 634.007 856.094 603.786 1033.076 118.636 648.165 900.795 375.883 245.967 469.353 149.856 82.820 732.103 111.504 493.192 175.879 0.000 298.729 371.676 313.801 527.312
250.641 321.693 69.250 146.675 297.975 664.456 724.221 438.778 609.807 275.044 279.842 449.758 691.777 321.489 38.484 421.012 618.859 380.689 345.568 589.440 96.652 649.410 221.723 580.793 512.211 114.567 407.320 342.454 605.342 487.669 396.948 669.977 332.154 165.847 404.024 216.194 394.255 207.233 358.761 324.921 198.550 548.854 122.733 649.321 399.919 162.155 172.598 276.613 108.009 616.242 58.687 276.415 378.097 966.065 256.694 618.935 634.185 132.551 339.052 659.247 644.844 221.155 287.874 345.463 202.904 341.453 121.332 441.933 333.509 388.584 373.984 308.132 481.279 716.212 447.741 249.203 349.218 1001.159 530.686 234.844 528.767 630.197 426.316 875.484 371.511 542.924 704.824 310.682 250.902 308.532 392.879 273.034 516.541 364.379 351.916 212.179 287.487 0.000 275.307 135.582 334.761
142.370 178.987 208.013 224.470 104.630 521.750 800.654 671.741 378.528 408.997 321.687 230.583 460.233 377.129 284.786 230.985 387.580 191.858 176.443 402.635 255.405 688.756 85.568 393.988 346.921 342.039 621.003 251.464 374.063 321.795 394.665 473.346 294.805 155.098 217.219 248.794 192.601 377.648 591.724 538.604 322.084 362.049 151.354 462.516 213.114 375.838 285.982 318.457 354.311 476.699 225.414 388.700 512.050 931.112 240.234 408.640 402.906 238.373 292.178 470.416 458.039 139.696 398.850 479.416 157.810 304.634 246.273 445.901 375.222 521.628 432.386 149.340 714.241 641.300 591.631 46.424 441.685 966.206 419.581 346.222 672.998 695.568 527.095 791.875 386.762 746.231 673.336 524.365 190.489 444.764 346.005 384.010 592.974 379.630 175.604 262.858 374.280 274.163 0.000 369.993 427.228
306.304 410.602 169.831 201.773 398.882 756.896 625.982 312.408 672.820 153.794 320.277 506.054 784.855 361.953 106.124 476.675 702.083 436.352 446.474 645.103 158.204 694.826 304.947 636.456 549.380 79.159 302.804 379.623 687.376 524.839 437.412 725.640 369.323 266.753 459.687 270.081 449.918 235.073 232.391 237.010 226.389 604.517 223.639 704.984 455.582 104.265 119.035 317.047 90.268 653.412 159.268 304.254 256.848 1010.379 284.534 674.598 717.409 194.107 366.892 714.910 700.507 322.062 315.713 224.213 303.811 369.293 165.503 469.772 361.349 416.423 417.262 409.038 354.908 760.526 467.857 347.260 227.968 1045.473 584.573 162.852 402.396 675.613 305.067 919.798 399.351 416.554 750.241 245.295 304.790 187.282 420.718 300.873 418.302 392.219 407.579 242.495 315.326 144.776 373.364 0.000 213.511
372.453 524.098 307.052 248.576 438.416 823.150 505.382 510.871 733.980 119.933 306.446 572.202 817.321 348.092 289.293 542.823 743.031 491.626 536.027 674.425 282.979 628.686 345.895 665.778 551.601 277.621 501.266 381.844 729.515 527.060 423.551 791.788 371.544 357.000 525.835 424.916 516.066 433.536 430.854 435.473 424.852 633.839 327.476 761.696 521.730 302.728 181.265 303.216 273.438 655.633 296.489 502.717 236.703 993.384 467.790 740.746 758.357 387.330 548.951 749.218 729.829 423.560 514.176 115.060 405.309 561.406 363.966 668.235 559.811 614.886 391.544 503.242 553.371 743.531 666.319 388.208 67.562 1028.478 711.710 166.524 458.915 616.665 156.331 902.803 597.814 538.666 680.977 443.758 459.624 230.680 602.777 499.336 303.515 590.682 473.728 440.958 513.789 317.808 414.312 198.463 0.000
NODE_COORD_SECTION
1 -2164.012052 1974.697434
2 -3261.241105 5981.580209
3 743.638847 3490.599941
4 759.225770 1751.716619
5 -3657.168894 4645.217194
6 -10782.804191 10510.167579
7 11226.683960 -3383.077759
8 8044.780193 9581.494137
9 -10225.782234 3153.303468
10 4384.984484 1070.624713
11 -666.347884 -1225.061698
12 -6239.692877 2930.667729
13 -11355.148934 5116.004061
14 -1013.046561 -2437.586789
15 1991.560331 3764.958280
16 -5734.279999 2069.195460
17 -10045.510430 4681.385623
18 -4237.895353 1023.120904
19 -4540.807800 6162.098120
20 -9691.970864 272.811020
21 1215.503948 2700.873647
22 -3273.849433 -9713.759909
23 -2059.465750 2982.418218
24 -8643.124368 -596.555397
25 -5714.283701 -2266.351279
26 2703.061805 4266.778796
27 5726.373021 9440.715680
28 -2496.353346 -48.258176
29 -10278.633049 3387.964757
30 -5399.365487 -1995.135541
31 -1659.138693 -3221.103177
32 -11652.570886 3017.154758
33 -1914.437896 -833.361312
34 -668.293612 3243.156408
35 -5573.687984 2014.448806
36 -258.533759 4426.011804
37 -5440.420576 2223.269308
38 1153.097953 7403.088491
39 7431.610440 6798.280921
40 5749.859244 7989.181118
41 418.193697 5404.730317
42 -8749.204791 -347.229061
43 -300.950770 3427.363678
44 -10681.848998 349.637095
45 -5515.936599 1864.137561
46 3013.513300 5037.297233
47 2716.784870 2000.235272
48 -685.286519 -1070.303253
49 2698.926879 3938.188196
50 -8060.090251 -4047.142884
51 1022.877510 3493.434809
52 -552.300112 8242.133380
53 6843.459674 1198.208600
54 -11628.294188 -9912.472137
55 -1005.152354 5947.419666
56 -10422.392185 2973.221091
57 -10517.471674 3477.428645
58 372.994060 4502.940096
59 -1752.585033 7500.737424
60 -4931.253368 1145.504705
61 -10210.127957 31.069178
62 -1654.367139 4217.591190
63 -861.336066 8245.297970
64 5838.762570 279.021854
65 -1421.721452 4125.004463
66 -1338.985403 7502.296504
67 613.003410 4765.802874
68 -3217.499315 10967.519386
69 -1212.333989 7753.966860
70 468.857797 11258.171855
71 -995.079426 -3643.575960
72 -3328.784490 5284.248744
73 9602.936086 9860.938536
74 -7724.681188 -6893.162319
75 1634.084401 11901.481293
76 -2387.324113 3401.427500
77 5224.997560 -168.922327
78 -11964.965071 -10098.235675
79 -6354.033152 11100.524155
80 2833.143019 1123.429973
81 10787.620895 5164.727143
82 -1989.744003 -9007.911965
83 6603.052909 -593.599466
84 -9991.941108 -8824.971475
85 -1833.293481 9529.620425
86 10316.482104 7386.666941
87 -4014.612134 -10013.069492
88 4295.588642 8008.719199
89 -1805.735984 5542.653163
90 6282.892164 2426.492229
91 -1864.501466 7681.881852
92 -490.212958 8004.321421
93 7861.246625 -2996.867263
94 -1684.418333 9552.680580
95 -3332.209827 1747.748381
96 -365.250422 5778.542802
97 -1296.948302 8267.164491
98 1496.994339 3720.047074
99 -2895.028816 3490.529819
100 3649.049920 3704.681516
101 4504.055624 -166.953344
DEMAND_SECTION
1 0
2 6
3 7
4 92
5 9
6 2
7 9
8 82
9 10
10 9
11 9
12 4
13 4
14 5
15 5
16 7
17 10
18 8
19 8
20 9
21 75
22 4
23 5
24 90
25 6
26 1
27 2
28 5
29 8
30 8
31 10
32 7
33 8
34 3
35 4
36 6
37 9
38 5
39 10
40 3
41 2
42 8
43 9
44 7
45 7
46 6
47 2
48 63
49 3
50 3
51 10
52 7
53 8
54 4
55 6
56 6
57 7
58 71
59 7
60 9
61 3
62 3
63 1
64 51
65 7
66 9
67 8
68 5
69 5
70 8
71 4
72 55
73 4
74 8
75 1
76 4
77 8
78 3
79 8
80 10
81 4
82 5
83 2
84 9
85 9
86 7
87 3
88 2
89 1
90 75
91 6
92 74
93 10
94 10
95 4
96 2
97 4
98 2
99 7
100 7
101 4
DEPOT_SECTION
1
-1
EOF
