NAME : poryos-paris-n100-poi
COMMENT : Poryos2026 shortest metric; city paris; 3-decimal seconds/meters; ENU ref in poryos-paris-n100-poi.vrp.json
TYPE : CVRP
DIMENSION : 101
EDGE_WEIGHT_TYPE : EXPLICIT
EDGE_WEIGHT_FORMAT : FULL_MATRIX
CAPACITY : 163
EDGE_WEIGHT_SECTION
0.000 4115.223 1162.433 1445.665 7817.224 2933.130 1747.932 1242.048 3499.009 5822.207 5035.187 9042.699 1207.102 5304.357 2860.536 6064.219 7772.070 8492.448 3654.249 8983.996 518.879 4320.668 3622.649 2583.884 9667.334 8586.546 6029.684 1578.984 1399.960 2177.181 1335.031 3493.305 2350.937 3542.668 5235.215 3483.033 2028.382 4344.193 4985.897 1320.357 4889.825 1194.113 3127.361 4204.774 2857.039 3646.143 4847.631 5079.682 4159.349 2451.755 4753.830 3360.286 456.784 1947.754 1786.699 4177.414 3640.541 3797.129 9052.516 891.780 4493.085 2086.551 5684.605 3644.564 2079.205 3321.806 3910.494 1458.512 1310.494 5736.919 2213.204 3342.419 3846.459 6346.725 5096.417 4441.934 1627.363 1886.498 4049.526 2658.421 3760.365 5440.688 8797.522 7335.221 3263.598 5001.715 7532.856 5620.194 9625.901 4237.699 3574.889 7756.494 1843.802 4333.270 3917.361 5251.431 709.044 7174.328 3798.737 11470.035 4848.016
4091.475 0.000 4929.635 3773.717 4182.414 2000.590 5361.916 3577.703 7294.892 9243.398 4187.103 12122.361 3756.397 8969.398 1881.826 9004.015 10447.759 12288.331 1559.053 12779.879 4083.774 8109.635 6059.928 3314.703 12640.403 12382.430 4493.816 5305.706 3668.174 4919.537 4666.984 1451.372 4192.214 7331.635 3929.511 5684.147 4226.391 8140.076 8781.780 5116.241 6663.918 4961.315 5256.209 8000.658 6002.672 2675.674 7787.427 6003.584 7475.475 5194.111 8549.714 5134.378 4252.667 2193.266 3400.747 5411.335 7333.341 2062.275 7158.868 4349.542 1993.940 4735.796 8624.402 7433.531 5865.552 7047.471 6892.515 5254.395 4588.096 6660.821 2143.349 1243.395 6828.480 4546.088 4581.412 8237.818 4844.876 4120.160 5281.715 5187.630 2789.896 7335.909 5162.712 10463.673 5812.966 8797.598 3898.046 5088.516 13421.785 8026.666 7370.772 10323.973 4299.896 6107.362 5695.125 7409.654 4047.601 5280.679 570.637 14037.704 6080.204
1335.713 4232.013 0.000 2748.377 7757.621 2743.250 1455.906 1712.461 4225.638 5638.734 6337.899 9769.328 1677.515 5197.426 2778.998 7027.865 8735.715 8841.958 3092.346 9310.034 1854.592 4213.737 3103.494 1613.527 10393.963 9100.265 7332.396 1217.737 2702.672 3512.894 917.461 3014.904 1240.202 3435.737 6537.928 2761.108 917.648 4432.695 5712.525 1491.922 3779.091 776.544 4463.074 4869.234 2337.884 2535.409 5811.277 3968.947 4955.549 3694.154 5480.459 2249.551 1144.870 2431.230 3089.411 5513.126 3457.068 2732.418 7941.782 2227.492 3801.692 1741.084 6648.251 3537.633 1969.653 3171.197 4722.852 2185.141 477.932 4626.185 2696.680 3899.211 4658.818 7615.722 6399.129 5106.395 1108.209 916.140 5385.239 2039.153 2649.631 6683.087 8209.793 8061.850 2744.444 5076.834 7016.219 4509.459 10139.620 4130.768 4301.517 8720.140 873.445 3222.535 5159.760 6303.793 1503.162 6063.593 3870.993 12433.681 6183.728
2042.705 4063.141 2880.865 0.000 7765.142 2881.047 3087.003 1754.195 4228.289 7161.277 4284.047 8390.869 1719.249 6643.427 2808.453 5272.524 6980.374 9535.375 3602.167 10026.923 1509.701 5659.738 5174.671 3281.575 8908.911 9629.473 5278.544 2918.054 648.820 1351.581 2629.837 3441.222 3239.773 4881.738 4484.075 4798.890 2917.219 5387.120 5576.541 2659.428 5778.662 2912.545 2301.761 5020.333 4385.992 4380.256 4055.936 5968.518 3701.758 1626.154 5464.955 4249.122 2203.897 2285.581 1035.559 3351.813 4979.611 4020.130 9685.447 1090.991 4441.003 2756.290 4892.910 4983.634 3418.275 4660.876 3118.798 2759.467 2656.528 6625.756 2551.031 3239.434 3054.764 5595.585 4345.277 5257.493 3345.795 2584.189 3223.926 4280.322 4494.478 4615.087 8745.440 6718.017 4927.710 6340.785 7480.774 6509.030 10668.828 5576.769 4304.169 6964.799 2541.494 5222.106 3091.761 4425.830 1998.830 7807.259 3746.654 10678.340 4022.415
7904.812 4057.840 7977.692 7587.054 0.000 5576.503 8383.617 7391.040 11108.229 12265.099 6748.736 15935.698 7569.733 11991.099 5196.869 12817.352 14252.019 15759.557 4496.766 16227.633 7897.111 11131.337 9081.629 6671.805 16453.740 16017.865 6299.547 8327.407 7481.511 8732.874 7759.898 4668.811 7213.915 10353.337 6596.883 8705.848 7248.092 11350.294 12595.117 8721.540 9488.029 8320.348 9069.546 11786.834 9024.374 5466.401 11600.764 8780.893 11288.812 9007.448 12363.051 8156.080 8066.004 6006.603 7214.084 9224.672 10355.043 5083.977 5192.896 8162.879 4258.112 7757.498 12437.738 10455.233 8887.253 10069.172 10705.852 9067.732 7609.798 8994.391 5956.686 5056.732 10641.817 6403.493 7277.916 12023.994 7866.578 7141.862 9095.051 8209.331 5580.623 11130.114 2156.984 14277.010 8834.668 11994.434 1931.551 6232.897 17057.220 11048.367 11184.109 14128.233 7321.597 8931.473 9508.462 11222.991 7860.937 5142.323 3922.909 17841.964 9893.541
3026.550 1935.047 3667.887 3038.684 5621.647 0.000 4073.812 2512.778 6229.967 7985.527 4620.387 11429.553 2691.471 7711.527 162.658 8311.208 10019.058 11223.406 956.372 11714.954 3018.849 6821.531 4802.057 1904.548 11947.596 11317.504 5302.161 4017.602 2992.979 4356.684 3450.092 795.427 2934.343 6043.531 4559.344 4426.276 2938.287 7040.489 7716.855 4051.315 5406.047 3896.390 5220.791 6935.732 4744.801 1856.233 7094.620 5129.985 6706.157 4631.258 7484.788 3876.507 3187.742 1128.340 2837.893 5485.615 6064.862 1446.198 7039.652 3391.749 1795.208 3447.692 7931.594 6145.427 4577.447 5778.991 6157.483 4189.470 3299.992 5787.223 1078.424 1840.623 6093.448 5577.961 4719.813 7172.892 3556.772 2832.056 5355.995 3929.759 1970.455 7410.189 6144.911 9756.701 4555.096 7684.628 4880.245 4460.401 12356.859 6738.562 6305.847 10003.483 3011.792 4849.491 5769.405 7430.934 2982.675 5161.464 1618.560 13717.024 6154.484
1841.231 5263.235 1223.299 3286.896 8693.689 3774.473 0.000 2562.919 3142.225 4364.272 6876.418 8815.516 2527.974 3855.072 3810.221 6335.014 8154.555 7499.604 4028.414 7967.680 2360.111 2871.383 2487.219 2644.749 9440.151 7757.911 7870.915 478.285 3241.191 3206.188 1691.786 3950.972 2176.270 2093.383 7076.447 2347.603 1853.716 3090.341 4583.369 774.067 3915.720 1550.868 4219.483 3526.880 1534.790 3471.477 5499.186 4284.154 4001.737 3382.063 4351.303 2386.181 1516.362 3462.452 3627.930 5269.535 2182.606 3668.485 8877.850 2733.011 4737.760 2772.307 6286.012 2195.279 627.299 1863.871 3769.040 1233.256 1509.155 4941.391 3727.902 4930.433 3705.005 8187.956 6937.648 3764.040 913.894 1947.363 5225.546 1522.991 3585.699 6370.996 9145.861 7108.037 2128.168 3734.480 7952.287 5279.701 8797.266 2788.414 3218.105 8272.936 1904.668 3359.165 4847.669 5991.702 2056.434 6999.661 4807.061 11690.623 6196.170
1005.880 3857.301 1667.975 1294.913 7559.303 2670.605 2399.609 0.000 4209.297 6532.495 4884.435 9685.783 431.944 6014.645 2602.614 6567.437 8275.288 9202.737 3396.328 9694.284 1275.078 5030.957 3909.795 2016.699 10203.825 9296.835 5878.933 2230.661 1249.208 2634.680 1364.960 3235.383 1974.896 4252.957 5084.464 3534.014 1652.342 5054.481 5696.185 2030.646 4513.785 1699.655 3584.860 4915.063 3362.580 3144.619 5350.849 4703.641 4869.637 2909.254 5464.119 2984.246 1167.072 1689.832 1635.948 4368.135 4350.829 3229.944 8550.993 1647.978 4235.163 1491.414 6187.823 4354.853 2789.493 4032.095 4413.712 2168.800 1391.652 5360.879 1955.282 3084.498 4349.677 6195.974 4945.665 5152.223 2132.905 1319.312 4238.515 3015.445 3258.842 5898.187 8539.601 8012.930 3662.834 5712.003 7274.935 5244.154 10336.190 4947.987 4285.177 8259.712 1276.617 3957.229 4374.860 5708.930 848.167 6672.804 3540.815 11973.253 5037.005
3177.982 7172.645 3627.019 4094.397 10874.646 5990.551 2866.341 4299.469 0.000 4729.400 7673.360 6791.382 4264.524 4004.813 5917.957 4738.326 6485.805 5724.171 6569.358 6215.718 3576.301 3159.498 4838.406 5048.469 7416.017 5818.269 8900.565 2954.839 4270.840 3621.660 4095.506 6491.916 4621.943 2559.583 7873.389 4753.018 4394.660 1575.915 2492.985 2619.918 6321.136 3954.588 4631.950 1436.497 3883.970 6012.421 4630.779 6689.569 2113.258 3794.531 2260.919 4791.596 3428.597 5005.176 4657.580 5460.673 3689.497 6209.430 11372.183 3949.201 7278.704 5176.027 5115.491 2515.774 2053.010 3370.763 2673.256 2070.195 3912.875 7346.807 5270.625 6399.841 2609.221 9217.606 7734.590 1673.657 3454.839 4351.083 5416.685 3928.407 6126.643 6148.583 11686.805 5083.903 4533.584 3488.072 10493.231 7685.117 6857.624 3035.560 212.717 6676.248 4308.388 5764.580 4902.563 5316.835 3766.466 9540.606 6856.158 9802.144 6355.527
5993.587 8966.288 5660.148 7342.780 12307.664 7618.229 4806.534 6924.885 4992.529 0.000 10921.743 9499.629 6889.939 929.283 7653.977 8411.076 9910.558 5865.727 7642.389 6333.803 6512.467 2210.479 3096.650 6611.102 9963.161 6636.472 12023.271 4959.421 7393.547 6870.042 6128.635 7564.947 4961.941 2744.514 11121.772 3384.693 5645.093 3183.181 5551.736 4768.903 3802.340 5987.717 7880.333 4591.329 3450.384 7009.855 8287.171 5614.984 5885.551 7042.914 4915.095 4915.578 5688.909 7515.391 7780.287 8930.386 2552.068 7206.864 10943.275 6885.367 8276.138 7087.762 8771.883 2632.762 4090.265 2937.320 6254.912 4727.764 5946.004 5686.116 7780.841 8774.189 6190.877 12340.313 10982.973 4403.897 5395.031 6262.819 8886.397 4658.786 7124.077 9799.466 12309.242 8347.569 3583.719 1950.892 11496.153 7421.938 7664.029 2138.779 5068.409 10348.498 6216.767 4027.724 8388.510 8967.718 6418.400 9438.814 8421.036 12817.462 9841.474
5469.321 4538.027 6307.482 4295.991 6955.532 4516.512 6867.828 5169.188 7790.542 10942.102 0.000 10045.330 5134.243 10424.252 4397.748 7415.902 8193.877 13079.441 5191.462 13570.988 4939.775 9440.563 8589.665 5830.625 10414.747 13173.539 1227.860 6698.879 3993.794 4224.196 6044.830 5030.517 6654.766 8662.563 1127.182 8213.884 6332.212 8931.185 8670.664 6440.253 9193.655 6339.162 4097.419 8305.066 8002.087 6015.721 6551.040 9289.473 6801.922 4498.769 8704.838 7664.115 5630.513 4511.454 3509.049 4046.730 8760.436 5655.594 10579.327 4871.816 6030.298 6171.284 6817.618 8764.459 7199.100 8441.701 6212.921 6540.292 6071.522 9946.711 4648.661 3903.569 6148.886 2159.603 756.466 8542.226 6772.411 5999.182 3917.110 7695.315 6129.943 5071.973 8146.806 8477.502 8342.703 10121.610 6890.132 8619.889 14212.894 9357.594 7866.422 8070.092 5956.487 8637.099 4330.520 5976.904 5425.447 9025.759 4864.162 11783.823 3896.053
8825.747 12194.981 9700.543 8740.249 15896.982 11012.888 8939.866 9890.188 6544.687 9743.897 9965.394 0.000 9855.243 9323.666 10940.293 3317.800 2121.731 8381.933 11734.007 8873.481 9224.066 8657.923 10896.078 11121.994 1261.251 8222.368 10538.891 9028.364 8784.813 7371.630 10118.753 11573.062 10790.739 8311.144 10330.435 11033.633 10468.185 6937.854 4574.353 8693.443 12601.751 9977.835 7659.868 6049.101 10154.183 12085.946 4984.819 12970.184 5850.818 7189.746 5494.667 11072.211 9076.362 10421.575 9167.399 7226.588 9747.169 12151.970 17492.319 8885.820 12572.843 10872.196 3877.189 8267.334 8333.625 9428.434 6018.042 8143.720 9986.399 13627.422 10687.025 11371.275 5954.007 11584.458 9719.173 5919.504 9528.363 10424.608 7182.599 10209.021 12200.168 5286.171 16877.280 2249.241 10814.198 8593.899 15612.614 13965.731 8991.324 8617.610 6620.567 2639.899 10381.912 12045.195 7181.401 5246.556 9414.232 15614.130 11878.494 3847.117 6932.485
1209.194 3814.911 1328.650 1959.486 7516.913 2326.149 2060.285 847.608 4384.784 6256.533 5549.008 9928.474 0.000 5738.683 2361.897 7031.829 8739.679 9201.164 3155.611 9669.241 1632.867 4754.995 3565.339 1672.243 10553.109 9459.472 6543.505 1891.336 1913.781 3291.169 1020.505 2994.666 1630.441 3976.994 5749.037 3189.558 1307.887 4791.902 5871.671 1754.684 4169.330 1360.330 4241.349 5090.549 3023.255 2800.164 5815.240 4359.186 5045.123 3565.743 5639.605 2639.790 1119.041 1907.335 2300.520 5032.708 4074.867 2885.488 8206.537 2005.767 3994.447 1146.958 6652.215 4078.891 2513.531 3756.132 4812.024 2344.287 1047.196 5016.423 2172.785 3482.109 4747.989 6860.546 5610.238 5327.709 1793.580 974.857 4903.088 2670.990 2914.386 6554.676 8344.150 8220.996 3318.378 5436.041 7079.484 4899.698 10498.827 4672.025 4460.663 8724.103 932.162 3612.774 5031.349 6307.756 860.835 6328.348 3498.425 12437.644 5701.577
5302.917 8733.247 4969.477 6652.109 12074.623 7385.188 4115.863 6234.214 4512.007 1611.600 10231.072 9869.607 6199.268 0.000 7420.935 8123.379 9724.909 6343.793 7409.348 6811.869 5821.796 1531.078 2863.609 6378.061 10333.140 7109.729 11332.601 4268.750 6702.876 6179.371 5437.964 7331.906 4728.899 2053.843 10431.101 3151.652 5412.052 2988.598 5366.088 4078.233 3663.707 5297.046 7189.662 4405.681 2759.713 6776.814 7596.500 5381.943 5498.310 6352.243 4729.447 4682.537 4998.238 7208.631 7089.616 8239.715 1861.397 6973.822 10783.680 6194.696 8043.097 6518.485 8081.212 1942.091 3399.594 2246.649 5564.241 4037.093 5255.333 5547.483 7474.081 8541.148 5500.206 11649.642 10292.302 4218.249 4704.360 5693.541 8195.726 4292.530 6891.036 9108.795 12076.201 8161.921 3350.678 1978.415 11263.111 7188.897 8142.096 1448.108 4587.887 10061.301 5650.846 3794.683 7697.839 8277.047 5727.729 9205.773 8187.995 13041.248 9150.803
3011.655 1772.388 3652.992 3023.789 5458.989 583.229 4058.917 2497.883 6215.072 7970.632 4605.492 11414.659 2676.577 7696.632 0.000 8296.313 10004.164 11208.511 793.714 11700.059 3003.954 6806.637 4787.162 1889.654 11932.701 11302.610 5287.266 4002.707 2978.084 4341.789 3435.198 632.769 2919.448 6028.636 4544.449 4411.381 2923.392 7025.594 7701.960 4036.421 5391.152 3881.495 5205.896 6920.838 4729.906 1841.339 7079.725 5115.090 6691.262 4616.363 7469.894 3861.613 3172.847 1113.446 2822.999 5470.720 6049.967 1283.539 6876.994 3376.854 1632.549 3432.797 7916.699 6130.533 4562.553 5764.097 6142.588 4174.575 3285.097 5772.328 1063.529 1677.965 6078.553 5563.067 4704.918 7157.998 3541.877 2817.162 5341.100 3914.864 1955.561 7395.294 5982.253 9741.806 4540.201 7669.733 4717.587 4438.968 12341.965 6723.667 6290.952 9988.588 2996.897 4834.597 5754.510 7416.039 2967.781 4998.805 1455.902 13702.129 6139.590
6023.713 9007.247 7129.143 5552.515 12709.248 7825.154 6544.719 6702.454 4563.363 8328.817 7487.410 3298.011 6667.509 7604.230 7752.559 0.000 1889.487 8598.047 8546.273 9089.595 6422.032 6895.401 8807.384 8229.835 3818.024 8692.145 8174.731 6625.038 5597.080 4183.896 7316.718 8385.328 8188.033 6548.131 7852.451 8667.768 7865.479 5175.333 3744.356 6236.230 10235.885 7175.801 4488.903 4221.707 7854.955 9324.363 1736.964 10604.319 3222.587 4002.012 4147.409 8706.346 6274.328 7233.841 5979.665 4643.735 7914.350 8964.236 14629.553 5698.086 9385.109 7704.550 1016.357 6504.321 6159.652 7595.615 3250.776 5748.573 7292.181 11261.557 7499.291 8183.541 3186.742 9106.474 7241.189 4330.851 7133.216 7532.449 4599.746 7843.156 9438.585 2762.697 13689.546 1639.324 8448.333 7087.489 12424.880 11457.290 9731.500 6855.088 4639.242 2007.868 7489.754 9679.330 4190.506 2202.173 6612.197 12751.365 8690.760 5587.453 4454.501
7673.235 10427.764 8778.665 6973.033 14129.766 9245.671 8234.425 8122.972 5975.913 9741.367 8239.773 2134.545 8088.027 9016.780 9173.077 2008.724 0.000 9519.857 9966.791 10011.405 7878.478 8307.951 10497.090 9650.353 2220.869 9581.985 8689.137 8314.744 7017.597 5604.414 8966.241 9805.846 9608.550 7960.681 8604.815 10357.474 9285.996 6587.883 4713.449 7925.936 11925.592 8825.323 5892.651 5634.257 9544.661 10744.880 3396.176 12294.025 4957.612 5422.529 5559.959 10396.052 7923.850 8654.358 7400.183 5459.371 9396.705 10384.753 16050.071 7118.603 10805.626 9125.067 2109.972 7916.871 7764.850 9077.971 4940.482 7438.279 8941.703 12951.263 8919.808 9604.058 4876.448 9805.742 7993.553 5743.401 8822.922 8952.966 5415.382 9532.862 10859.102 3518.954 15110.063 2013.366 10138.039 8500.039 13845.397 12877.807 10350.942 8267.638 6051.792 518.168 8910.271 11369.036 5414.184 3479.340 8261.719 14171.882 10111.278 3877.380 5206.865
8782.059 12776.722 8904.310 9698.475 16478.723 11455.484 8143.632 9903.547 6208.417 6269.803 13277.437 8240.933 9868.601 5925.787 11491.232 8662.133 9591.930 0.000 11846.649 1073.406 9180.378 5576.759 8518.412 10325.760 8627.758 1521.967 14504.642 8232.130 9874.918 9225.737 9372.796 11769.207 9640.140 5798.576 13477.466 8838.653 9671.951 5044.994 6034.027 8007.967 9589.494 9231.879 10052.318 5700.027 7941.687 11289.712 8669.939 11235.566 6994.249 9398.608 5344.484 9643.855 8927.972 10609.253 10261.657 10648.283 7132.529 11486.721 16112.909 9553.279 12555.995 10453.318 9082.332 5754.767 7329.329 7050.768 7554.247 7597.082 9190.165 11473.270 10874.703 12003.918 7490.212 14821.683 13338.668 5290.858 8732.129 9628.374 10604.294 8935.683 11403.934 10650.624 16964.096 7847.428 8691.835 5196.020 15770.522 12425.842 2403.632 5717.045 6284.296 10110.098 9585.678 9648.306 10090.173 9488.946 9370.544 14442.718 12460.236 11600.515 11543.137
4135.870 1323.899 4069.548 4139.719 4771.004 1707.444 4475.473 3622.098 7339.287 8356.955 4912.061 12488.363 3800.791 8082.955 1327.809 9370.017 10813.761 11851.413 0.000 12319.489 4128.169 7223.193 5173.485 2763.661 13006.405 12109.721 5593.834 4419.263 4034.176 5285.539 3851.754 760.667 3305.771 6445.193 4851.017 4797.704 3339.948 7442.150 8826.175 4813.396 5777.475 4412.204 5622.211 7878.690 5116.229 1774.536 8153.429 5117.141 7815.477 5560.113 8594.108 4247.936 4297.062 2237.660 3766.749 5777.337 6446.899 1175.833 6655.628 4501.069 1411.184 3849.354 8990.404 6547.089 4979.109 6161.028 7258.517 5298.790 3701.654 5774.379 2187.744 1856.888 7194.482 5838.717 5011.486 8115.850 3958.434 3233.718 5647.717 4301.187 1888.758 7701.911 5294.268 10829.675 4926.524 8086.290 4029.602 4226.974 13149.076 7140.223 7415.167 10689.975 3413.453 5220.920 6061.127 7775.656 4091.995 4777.440 778.647 14403.706 6446.206
9320.598 13143.834 9103.898 10237.013 16711.512 11655.072 8343.220 10363.536 6746.955 6469.391 13815.976 8746.168 10328.591 6125.375 11690.820 9200.671 10097.166 715.425 12046.237 0.000 9718.917 5776.347 8718.000 10525.348 9132.994 1122.947 15043.180 8431.718 10413.456 9764.275 9572.384 11968.795 9839.728 5998.164 14016.005 9038.241 9871.539 5244.582 6572.566 8207.555 9789.082 9431.467 10590.856 6238.565 8141.275 11489.300 9208.478 11435.154 7532.787 9937.147 5883.023 9843.443 9127.560 11147.791 10800.196 11186.822 7332.117 11686.309 16312.497 10091.817 12755.583 10652.906 9620.870 5954.355 7528.917 7250.356 8092.785 7796.670 9389.753 11672.858 11413.241 12542.457 8028.751 15360.222 13877.206 5829.397 8931.717 9827.962 11142.833 9135.271 11603.522 11189.163 17163.684 8385.966 8891.423 5395.608 15970.110 12625.430 1398.616 5916.633 6822.835 10615.333 9785.266 9847.894 10628.711 10027.485 9857.051 14642.306 12824.884 12105.750 12081.675
1046.908 4319.294 1913.750 1325.179 8021.295 3137.201 2499.249 1446.119 3908.592 6573.523 4914.701 9062.079 1411.173 6055.674 3064.607 5943.734 7651.584 9215.678 3858.320 9707.226 0.000 5071.985 4373.965 2896.365 9580.121 9309.776 5909.199 2330.300 1279.474 2056.696 2086.348 3697.376 2854.562 4293.985 5114.730 4234.350 2532.008 5067.423 5384.103 2071.674 5393.451 1945.430 3006.876 4700.636 3608.355 4024.285 4727.146 5583.307 4085.702 2331.269 5152.037 3863.911 1208.100 2151.825 1666.214 4056.928 4391.857 4109.610 9430.658 771.294 4697.156 2371.080 5564.120 4395.881 2830.521 4073.123 3790.008 2209.828 2061.811 6240.545 2417.275 3546.490 3725.974 6226.240 4975.931 4937.796 2378.680 2198.978 3929.041 3409.738 4138.507 5320.202 9001.593 7389.227 4014.915 5753.031 7736.927 6123.820 10349.131 4989.015 3984.472 7636.009 2156.283 4836.895 3796.876 5130.945 1047.667 7552.470 4002.808 11349.550 4727.531
4338.620 8050.215 4010.278 5687.813 11617.893 6561.453 3249.601 5269.917 3524.877 2150.767 9266.776 8596.538 5234.972 1308.939 6597.201 6952.359 8451.840 5124.927 6952.618 5593.003 4857.500 0.000 3149.303 5431.729 9060.071 5890.863 10368.304 3338.099 5738.580 5215.075 4478.765 6875.176 4473.090 1089.547 9466.804 3469.544 4777.920 1715.529 4093.019 3113.936 4346.864 4337.847 6225.366 3132.612 2724.560 6395.681 6632.204 5766.091 4426.834 5387.946 3456.378 4426.728 4033.941 6249.432 6125.319 7275.418 1663.055 6592.690 10895.781 5230.400 7661.964 5559.286 7116.916 977.794 2435.298 1833.641 4599.945 3072.797 4296.134 6088.589 6514.882 7681.040 4535.910 10685.345 9328.006 2945.180 3838.098 4734.343 7231.430 3822.761 6509.903 8144.499 11892.507 6888.852 3474.708 1067.822 10876.491 7208.715 6923.229 483.812 3600.756 8889.781 4691.647 4178.831 6733.543 7312.751 4763.432 9225.591 7731.265 11768.179 8186.507
3858.322 5901.836 2956.497 5030.603 9243.212 4553.777 2650.962 4042.296 4930.400 3183.470 8468.675 10669.940 4171.465 2909.470 4589.525 8548.607 10360.001 8136.273 4577.937 8604.349 4377.201 3116.880 0.000 3546.650 11294.575 8750.177 9150.448 2623.627 4984.898 5677.419 3440.071 4500.495 1897.489 2683.769 8407.631 320.241 2580.641 4092.737 6371.544 3245.298 1926.003 3299.153 6690.713 5315.055 1252.262 3945.403 7970.417 2956.708 5987.454 5853.294 5818.947 1851.126 3667.479 4450.939 5371.637 7740.766 2224.208 4142.412 8320.180 4750.101 5211.686 4023.310 8499.605 2785.665 3115.874 1938.338 5982.634 3704.486 3101.411 3279.205 4716.389 5709.737 5918.599 9426.249 8568.100 5307.749 2811.133 3198.367 7696.777 1594.334 4059.625 8842.227 9316.906 8962.461 519.267 4025.374 8431.701 4633.113 9789.531 3033.910 5006.280 10486.529 3152.315 1369.447 7318.900 8462.933 4025.771 6649.990 5356.584 13676.340 8667.401
2963.682 2965.762 2626.948 2975.817 6577.908 1477.000 3032.873 2420.551 6051.435 6971.428 5391.898 11366.686 2628.604 6697.428 1512.748 8248.340 9956.191 10408.813 1912.633 10876.889 2955.981 5780.593 3787.958 0.000 11884.728 10667.121 6073.671 2976.663 2930.111 4293.816 2403.966 1835.190 1920.244 5002.592 5330.854 3412.177 1897.348 5999.550 7492.579 3365.608 4391.948 2969.604 5157.924 6436.090 3730.702 1476.276 7031.752 4431.426 6643.289 4568.390 7260.512 2862.409 2910.097 1164.979 2775.026 5835.391 5023.923 1560.521 6882.649 3328.881 2742.559 2401.566 7868.727 5104.489 3536.509 4738.053 6094.615 4058.827 2259.053 5088.664 1430.429 2632.960 6030.580 6349.472 5491.323 6673.250 2515.834 1785.930 5705.770 2915.660 1590.498 7557.323 7101.171 9693.834 3540.997 6643.689 5836.505 4080.444 11706.476 5697.623 6127.314 9940.615 1970.853 3835.393 6033.996 7368.066 2776.618 5004.461 2649.276 13654.156 6504.260
9410.420 12663.653 10285.216 9208.921 16365.654 11481.559 9524.538 10358.860 7129.359 10264.017 10475.662 1592.499 10323.915 9843.787 11408.965 3866.122 2235.888 8705.139 12202.679 9196.687 9808.739 9242.595 11480.750 11706.666 0.000 8564.374 10925.025 9613.036 9253.485 7840.302 10703.425 12041.734 11375.411 8895.816 10840.703 11618.305 11052.857 7522.527 5159.025 9278.115 13186.423 10562.507 8128.540 6633.773 10738.855 12670.618 5533.140 13554.856 6435.490 7658.418 6079.339 11656.883 9661.034 10890.247 9636.071 7695.260 10331.841 12620.642 18076.991 9354.492 13041.515 11360.956 4345.860 8852.007 8918.297 10013.106 6602.714 8728.392 10571.071 14212.094 11155.697 11839.946 6538.679 12041.631 10229.441 6504.176 10113.035 11009.280 7651.271 10793.694 12784.840 5754.843 17345.952 2833.913 11398.870 9114.020 16081.286 14550.403 9333.331 9202.282 7205.239 2754.056 10966.584 12629.867 7650.072 5715.228 9998.904 16198.803 12347.166 3395.276 7442.753
8708.267 12702.930 9072.906 9624.682 16404.931 11520.837 8312.229 9829.755 6134.625 6982.598 13203.645 7845.362 9794.809 6638.581 11448.242 8588.340 9196.360 1297.075 12015.246 1376.578 9106.586 6289.553 9043.548 10494.357 8232.188 0.000 14430.850 8400.727 9801.125 9151.945 9541.393 11937.803 9830.569 6458.614 13403.674 9363.789 9840.548 5059.972 5960.235 8124.721 10302.288 9400.475 9978.525 5626.235 8466.823 11458.308 8596.147 11788.977 6920.457 9324.816 5270.692 10000.222 8958.882 10535.461 10187.865 10574.491 7845.324 11655.317 16580.809 9479.486 12724.592 10621.914 9008.539 6414.805 7497.926 7575.904 7480.455 7574.999 9358.762 12186.064 10800.911 11930.126 7416.420 14747.891 13264.875 5217.066 8900.726 9796.970 10530.502 9137.033 11572.531 10576.832 17132.693 7773.636 9216.971 5908.814 15939.118 12893.742 1203.405 6429.839 6210.504 9714.528 9754.275 10361.100 10016.381 9415.154 9296.751 14910.619 12386.444 11204.944 11469.345
6272.103 4808.069 7110.263 5098.773 6534.746 5150.152 7670.609 5971.970 8635.817 11744.883 1211.810 10675.979 5937.025 11227.034 5031.388 8103.580 8794.150 13924.715 5825.102 14416.263 5742.556 10243.345 9388.613 6464.264 11015.019 14018.813 0.000 7501.661 4796.575 5069.470 6847.612 5664.157 7457.548 9465.345 1059.957 9012.832 7134.994 9776.460 9515.938 7243.034 9992.603 7141.943 4942.693 9150.340 8804.869 6649.361 7396.315 9923.113 7647.196 5344.044 9550.113 8463.063 6433.295 5145.094 4311.831 4892.005 9563.217 6289.234 10017.647 5674.598 6557.506 6974.065 7505.296 9567.241 8001.882 9244.483 7058.196 7343.074 6874.303 10580.350 5282.301 4213.000 6994.161 1475.527 1752.015 9387.500 7575.193 6801.964 4762.384 8498.097 6763.583 5759.651 7713.864 9165.180 9141.651 10924.391 6281.293 9122.603 15058.168 10160.376 8711.696 8658.372 6759.269 9436.047 5175.795 6822.179 6228.229 8691.567 5134.203 12372.103 4678.965
1936.281 5171.202 1318.348 3381.946 8512.578 3766.070 274.780 2657.969 3366.875 4598.576 6971.467 8910.565 2623.023 4089.376 3801.818 6430.063 8249.604 7733.908 3847.303 8201.984 2455.160 3105.687 2513.195 2732.168 9535.200 7992.215 7965.965 0.000 3336.240 3301.237 1786.835 3769.861 1995.159 2327.687 7171.496 2373.579 1672.605 3324.645 4817.673 869.117 3941.696 1645.917 4314.532 3761.184 1560.897 3290.366 5594.236 4310.130 4096.786 3477.113 4585.607 2412.157 1611.411 3549.871 3722.980 5364.584 2416.910 3487.375 8696.739 2828.060 4556.649 2859.726 6381.061 2429.583 861.603 2098.175 3864.090 1328.305 1596.574 4967.368 3815.321 4922.030 3800.055 8283.006 7032.697 3998.345 732.783 2034.782 5320.596 1548.967 3404.588 6466.045 8964.750 7203.087 2154.144 3968.784 7771.176 5264.417 9031.570 3022.718 3442.755 8367.985 1992.087 3385.141 4942.719 6086.752 2151.484 6818.550 4625.950 11785.672 6291.219
1893.577 3472.976 2731.738 714.286 7174.977 2290.882 3286.122 1593.444 4427.409 7360.397 3693.882 9078.285 1558.499 6842.547 2218.288 5959.939 7667.790 9734.495 3012.002 10226.043 1364.031 5858.858 5013.921 3120.825 9596.327 9828.593 4688.379 3117.174 0.000 1800.495 2469.086 2851.057 3079.022 5080.858 3893.910 4638.140 2756.468 5586.240 5902.920 2858.547 5617.911 2763.418 2750.675 5219.453 4426.343 3765.217 4743.351 5807.767 4389.174 2075.068 5670.854 4088.371 2054.769 1636.761 445.394 3533.950 5178.730 3429.965 9095.282 1290.111 3850.838 2595.540 5580.325 5182.754 3617.395 4859.996 3806.214 2958.587 2495.778 6465.005 1902.211 2649.269 3742.179 5005.420 3755.112 5456.613 3196.667 2423.438 3404.329 4119.571 3879.439 5064.001 8155.275 7405.433 4766.959 6539.905 6890.609 6348.280 10867.948 5775.889 4503.289 7652.214 2380.743 5061.355 3540.674 4874.744 1849.703 7217.094 3156.489 11365.755 4202.819
2169.913 4896.784 3275.343 1469.711 8598.786 3714.691 3102.751 2591.992 3566.347 7060.937 4131.758 7444.784 2557.047 6356.222 3642.097 4326.439 6034.289 8882.273 4435.811 9373.820 2347.498 5372.534 5354.169 4119.372 7962.826 8976.371 5359.619 2933.803 1486.617 0.000 3462.918 4274.866 4077.570 4594.534 4331.787 5214.554 3755.016 4734.017 4728.148 2557.277 6616.459 3322.001 1145.889 4350.493 4401.740 5213.900 3109.851 6806.315 2859.406 348.008 4750.265 5086.919 2420.528 3123.378 1869.203 2195.942 4879.271 4853.773 10519.091 1615.281 5274.646 3594.087 3946.825 4669.669 3312.962 4560.536 2270.405 2516.341 3438.381 7463.553 3388.828 4073.078 2206.370 5780.634 4192.988 4587.653 3601.874 3421.986 2151.953 4389.942 5328.122 3336.941 9579.083 5786.096 4995.119 6019.573 8314.417 7346.827 10015.726 5289.564 3642.226 6018.714 3379.291 6059.903 1813.614 3147.684 2758.397 8640.902 4580.298 9732.255 3122.576
1040.890 3846.310 895.976 2157.384 7548.311 2357.548 1627.610 1077.984 4055.725 5823.858 5746.906 9599.415 1043.038 5306.009 2393.295 6815.152 8523.002 8768.490 3124.433 9236.566 1559.769 4322.320 3356.191 1559.076 10224.050 9026.798 6741.403 1458.662 2111.679 3218.071 0.000 3026.064 1517.274 3544.320 5946.935 3076.391 1194.720 4359.227 5542.613 1322.009 4056.163 927.656 4168.251 4761.490 2590.581 2686.997 5598.564 4246.019 4785.636 3481.441 5310.546 2526.623 902.365 1938.734 2498.418 5218.304 3642.192 2772.322 8093.370 1932.669 3953.280 1178.356 6435.538 3646.216 2080.857 3323.458 4552.940 2015.228 430.554 4903.257 2204.184 3513.508 4488.905 7058.444 5808.136 4998.650 1360.905 861.690 5090.416 2391.963 2801.219 6470.373 8312.972 7891.937 2997.140 5003.366 7048.306 4786.531 10066.153 4239.351 4131.605 8507.426 818.995 3499.607 4947.047 6091.080 877.411 6215.182 3529.823 12220.968 5888.906
3688.627 1507.020 3566.661 3700.762 4848.396 1260.201 3972.587 3174.855 6892.045 7854.069 4613.411 12091.631 3353.549 7580.069 1029.159 8973.286 10515.111 11348.527 183.121 11816.603 3680.926 6720.306 4670.599 2260.774 12609.673 11606.834 5295.184 3916.376 3655.056 4986.889 3348.867 0.000 2802.885 5942.306 4552.367 4294.818 2837.062 6939.264 8378.932 4310.509 5274.589 3909.317 5323.561 7375.803 4613.343 1286.345 7756.697 4614.254 7368.234 5261.463 8146.866 3745.049 3849.819 1790.418 3468.099 5478.687 5944.012 672.946 6266.401 4053.826 1021.956 3346.467 8593.672 6044.202 4476.222 5658.142 6819.560 4851.547 3198.767 5271.492 1740.501 1558.238 6755.525 5540.066 4712.836 7612.964 3455.547 2730.831 5349.067 3798.301 1400.567 7403.261 5371.659 10418.779 4423.637 7583.403 4106.993 3828.374 12646.189 6637.337 6967.924 10391.325 2910.567 4718.033 5762.477 7477.006 3644.753 4388.212 961.768 14105.056 6147.556
2724.321 5486.635 1822.497 4169.986 8828.011 4136.907 2032.967 3201.939 5012.804 5449.516 7759.508 10668.752 3166.994 5077.650 4172.655 8188.249 10007.791 8768.465 4162.736 9236.541 3243.201 4093.961 2330.255 3103.006 11293.387 9382.369 8733.578 2005.632 4124.281 4901.502 2306.070 4085.293 0.000 3315.961 7959.537 1954.474 2043.442 4724.929 6453.948 2627.303 3181.480 2165.153 5851.683 5397.459 2047.560 3530.201 7199.886 3549.913 5854.972 5082.763 6221.882 1651.940 2533.479 3920.709 4511.020 6901.735 3267.850 3727.210 8232.528 3616.101 4796.485 3230.563 8036.860 3417.857 2497.878 2981.979 5622.276 3086.491 1967.411 4207.151 4186.158 5292.867 5558.241 9009.379 7820.738 5634.619 1677.133 2405.619 6773.848 1232.518 3644.423 8071.696 9204.586 8961.273 2036.136 5003.342 8016.499 4545.461 10421.723 4010.992 5088.684 10108.748 2362.924 2624.924 6548.369 7692.402 2891.771 6562.337 4941.383 13543.858 7572.337
3521.683 7233.278 3193.341 4740.350 10800.956 5744.516 2432.664 4452.980 2478.628 2928.708 8319.313 8218.168 4418.035 2144.959 5780.264 6096.836 7908.230 5452.504 6135.681 5920.580 4040.563 988.298 2719.836 4614.792 8839.499 6167.035 9546.517 2521.162 4916.793 4267.612 3661.828 6058.239 3841.564 0.000 8519.342 3040.077 3960.983 1509.596 3872.447 2296.999 4645.839 3520.911 5277.903 2787.115 2143.111 5578.744 5563.121 5465.265 3535.682 4440.484 3235.806 3845.279 3217.004 5432.495 5303.532 6222.571 1570.927 5775.753 10314.333 4413.463 6845.027 4742.350 6047.834 101.896 1618.361 1252.192 3530.862 2125.334 3479.197 5905.295 5697.945 6864.103 3466.828 9863.558 8380.543 2724.608 3021.161 3917.406 6178.582 3137.107 5692.966 7075.416 11253.128 6510.690 2893.259 1687.380 10059.554 6627.266 7206.390 864.360 2554.508 8034.758 3874.710 4089.283 5664.461 6243.668 3946.495 8644.142 6914.328 11224.568 7117.425
5374.215 4138.547 6212.376 4200.885 7029.295 4421.406 6772.721 5074.082 7695.436 10846.996 582.761 9965.054 5039.137 10329.146 4302.642 7335.627 8113.602 12984.334 5096.356 13475.882 4844.669 9345.457 8494.559 5735.519 10334.471 13078.433 1810.621 6603.773 3898.688 4129.089 5949.724 4935.411 6559.660 8567.457 0.000 8118.778 6237.106 8836.079 8575.558 6345.146 9098.549 6244.056 4002.313 8209.960 7906.981 5920.615 6455.934 9194.367 6706.816 4403.663 8609.732 7569.009 5535.407 4416.348 3413.943 3951.624 8665.330 5560.488 10547.850 4776.710 5887.984 6076.178 6737.342 8669.353 7103.994 8346.595 6117.815 6445.186 5976.415 9851.605 4553.555 3543.478 6053.780 2376.599 977.070 8447.120 6677.305 5904.076 3822.004 7600.209 6034.837 4991.697 8220.568 8397.226 8247.597 10026.504 6963.895 8524.783 14117.787 9262.488 7771.316 7989.817 5861.381 8541.993 4235.414 5881.798 5330.341 8957.836 4464.681 11703.547 3800.947
3538.081 5581.595 2636.256 4710.362 8922.971 4233.536 2330.721 3722.054 5306.181 3559.251 8148.433 10966.506 3851.224 3285.251 4269.284 8486.003 10305.545 8512.054 4257.696 8980.130 4056.960 3492.661 375.781 3226.409 11591.141 9125.958 8830.207 2303.386 4664.657 5357.178 3119.830 4180.254 1577.247 3059.550 8087.390 0.000 2260.400 4468.518 6747.325 2925.057 1843.493 2978.912 6370.472 5690.836 1256.205 3625.162 7650.176 2874.198 6152.726 5533.053 6194.728 1530.885 3347.238 4130.698 5051.396 7420.525 2599.989 3822.171 7999.939 4429.860 4891.445 3703.069 8437.001 3161.446 2795.633 2314.119 5920.030 3384.245 2781.170 3196.696 4396.148 5389.496 5855.995 9106.008 8247.859 5683.530 2490.892 2878.125 7376.536 1274.093 3739.384 8521.986 8996.665 9259.027 199.026 4401.155 8111.460 4312.872 10165.312 3409.691 5382.061 10423.925 2832.074 1286.937 6998.659 8142.692 3705.530 6329.748 5036.343 13841.612 8347.159
2894.003 4449.870 2017.240 3490.074 7791.246 3101.811 2227.710 2501.766 5207.547 5644.259 7016.708 10863.495 2630.936 5272.393 3137.558 8382.992 10202.534 8963.208 3125.971 9431.285 3412.882 4288.705 2524.998 2094.684 11488.130 9577.112 7698.482 2200.375 3444.368 4829.840 2275.873 3048.529 605.889 3510.704 6955.665 2149.217 0.000 4919.672 6648.691 2822.046 3144.778 2359.896 5780.021 5592.203 2242.303 2493.437 7394.629 3334.634 6049.715 5104.414 6416.625 1615.238 2728.222 2998.973 3831.108 6563.295 3462.593 2690.445 7811.618 3785.782 3759.720 2482.781 8231.603 3612.601 2692.622 3176.722 5817.019 3281.234 1899.985 3991.872 3264.422 4257.771 5752.984 7974.283 7116.134 5829.363 1871.876 1657.837 6433.675 1427.261 2607.659 8093.347 8167.821 9156.016 2230.880 5198.085 6979.734 4124.552 10616.467 4205.735 5283.427 10303.492 1611.785 2588.222 6570.020 7887.145 2648.525 6021.621 3904.618 13738.601 7232.165
4205.414 8155.910 4115.974 5121.829 11723.589 6667.148 3355.297 5326.901 1886.437 3153.485 8700.792 6881.009 5291.956 2428.897 6702.896 5236.830 6736.312 4615.121 7058.314 5083.197 4603.733 1720.069 4049.554 5537.425 7344.542 4792.089 9927.997 3443.795 5298.272 4649.092 4584.461 6980.871 4873.636 1464.620 8900.821 4369.795 4883.616 0.000 2377.490 3167.789 5796.381 4443.543 5659.383 1417.083 3472.829 6501.376 5228.827 6794.983 2711.305 4821.963 1740.849 5043.290 4106.219 6032.608 5685.012 6365.340 2900.645 6698.385 11623.877 4976.633 7767.660 5664.982 5657.029 1420.811 2540.993 2581.910 3271.304 2618.067 4401.830 7235.014 6298.058 7427.273 3207.269 10245.038 8762.022 1229.651 3943.794 4840.038 6321.351 4180.100 6615.598 6746.631 12175.761 5173.323 4222.977 1912.157 10982.186 7936.810 5831.444 1679.756 1962.317 7174.252 4797.343 5419.001 5807.229 5914.883 4793.898 9953.687 7836.961 10052.650 7260.193
4573.333 8567.995 5450.091 5363.738 12269.997 7385.902 4689.414 5694.820 2089.366 5516.986 8373.543 4719.379 5659.875 4792.399 7313.308 3488.049 4688.011 5690.817 8107.022 6182.365 4971.652 4083.570 6321.725 6871.542 5182.912 5784.915 9601.403 4777.912 5540.181 4790.392 5866.338 7946.077 6524.840 3736.791 8573.572 6635.068 6217.733 2363.502 0.000 4442.990 8159.883 5725.421 5095.399 1562.361 5685.273 7835.494 3495.856 8592.467 2037.330 4608.507 920.314 6694.494 4823.948 6400.526 5926.921 5614.604 5172.816 8032.502 13241.867 5344.552 8945.857 6619.781 3908.248 3692.982 3955.908 4854.081 2597.328 3893.268 5735.947 9249.705 6665.976 7795.192 2533.293 10022.419 8434.773 1345.151 5277.911 6174.155 5570.615 5831.304 7949.716 5476.541 13250.295 3011.198 6415.633 4275.658 11985.629 9588.014 6824.270 4043.257 2165.245 5125.952 6131.460 7667.478 5119.390 4314.863 5161.817 11363.678 8251.509 7946.288 6509.457
1772.666 5595.788 1555.852 3218.331 9207.934 4107.026 891.059 2703.963 2733.716 4734.315 6807.852 8277.406 2669.018 3983.999 4142.774 5796.904 7616.445 7446.481 4542.659 7914.557 2291.545 3000.311 3154.097 2977.302 8902.041 7704.789 7802.350 885.726 3172.625 3137.623 2024.339 4465.217 2741.932 2222.311 7007.881 3014.482 2419.378 3037.218 4220.603 0.000 4582.599 1883.421 4150.917 3439.481 2201.669 4037.139 5263.189 4951.032 3463.627 3313.498 3988.537 3053.059 1467.987 3720.420 3559.365 5200.970 2552.649 4190.548 9443.512 2664.445 5303.422 3104.860 5747.902 2324.207 758.847 2233.914 3230.930 693.218 1841.708 5608.270 3985.870 5115.085 3166.895 8119.391 6869.083 3676.641 1479.556 2279.916 5156.981 2189.870 4151.361 6302.431 9711.523 6569.927 2795.047 3681.357 8466.532 5946.580 8744.143 2917.341 2809.595 7734.826 2237.221 4026.043 4779.104 5788.670 2197.478 7565.323 5279.302 11152.513 6127.604
6163.888 7302.658 5262.063 6966.899 9859.719 6423.580 4956.528 5978.592 7060.695 3802.836 10404.971 12707.024 6107.761 3790.704 6459.328 10678.902 12456.537 9271.986 5978.759 9740.062 6682.767 4474.088 2468.401 5482.946 13189.693 10037.922 11086.744 4929.193 6921.194 7982.985 5745.637 5939.549 3994.384 4713.683 10343.927 2625.807 4516.938 5859.790 8222.641 5550.864 0.000 5604.719 8996.280 7137.309 3688.465 5224.658 10145.188 2312.516 8117.749 8158.860 7586.000 2816.291 5973.045 6387.235 7307.934 10040.121 3992.437 5421.666 7643.376 7055.667 5992.463 5959.606 10629.900 4601.931 5421.440 4068.632 8112.929 6010.052 5376.811 2198.325 6652.685 7497.787 8048.894 11362.545 10504.396 7074.802 5116.699 5134.663 9910.501 3899.901 4925.118 11147.793 9006.774 10999.545 2824.833 4906.608 8453.197 4119.469 11070.289 4391.118 7136.574 12616.824 5088.611 1372.727 9624.466 10768.499 6125.351 6136.346 6757.406 15772.876 10708.991
1097.246 4139.622 520.288 2542.911 7751.768 2650.860 1351.382 1620.070 4031.528 5534.209 6132.433 9575.219 1585.125 5092.901 2686.608 6819.191 8527.041 8737.433 3086.493 9205.509 1616.126 4109.212 2998.969 1521.136 10199.854 8995.740 7126.930 1113.212 2497.206 3274.427 660.914 3009.051 1479.334 3331.212 6332.462 2859.354 1156.780 4328.170 5518.416 1297.813 4018.223 0.000 4224.608 4737.294 2233.360 2649.057 5602.603 4208.079 4761.439 3485.480 5286.350 2488.683 906.404 2338.839 2883.945 5274.660 3352.543 2734.382 8055.430 1989.026 3915.340 1648.694 6439.577 3433.108 1865.129 3066.672 4528.743 1991.031 116.381 4865.317 2604.289 3806.820 4464.708 7443.971 6193.663 4974.454 1003.684 823.750 5146.773 2034.742 2763.279 6474.413 8275.032 7867.740 2639.919 4972.309 7010.366 4748.591 10035.095 4026.243 4107.408 8511.465 781.055 3461.667 4951.086 6095.119 1264.696 6177.242 3823.136 12225.007 5945.262
3003.403 5510.931 4108.833 2303.200 9448.842 4575.839 3901.788 3453.140 4014.839 7847.691 4267.884 7080.490 3418.194 7142.977 4503.245 3962.144 5669.995 9196.360 5296.958 9687.908 3208.646 6159.288 6153.206 4980.520 7598.532 9290.458 5495.744 3732.839 2347.765 934.582 4296.408 5136.014 4938.718 5381.288 4467.913 6013.590 4616.164 5048.105 4787.583 3344.031 7477.607 4155.491 0.000 4421.985 5200.777 6075.048 2745.556 7667.463 2918.841 752.697 4821.758 5948.067 3254.018 3984.526 2730.350 2007.430 5666.025 5714.921 11380.238 2448.771 6135.794 4455.235 3582.530 5456.424 4099.716 5347.291 2329.841 3303.095 4271.871 8324.700 4249.976 4818.927 2265.806 5916.760 4329.114 4659.145 4400.910 4283.134 1963.441 5188.978 6189.270 2972.646 10429.140 5421.802 5794.155 6806.328 9164.474 8207.975 10329.813 6076.319 4090.719 5654.419 4240.439 6921.051 1449.319 2783.389 3591.887 9502.050 5441.446 9367.960 2902.283
3906.061 7900.723 4782.819 4696.466 11602.725 6718.630 4022.142 5027.548 1422.094 4857.966 8144.885 5619.810 4992.603 4133.378 6646.036 3869.842 5369.323 5518.628 7439.750 6010.176 4304.380 3424.550 5662.705 6204.270 6244.445 5612.726 9372.745 4110.640 4872.909 4221.903 5199.066 7278.805 5857.568 3077.770 8344.913 5967.796 5550.461 1704.481 1321.414 3775.718 7500.862 5058.148 4866.740 0.000 5018.001 7168.221 3877.649 7925.195 1808.672 4361.374 857.594 6027.222 4156.676 5733.254 5259.649 5462.706 4513.795 7365.230 12574.595 4677.280 8278.585 5952.509 4290.041 3033.961 3288.636 4195.061 2368.670 3225.996 5068.675 8582.432 5998.704 7127.920 2304.635 9793.760 8206.115 755.585 4610.639 5506.883 5418.717 5164.032 7282.444 5468.815 12583.023 3912.331 5748.361 3616.638 11318.357 8920.742 6652.081 3384.237 1497.973 5807.264 5464.188 7000.206 4904.596 4637.066 4494.545 10696.406 7584.237 8685.662 6357.560
3780.198 6262.984 3127.273 5225.863 9604.360 4914.925 2118.698 4403.443 4462.426 3689.910 8815.384 10201.966 4466.941 3366.688 4950.672 8080.634 9892.028 7668.299 4939.085 8136.376 4299.077 2821.696 1333.006 3907.798 10826.601 8282.203 9511.596 2091.363 5180.158 5145.155 3610.847 4861.642 2258.636 2215.795 8768.779 1193.391 2941.789 3624.763 5903.570 2680.180 2981.540 3469.929 6158.449 4847.081 0.000 4306.550 7438.153 3832.260 5519.480 5321.030 5350.973 2212.274 3455.328 4812.086 5566.897 7208.502 1756.235 4503.559 8681.327 4671.977 5572.834 4384.458 8031.631 2317.691 2307.675 1470.364 5514.660 3089.525 3272.187 4272.290 5077.536 6070.885 5450.625 9787.396 8876.615 4839.775 2443.341 3559.514 7164.513 1795.427 4420.772 8309.963 9678.054 8494.488 973.956 3889.518 8792.848 4994.261 9321.558 2738.726 4538.306 10018.555 3513.462 2424.984 6786.636 7930.669 3995.401 7011.137 5717.732 13208.366 8135.136
3747.494 3335.827 3347.159 4134.257 5743.754 2485.970 3753.084 3145.949 6771.645 7558.969 6508.233 12368.412 3396.809 7284.969 2521.718 9406.781 11114.631 11129.024 2011.928 11597.100 4114.422 6500.803 4375.499 2265.190 12993.047 11387.331 7190.007 3696.874 4088.552 5474.024 3129.364 1972.718 2507.785 5722.803 6447.190 3999.718 2617.559 6719.761 8212.789 4091.006 4485.521 3689.814 6424.204 7156.301 4318.243 0.000 8190.193 3778.385 7554.633 5748.598 7980.723 3296.189 3635.495 2592.359 4202.405 7207.479 5648.912 1454.835 5423.720 4487.322 1526.723 3126.964 9027.167 5824.699 4256.720 5363.042 7253.055 4784.225 2979.264 4435.622 2857.809 3530.956 7189.021 7465.807 6607.659 7393.461 3236.044 2511.328 7077.858 3503.201 579.467 8737.530 5691.731 10660.934 4128.537 7363.900 4730.841 2621.514 12426.686 6417.834 6847.525 11099.056 2691.064 3928.965 7214.204 8548.274 3502.017 3545.531 2790.575 14812.597 7876.348
4724.079 7478.608 5829.508 4023.876 11180.609 6296.514 5622.464 5173.815 4165.588 8333.661 6228.767 4954.298 5138.870 7609.074 6223.920 1835.953 3543.803 9035.069 7017.634 9526.616 4929.322 6763.494 7873.881 6701.196 5472.340 9129.167 7392.719 5453.515 4068.440 2655.257 6017.084 6856.689 6659.394 6138.274 6438.437 7734.266 6336.839 5180.177 4163.289 5064.707 9198.282 5876.166 2960.264 4327.462 6921.453 7795.724 0.000 9388.139 2901.937 2473.373 4253.163 7668.743 4974.693 5705.202 4451.026 3157.081 7125.486 7435.597 13100.914 4169.447 7856.470 6175.911 1404.259 6094.465 5370.788 6806.752 2461.913 4959.710 5992.547 10045.376 5970.652 6654.902 2397.878 7887.284 6072.785 4436.605 6121.586 6003.810 3113.093 6909.654 7909.946 1980.685 12160.907 3295.610 7514.831 7092.334 10896.241 9928.651 10168.522 6639.556 4241.468 3436.087 5961.114 8641.727 2661.867 819.007 5312.563 11222.726 7162.121 7149.818 3463.507
4954.747 5886.576 4241.413 5550.817 7951.443 5007.498 4380.127 4562.510 7359.965 5742.373 8988.889 13015.912 4691.679 5730.240 5043.246 10535.410 12354.951 10653.851 4562.677 11121.927 5473.626 5807.248 3121.498 4066.864 13640.547 11267.754 9670.662 4352.793 5505.112 6890.584 4336.617 4523.467 2578.302 5201.347 8927.845 2745.717 3100.856 6610.315 8801.109 4974.464 2124.806 4584.068 7840.764 7744.620 3405.649 3808.576 9538.946 0.000 8202.133 7165.158 8336.525 1883.877 4842.747 4971.153 5891.852 8624.039 4741.786 4005.584 5805.977 5846.526 4576.381 4543.525 10375.921 5303.243 4845.039 4455.916 7969.437 5433.652 3960.729 1061.414 5236.603 6081.705 7905.402 9946.463 9088.314 7825.327 4100.725 3718.581 8494.419 3101.138 3509.036 10154.091 7098.498 11308.434 2922.589 6846.144 6544.921 2211.193 12307.109 5724.278 7435.845 12447.809 3672.529 2469.976 8630.764 9964.834 4709.269 4228.070 5341.324 15891.019 9292.909
3223.513 6948.136 4287.941 3357.372 10650.137 5766.042 3527.264 4345.001 1462.522 5630.596 6613.968 6131.988 4310.056 4906.008 5693.448 3210.927 5030.469 6625.366 6487.162 7116.914 3621.832 4197.180 5789.928 5709.392 6756.623 6719.464 7841.829 3615.762 3533.815 2882.808 4516.519 6326.217 5378.137 3665.114 6813.997 5650.313 5055.583 2477.111 2320.430 3280.840 7218.430 4375.601 3335.824 1850.991 4837.500 6673.344 2800.786 7586.864 0.000 2848.933 2250.764 5688.891 3474.128 5050.707 3920.554 3931.790 4887.947 6870.353 12079.717 3422.972 7325.998 5269.962 3285.498 3621.304 3142.197 4569.213 837.753 2731.118 4491.982 8244.101 5316.157 6124.429 773.719 8262.844 6675.198 2088.152 4115.761 5012.006 3887.801 4825.701 6787.566 4313.081 11630.435 4424.509 5430.878 4389.268 10365.769 8582.411 7758.819 4141.090 1538.402 5148.849 4969.310 6661.875 3373.679 3481.333 3811.998 10201.528 6631.649 8728.434 4826.643
2400.050 5119.028 3505.479 1699.847 8821.029 3936.934 3298.435 2814.235 3749.748 7244.338 4162.721 7436.606 2779.290 6539.624 3864.340 4318.261 6026.111 9065.674 4658.054 9557.222 2569.741 5555.935 5549.853 4341.616 7954.648 9159.772 5390.582 3129.486 1708.860 295.677 3689.877 4497.109 4299.813 4777.935 4362.750 5410.237 3977.259 4917.419 4911.549 2740.678 6838.702 3552.137 956.701 4533.895 4597.424 5436.143 3101.672 7028.558 3042.807 0.000 4933.667 5309.163 2650.664 3345.622 2091.446 2006.753 5062.672 5076.016 10741.334 1845.418 5496.890 3816.331 3938.647 4853.071 3496.363 4743.938 2453.807 2699.742 3668.518 7685.796 3611.072 4295.321 2389.772 5811.597 4223.951 4771.055 3797.557 3644.229 1962.765 4585.625 5550.365 3328.762 9801.327 5777.918 5190.802 6202.975 8536.661 7569.071 10199.127 5472.966 3825.628 6010.535 3601.534 6282.146 1805.435 3139.505 2988.534 8863.145 4802.541 9724.076 2933.388
4391.813 8386.476 5268.572 5182.218 12088.477 7204.383 4507.894 5513.301 1907.846 5069.288 8561.849 5422.371 5478.355 4344.701 7131.788 4121.155 5321.117 4981.431 7925.502 5472.978 4790.132 3635.872 5874.027 6690.022 5970.415 5075.529 9789.709 4596.392 5358.662 4707.655 5684.819 7764.558 6314.292 3289.093 8761.877 6194.268 6036.213 1915.804 848.471 4261.471 7712.185 5543.901 5283.704 1114.663 5284.599 7653.974 4128.962 8381.918 2225.636 4796.813 0.000 6483.945 4642.428 6219.007 5745.401 5802.909 4725.118 7850.983 13060.347 5163.032 8764.338 6438.261 4541.354 3245.284 3774.388 4406.383 2785.634 3711.748 5554.428 9026.996 6484.457 7613.672 2721.599 10210.724 8623.079 897.453 5096.392 5992.636 5758.920 5620.756 7768.196 5758.236 13068.775 3644.304 6014.960 3827.960 11804.109 9377.466 6114.884 3595.559 1983.726 5759.058 5949.941 7243.474 5307.695 4926.488 4980.297 11182.159 8069.990 8591.720 6697.763
4058.242 5496.297 3156.417 4862.569 8567.664 4385.743 3073.244 3874.262 6053.082 4998.085 8300.641 11709.029 4003.431 4724.085 4421.491 9228.527 11048.068 9346.968 4172.398 9815.044 4577.121 4500.364 1814.615 3378.616 12333.664 9960.871 8982.414 3045.910 4816.864 6099.701 3639.991 4133.188 1838.316 3894.464 8239.597 1438.834 2412.608 5303.432 7494.226 3667.580 1826.224 3499.073 7112.996 6437.737 2098.766 3418.296 8392.699 2244.407 6895.250 6275.576 7029.642 0.000 3867.399 4282.905 5203.604 7935.791 3434.903 3615.305 7093.475 4950.021 4350.633 3855.276 9179.525 3996.360 3538.156 3149.033 6662.553 4126.769 3272.481 2892.136 4548.355 5541.703 6598.519 9258.215 8400.066 6518.444 3011.053 3030.333 7806.171 1794.254 3283.288 9264.509 8090.201 10001.551 1615.705 5568.186 7293.010 3406.409 11000.226 4417.395 6128.961 11166.449 2984.281 1269.668 7741.182 8885.215 4021.021 5423.285 4951.045 14584.136 8604.660
543.464 4484.596 892.525 1989.129 8186.597 2995.834 1541.408 1235.976 3421.371 5737.656 5578.650 8965.062 1201.031 5219.807 3031.582 6068.416 7776.266 8414.811 3825.296 8906.358 1062.343 4236.118 3352.740 2313.976 9589.697 8508.909 6573.148 1372.459 1943.423 2558.830 1065.123 3664.351 2081.029 3458.118 5778.679 3213.125 1758.474 4266.555 4908.259 1235.807 4619.917 924.205 3572.124 4127.137 2587.131 3376.235 4851.828 4809.773 4081.711 2734.705 4676.193 3090.378 0.000 2491.218 2330.163 4622.177 3555.990 3527.221 8782.608 1435.243 4642.518 1816.643 5688.802 3560.014 1994.655 3237.256 3848.611 1380.874 1040.586 5467.011 2756.667 3885.883 3784.576 6890.189 5639.880 4364.297 1357.455 1616.589 4578.188 2388.513 3490.457 5723.638 9013.834 7257.583 2993.690 4917.164 7749.168 5350.286 9548.264 4153.149 3497.251 7760.691 1573.894 4063.362 4200.311 5344.344 729.491 6904.420 4168.110 11474.232 5391.480
1898.209 2198.012 2736.370 1910.344 5900.014 1015.919 3350.550 1384.437 5101.627 7424.824 4397.402 10301.213 1563.131 6906.974 943.325 7182.868 8890.718 10095.066 1737.039 10586.614 1890.508 5923.286 4656.757 1564.961 10819.255 10189.164 5079.176 3181.601 1864.638 3228.343 2473.718 1576.094 2789.043 5145.286 4336.359 4280.976 2761.100 5946.811 6588.514 2922.975 5260.747 2768.050 4092.451 5807.392 4430.975 2158.796 5966.280 5300.225 5577.816 3502.917 6356.448 3731.207 2059.401 0.000 1709.553 4769.918 5243.158 2155.001 7565.169 2263.409 2575.874 2600.172 6803.254 5247.182 3681.822 4924.424 5029.142 3061.129 2500.410 5957.463 265.450 1865.210 4965.107 5354.976 4474.446 6044.552 3201.299 2428.070 4640.298 3784.459 2273.018 6491.850 6880.312 8628.361 4409.795 6604.332 5615.646 4762.964 11228.519 5840.316 5177.506 8875.142 2385.375 4704.191 4968.523 6302.593 1854.335 5686.981 1881.526 12588.683 5438.787
2258.940 3027.582 3097.101 1177.338 6729.583 1845.488 3711.281 1958.807 4890.462 7785.555 3624.837 9568.207 1923.862 7267.705 1772.894 6449.862 8157.712 10197.547 2566.608 10689.095 1729.394 6284.017 5379.284 2942.417 10086.250 10291.645 4477.196 3542.332 1071.796 2439.964 2834.449 2405.663 3444.385 5506.017 3734.379 5003.503 3121.831 6049.292 6365.973 3283.706 5983.274 3128.781 3304.071 5682.505 4791.706 3344.697 5233.274 6173.130 4879.096 2714.538 6133.907 4453.734 2420.132 1407.796 0.000 3981.539 5603.889 2984.570 8649.888 1753.164 3405.444 2960.903 6070.248 5607.913 4042.553 5285.155 4296.137 3421.640 2861.141 6830.368 1648.388 2203.875 4232.102 4794.237 3686.067 5919.666 3562.030 2788.801 3851.918 4484.934 3458.919 5703.471 7709.881 7895.355 5132.322 6965.063 6445.215 5948.865 11331.000 6201.047 4966.341 8142.137 2746.106 5426.718 4180.144 5514.214 2215.066 6771.699 2711.095 11855.678 4650.408
4187.463 5127.276 5025.623 3002.846 9065.188 4864.464 5161.393 3898.953 5537.123 9107.297 3154.915 7453.743 3864.007 8402.582 4791.870 4433.278 5602.291 10718.643 5585.584 11210.191 3654.459 7418.894 7319.429 5426.333 7823.160 10812.742 4382.775 4992.445 2785.841 2158.636 4774.595 5424.639 5384.531 6640.894 3431.235 6943.648 5061.977 6570.388 6031.358 4603.637 7923.420 5057.303 1582.753 5944.269 6460.382 6363.673 3529.438 8113.276 4441.125 2202.788 6069.976 6393.880 4348.655 4422.602 3167.050 0.000 6925.631 6003.546 11668.864 3520.247 6424.419 4901.048 4001.584 6716.029 5359.322 6606.896 3852.124 4562.701 4801.286 8770.514 4667.363 4435.272 3788.089 4995.815 2980.240 6181.429 5490.553 4728.947 426.192 6425.080 6477.895 2480.386 10045.486 5885.915 7053.761 8065.933 8780.819 8653.788 11852.096 7335.924 5613.003 5478.506 4686.252 7366.864 1481.677 2764.158 4143.588 9790.675 5405.960 9192.236 1224.681
3566.419 7029.049 3108.081 4915.612 10370.425 5659.255 2254.466 4447.701 3194.880 2885.652 8494.575 8934.420 4412.756 2517.871 5695.003 6813.087 8624.481 6400.753 5705.150 6868.829 4085.299 1554.150 1852.896 4529.531 9559.055 7014.656 9596.103 2407.353 4966.379 4442.874 3576.567 5627.708 3024.701 948.249 8694.604 2173.137 3707.854 2357.217 4636.024 2341.735 3778.899 3435.650 5453.165 3579.535 1276.171 5072.616 6279.373 4598.325 4251.934 4615.746 4083.427 2978.339 3261.740 5347.234 5353.118 6503.218 0.000 5269.624 9447.393 4458.199 6338.899 4657.089 6764.085 1050.145 1663.097 385.252 4247.114 2300.596 3393.936 5038.355 5612.684 6815.215 4183.079 9913.144 8555.805 3572.229 2842.963 3832.145 6459.229 2431.133 5186.838 7604.679 10444.119 7226.941 2026.319 2621.972 9558.913 5760.326 8054.011 1471.180 3270.759 8751.009 3789.449 3222.343 6081.352 6922.197 3941.216 7777.202 6483.797 11940.820 7429.852
3705.872 2387.159 3305.536 3989.465 5617.301 1664.737 3711.461 3104.327 6730.023 7517.346 5637.461 12326.790 3355.186 7243.346 1700.485 9261.989 10969.839 11087.401 1063.260 11555.477 3969.629 6459.181 4333.876 2164.487 12898.376 11345.709 6319.235 3655.251 3943.759 5307.464 3087.742 1024.050 2466.162 5681.181 5576.418 3958.095 2575.936 6678.138 8171.167 4049.384 4908.663 3648.192 6171.572 7114.678 4276.620 613.399 8045.400 4201.526 7513.010 5582.038 7939.100 3408.327 3593.872 2153.268 3788.674 6502.737 5607.290 0.000 6000.528 4342.530 1400.270 3085.341 8882.375 5783.077 4215.097 5321.419 7108.263 4742.602 2937.642 4858.764 2145.037 2582.288 7044.228 6564.117 5736.886 7351.838 3194.422 2469.706 6373.117 3461.578 727.621 8427.311 5884.950 10619.311 4086.915 7322.277 4620.284 3217.567 12385.064 6376.211 6805.902 10954.263 2649.441 4352.107 6786.527 8381.714 3460.394 4122.340 1841.907 14667.804 7171.606
8084.522 6649.847 7524.770 8471.284 5070.896 6863.493 7901.122 7482.977 10919.683 10594.200 10075.976 16536.907 7733.836 10582.068 6890.231 13743.808 15451.659 15236.555 5900.282 15704.631 8451.449 10389.951 7704.202 6628.895 17161.542 15535.370 9817.053 7844.912 8425.579 9811.051 7466.392 5861.072 6640.141 9784.050 9818.385 7328.421 6765.597 10867.799 12360.827 8428.034 7315.399 7867.426 10761.231 11304.339 7988.353 5663.683 12527.220 6085.194 11723.127 10085.625 12128.761 6466.581 7972.522 7281.804 8812.319 11339.759 9324.490 5986.423 0.000 8824.349 5332.579 7463.992 13364.194 9885.947 8404.758 9038.619 11490.431 8954.646 7214.838 6091.500 7343.793 7419.310 11426.396 9849.567 10470.285 11541.499 7384.082 6848.356 11210.139 7635.557 5374.177 13074.558 3098.082 14829.428 7505.292 11457.773 4450.892 3372.204 16574.724 10306.982 10995.563 15436.083 6926.638 7099.357 11551.231 12885.301 7839.044 1499.062 6290.838 19149.624 12008.628
1835.708 4240.418 2941.138 649.654 7942.419 3058.324 2768.547 1931.472 3909.833 6842.821 4264.593 8345.614 1896.526 6324.971 2985.730 5227.269 6935.119 9216.919 3779.444 9708.467 1686.978 5341.283 5019.965 3458.852 8863.657 9311.017 5455.821 2599.598 826.097 1306.326 2807.114 3618.499 3417.050 4563.282 4464.621 4880.349 3094.496 5068.664 5385.345 2340.972 5955.939 2987.796 2256.506 4701.877 4067.536 4557.533 4010.681 6145.795 3656.503 1580.900 5153.278 4426.399 2086.323 2462.858 1212.836 3306.558 4661.155 4197.407 9862.724 0.000 4618.280 2933.567 4847.655 4665.179 3099.819 4342.420 3073.544 2441.011 2833.805 6803.032 2728.308 3416.711 3009.509 5772.862 4325.823 4939.037 3267.669 2761.466 3178.671 4055.737 4671.755 4569.833 8922.717 6672.762 4660.914 6022.329 7658.051 6686.307 10350.372 5258.313 3985.713 6919.544 2718.771 5399.383 3046.506 4380.576 2176.107 7984.536 3923.931 10633.085 3977.161
4269.178 2109.985 4147.213 4281.313 4827.234 1840.753 4553.138 3755.407 7472.596 8378.225 5451.743 12672.182 3934.100 8104.225 1867.491 9553.837 11261.687 11929.078 877.542 12397.154 4261.478 7300.857 5194.755 2841.325 13190.224 12187.386 6133.516 4496.928 4235.608 5599.313 3929.418 838.332 3327.041 6522.857 5390.699 4818.974 3417.613 7519.815 8959.484 4891.060 5561.334 4489.869 6161.893 7956.355 5137.499 1474.278 8337.249 4854.198 7948.785 5873.887 8727.417 4269.205 4430.370 2370.969 4080.522 6317.019 6468.168 1253.497 5854.647 4634.378 0.000 3927.018 9174.223 6624.753 5056.774 6182.298 7400.111 5432.099 3779.318 5511.436 2321.053 2396.569 7336.077 6378.398 5551.168 8193.515 4036.098 3311.382 6187.398 4322.457 1588.500 8241.593 5094.884 10999.330 4947.793 8163.954 3830.217 3425.993 13226.741 7217.888 7548.475 11229.657 3491.118 5004.779 6600.809 8315.338 4225.304 3976.459 1564.733 14943.388 6985.888
1755.475 2667.953 2493.224 1767.609 6369.955 1179.191 3207.816 913.714 4958.892 7282.090 4741.740 10158.478 1164.574 6764.240 1214.939 7040.133 8747.984 9952.331 2008.653 10443.879 1747.774 5780.551 4303.877 1212.082 10676.521 10046.429 5594.100 3038.867 1721.904 3107.376 2185.078 1847.708 2436.164 5002.551 4851.283 3928.096 2413.267 5804.076 6445.780 2780.241 4907.868 2524.904 4057.556 5664.658 4187.829 1952.192 5823.545 4947.345 5435.082 3381.950 6213.714 3378.328 1916.667 760.377 2038.077 4840.831 5100.424 2036.437 7358.565 2120.674 2847.488 0.000 6660.519 5104.447 3539.088 4781.689 4886.408 2918.395 2211.770 5604.583 1025.827 2335.151 4822.373 5911.141 4802.971 5901.818 2958.153 2139.430 4711.211 3431.580 2066.414 6370.883 7197.192 8485.626 4056.916 6461.598 5932.526 4556.359 11085.784 5697.582 5034.772 8732.408 2096.735 4351.312 4847.556 6181.626 1711.600 5480.376 2351.467 12445.949 5509.700
5563.263 8317.792 6668.693 4863.061 12019.794 7135.699 6400.820 6013.000 4810.552 8876.142 6772.111 4213.542 5978.055 8151.555 7063.105 1366.882 2529.401 9162.045 7856.819 9653.593 5768.506 7408.458 8663.484 7540.380 4731.182 9256.143 7459.432 6292.699 4907.625 3494.442 6856.268 7695.874 7498.578 6783.239 7137.153 8523.869 7176.024 5722.658 4296.404 5903.891 10037.467 6715.351 3799.449 4769.033 7711.055 8634.908 1419.305 10227.323 3546.901 3312.557 4694.734 8507.927 5813.878 6544.386 5290.211 3954.280 7770.450 8274.781 13940.099 5008.631 8695.654 7015.095 0.000 6739.430 6015.752 7451.716 3106.877 5604.674 6831.731 10884.561 6809.836 7494.086 3042.842 8391.175 6525.891 4878.176 6960.770 6842.994 3910.292 7699.257 8749.130 2047.399 13000.091 2569.107 8304.434 7634.815 11735.425 10767.835 10295.498 7284.520 4886.432 2405.615 6800.299 9480.911 3501.052 1465.911 6151.747 12061.910 8001.306 6119.346 3739.202
3633.435 7345.030 3305.094 4852.102 10912.708 5856.268 2544.416 4564.732 2590.380 2864.128 8431.065 8329.921 4529.787 2056.937 5892.016 6208.588 8019.982 5468.590 6247.433 5936.666 4152.315 900.277 2831.588 4726.544 8878.079 6205.335 9658.269 2632.914 5028.545 4379.364 3773.580 6169.991 3953.316 111.752 8631.094 3151.829 4072.735 1548.176 3911.028 2408.751 4757.591 3632.663 5389.655 2825.696 2254.863 5690.496 5674.874 5577.017 3647.435 4552.236 3274.386 3957.031 3328.757 5544.247 5415.284 6334.323 1682.679 5887.505 10426.085 4525.215 6956.779 4854.102 6159.586 0.000 1730.113 1363.944 3642.614 2237.086 3590.949 6017.048 5809.697 6975.855 3578.580 9975.310 8492.295 2763.188 3132.913 4029.158 6290.334 3248.860 5804.718 7187.168 11364.880 6622.442 3005.011 1622.801 10171.306 6739.018 7244.690 776.339 2666.260 8146.510 3986.463 4201.035 5776.213 6355.420 4058.248 8755.894 7026.080 11336.320 7229.177
2013.890 5725.484 1685.548 3459.554 9293.162 4236.722 924.870 2945.187 2949.591 4171.637 7049.076 8678.169 2910.241 3662.437 4272.470 6197.667 8017.208 7306.969 4627.887 7775.045 2532.769 2678.749 2897.512 3106.998 9302.804 7565.277 8043.573 1013.368 3413.849 3378.846 2154.034 4550.445 2626.820 1900.748 7249.105 2757.896 2453.189 2897.706 4390.734 789.205 4326.014 2013.117 4392.141 3334.246 1945.083 4070.950 5663.952 4694.447 3864.390 3554.721 4158.668 2796.474 1709.211 3924.701 3800.589 5442.193 1989.971 4267.959 9377.061 2905.669 5337.233 3234.556 6148.665 2002.645 0.000 1671.237 3631.693 1095.909 1971.404 5351.685 4190.151 5356.309 3567.659 8360.615 7110.306 3571.406 1513.368 2409.612 5398.204 1933.284 4185.172 6543.654 9745.334 6970.691 2538.461 3541.845 8551.760 5689.994 8604.632 2595.779 3025.470 8135.589 2366.917 3769.458 5020.327 6164.360 2438.702 7599.135 5406.534 11553.276 6368.828
3614.448 6962.305 3124.472 5060.112 10303.681 5614.246 2270.858 4464.093 3595.777 2851.155 8649.634 9335.317 4429.147 2527.934 5649.994 7213.985 9025.379 6801.650 5638.406 7269.727 4133.327 1900.984 1786.152 4545.923 9959.952 7415.554 9644.132 2423.745 5014.407 4843.772 3592.959 5560.964 2957.957 1349.146 8849.663 2106.393 3641.110 2758.114 5036.921 2452.752 3712.155 3452.041 5854.062 3980.432 1209.427 5005.872 6680.270 4531.581 4652.831 5016.643 4484.324 2911.595 3309.769 5363.626 5401.147 6904.115 669.489 5202.881 9380.649 4506.227 6272.155 4673.480 7164.982 1451.043 2063.994 0.000 4648.011 2701.494 3410.328 4971.611 5629.076 6770.206 4583.976 9961.173 8710.864 3973.126 2801.859 3848.536 6860.126 2364.389 5120.094 8005.576 10377.375 7627.839 1959.575 2968.806 9492.170 5693.582 8454.909 1818.015 3671.657 9151.907 3805.841 3155.599 6482.249 7323.094 3957.608 7710.458 6417.053 12341.717 7830.750
3328.446 7053.068 4412.566 3462.304 10755.070 5870.975 3651.889 4449.933 2140.864 6330.747 6304.440 6071.077 4414.988 5606.160 5798.381 3024.972 4844.514 7325.518 6592.095 7817.066 3726.765 4659.527 5914.553 5834.017 6695.712 7419.616 7532.301 3740.387 3638.747 2666.527 4621.451 6431.150 5502.762 4034.308 6504.469 5774.938 5180.208 3177.263 2916.742 3405.465 7343.055 4480.534 3026.296 2551.143 4962.124 6797.968 2491.258 7711.488 1047.999 2539.405 2950.916 5813.515 3579.061 5155.639 4025.487 3622.262 5021.519 6994.977 12204.342 3527.904 7430.930 5374.894 2975.970 3990.498 3266.821 4702.785 0.000 2855.743 4596.914 8368.726 5421.089 6229.362 394.964 7953.316 6365.671 2788.303 4240.386 5136.630 3578.273 4950.326 6912.190 4003.553 11735.367 4363.598 5555.503 5089.420 10470.701 8707.036 8458.971 4535.589 2216.744 4962.894 5093.935 6786.499 3064.151 3171.805 3916.930 10326.153 6736.582 8542.479 4517.115
2093.560 5916.682 1876.745 3460.602 9528.828 4427.920 1211.953 3024.857 2412.233 5055.208 7039.565 7955.924 2989.911 4304.893 4463.668 5475.421 7294.963 7405.672 4863.553 7897.220 2612.439 3321.205 3474.991 3298.196 8580.559 7499.770 8123.244 1206.619 3493.519 2987.865 2345.232 4786.110 3062.826 2543.204 7239.594 3335.376 2740.272 3257.417 3899.121 850.451 4903.493 2204.314 3998.156 3117.998 2522.562 4358.032 4941.707 5271.926 3142.144 3160.736 3667.054 3373.953 1788.881 4041.313 3880.259 5048.208 2873.542 4511.441 9764.406 2985.339 5624.316 3425.753 5426.419 2645.101 1079.741 2554.808 2909.448 0.000 2162.601 5929.164 4306.763 5435.979 2845.413 8440.285 7100.795 3355.159 1800.450 2600.810 5004.219 2510.764 4472.254 6149.669 10032.417 6248.445 3115.941 4002.251 8787.425 6267.474 8539.125 3238.235 2488.113 7413.343 2558.114 4346.937 4626.342 5467.187 2518.372 7886.217 5600.195 10831.030 5974.843
1770.465 4061.895 1359.422 2578.259 7674.041 2573.133 2195.845 1542.343 4847.693 6368.561 6167.781 10391.383 1507.398 5927.253 2608.881 7571.253 9279.103 9560.458 3008.766 10028.534 2289.344 4943.565 3336.505 1443.409 11016.018 9818.765 7162.278 2139.635 2532.554 3918.026 1152.335 2931.323 1401.607 4165.565 6367.810 2960.724 1079.052 5151.195 6334.580 2113.977 3940.495 1702.078 4868.206 5553.458 3067.712 2571.330 6354.665 4130.351 5577.604 4192.600 6102.514 2410.956 1658.466 2261.112 2919.294 5651.481 4186.895 2656.654 7977.703 2662.245 3837.613 1570.966 7191.639 4267.461 2699.481 3901.025 5344.907 2807.195 0.000 4787.589 2526.562 3729.093 5280.872 7445.605 6229.011 5790.618 1678.806 746.023 5521.861 2442.155 2685.552 7181.533 8197.304 8683.904 3089.544 5795.334 6932.638 4670.864 10858.120 4860.595 4923.572 9263.528 703.327 3383.940 5658.206 6847.181 1524.987 6099.514 3745.408 12977.069 6320.350
6189.927 7121.756 5476.592 6785.997 9066.207 6242.678 5446.270 5797.690 8426.108 5936.902 10224.069 14082.055 5926.859 5924.769 6278.426 11601.553 13421.094 11406.052 5797.857 11874.128 6708.806 6608.153 4187.641 5302.044 14706.690 12171.988 10905.842 5418.936 6740.292 8125.764 5571.796 5758.647 3813.481 6267.490 10163.025 3811.860 4336.035 7676.458 9867.252 6040.606 2319.335 5819.248 9075.944 8810.763 4471.792 5043.755 10765.725 1781.100 9268.276 8400.338 9402.668 2950.020 6077.927 6206.333 7127.031 9859.219 5807.929 5240.764 6381.265 7081.706 5811.561 5778.704 11552.551 6369.386 5911.182 5522.059 9035.579 6499.795 5195.909 0.000 6471.783 7316.885 8971.545 11181.643 10323.494 8891.470 5335.905 4953.761 9729.599 4167.280 4744.215 11389.271 7996.289 12374.577 3988.731 7040.673 7709.834 3588.053 13204.354 6525.184 8501.987 13539.475 4907.709 2664.505 9865.944 11200.014 5944.449 5119.861 6576.504 16957.162 10528.088
2877.788 2291.641 3533.706 2889.923 5993.643 802.879 3939.632 2364.016 6081.205 7878.187 4717.777 11280.792 2542.710 7604.187 838.627 8162.446 9870.297 11074.645 1632.341 11566.192 2870.087 6687.351 4694.717 1727.361 11798.834 11168.743 5399.551 3883.421 2844.217 4207.922 3315.912 1471.396 2827.003 5909.351 4656.734 4318.936 2804.107 6906.309 7568.093 3902.554 5298.707 3747.629 5072.030 6786.971 4637.461 2112.226 6945.858 5338.185 6557.395 4482.496 7336.027 3769.167 3038.980 979.579 2689.132 5583.005 5930.682 1941.962 7518.599 3242.987 2471.177 3313.512 7782.833 6011.247 4443.267 5644.811 6008.721 4040.708 3165.812 5995.423 0.000 1958.839 5944.686 5675.351 4817.202 7024.131 3422.592 2697.876 5453.385 3822.419 2226.448 7471.429 6820.880 9607.940 4447.755 7550.448 5556.214 4716.394 12208.098 6604.382 6157.085 9854.721 2877.612 4742.151 5866.795 7282.172 2833.914 5640.410 1975.155 13568.262 6251.874
3422.732 1339.517 4260.893 2990.603 5277.428 1331.848 4815.223 2908.960 6626.149 8753.779 3761.111 11339.247 3087.654 8431.497 1213.083 8220.901 9664.645 11619.589 1659.059 12111.136 3409.832 7447.809 5570.309 2645.960 11857.289 11713.687 4442.885 4706.124 2885.060 4136.423 3998.241 1475.939 3702.595 6669.809 3700.068 5194.528 3679.698 7471.333 8113.037 4447.498 6174.299 4292.573 4473.095 7331.915 5513.053 2762.284 7004.313 6090.193 6692.361 4410.997 7880.971 4644.759 3583.924 1524.523 2617.633 4628.221 6767.681 2148.885 7742.339 3566.428 2497.895 4124.695 7841.288 6771.705 5206.345 6448.947 6109.401 4585.652 4024.932 6747.431 1474.606 0.000 6045.366 4687.767 3860.537 7569.075 4298.184 3573.468 4498.601 4698.011 2876.506 6552.795 6257.726 9680.559 5323.347 8128.855 4993.060 5304.313 12753.042 7364.839 6702.029 9540.859 3753.204 5617.743 4912.011 6626.540 3378.858 5864.151 1429.532 13254.590 5297.090
3392.481 7117.103 4476.601 3526.339 10819.104 5935.010 3715.924 4513.968 1782.091 5950.165 6368.475 6135.112 4479.023 5225.577 5862.416 3089.007 4908.548 6944.935 6656.129 7436.483 3790.800 4516.749 5978.588 5898.051 6759.747 7039.033 7596.336 3804.421 3702.782 2730.562 4685.486 6495.185 5566.797 3984.683 6568.504 5838.972 5244.242 2796.680 2682.318 3469.500 7407.090 4544.568 3090.331 2170.561 5026.159 6862.003 2555.293 7775.523 671.284 2603.440 2570.333 5877.550 3643.095 5219.674 4089.521 3686.297 5085.554 7059.012 12268.376 3591.939 7494.965 5438.929 3040.005 3940.873 3330.856 4766.820 64.035 2919.778 4660.949 8432.761 5485.124 6293.397 0.000 8017.351 6429.705 2407.721 4304.421 5200.665 3642.308 5014.361 6976.225 4067.588 11799.402 4427.633 5619.538 4708.837 10534.736 8771.071 8078.388 4460.660 1857.971 5026.929 5157.970 6850.534 3128.186 3235.839 3980.965 10390.188 6800.617 8606.514 4581.150
6939.271 4793.915 7777.432 5857.669 6509.919 5377.932 8391.612 6565.946 9484.435 12465.886 2060.428 11581.626 6604.193 11948.037 5259.168 8952.198 9730.174 14773.333 5950.771 15264.881 6409.725 10964.348 9616.393 6692.045 11951.043 14867.431 1267.193 8222.663 5567.355 5918.088 7514.780 5767.650 7748.680 10186.348 1908.575 9240.612 7725.783 10625.078 10364.557 7964.037 10220.384 7809.112 5791.311 9998.958 9472.037 6877.141 8244.933 10150.893 8495.814 6192.662 10398.731 8690.844 7100.463 5372.874 5082.610 5740.623 10284.220 6440.596 10133.714 6433.495 6508.265 7641.234 8353.914 10288.244 8722.884 9965.486 7906.814 8101.971 7541.472 10808.131 5510.081 4291.711 7842.779 0.000 2600.633 10236.118 8242.361 7469.133 5611.003 8744.096 6991.363 6608.269 7701.192 10013.798 9369.432 11645.394 6444.518 9011.182 15906.786 10881.378 9560.314 9606.388 7426.437 9663.828 6024.413 7670.797 6895.397 8580.145 5120.049 13320.119 5527.584
5574.403 4683.701 6412.563 4401.073 7411.034 4621.594 6972.909 5274.270 7895.624 11047.184 682.095 9705.961 5239.325 10529.334 4502.830 7076.533 7854.509 13184.522 5296.544 13676.070 5044.857 9545.645 8694.747 5935.707 10075.378 13278.620 1683.362 6803.961 4098.876 4329.277 6149.912 5135.599 6759.848 8767.645 1582.683 8318.966 6437.294 9036.267 8775.746 6545.334 9298.737 6444.243 4202.501 8410.148 8107.169 6120.803 6582.887 9394.555 6907.003 4603.851 8809.920 7769.197 5735.595 4616.536 3614.131 4084.591 8865.518 5760.676 11034.829 4976.898 6135.379 6276.366 6478.249 8869.541 7304.182 8546.783 6318.003 6645.374 6176.603 10051.793 4753.743 4008.651 6253.968 2615.105 0.000 8647.308 6877.493 6104.264 3954.971 7800.397 6235.025 4732.604 8602.307 8138.133 8447.785 10226.692 7345.634 8724.971 14317.975 9462.676 7971.504 7730.723 6061.569 8742.181 4368.381 5817.606 5530.529 9481.261 4979.338 11444.454 3651.919
4276.354 8271.017 4661.210 5192.769 11973.018 7088.923 3900.533 5397.841 1647.505 4173.869 8731.150 6296.211 5362.896 3449.282 7016.329 4667.469 6166.950 5126.187 7603.550 5617.735 4674.673 2740.453 4978.608 6082.661 6844.255 5220.286 9959.011 3989.031 5369.212 4720.032 5129.697 7526.107 5418.873 2393.674 8931.179 5298.849 5428.852 1020.384 1722.310 3713.025 6816.765 4988.779 5453.006 945.606 4389.180 7046.612 4675.276 7486.499 2394.937 4892.903 1178.036 5588.526 4526.969 6103.548 5755.952 6048.972 3829.698 7243.621 12169.113 5047.573 8312.896 6210.218 5087.668 2349.864 3086.229 3510.964 2954.935 3163.303 4947.066 8131.577 6368.998 7498.213 2890.901 10315.978 8792.380 0.000 4489.030 5385.274 6004.983 4725.337 7160.834 6266.441 12720.997 4518.144 5119.540 2932.541 11527.422 8482.046 6259.641 2700.140 1723.384 6604.891 5342.579 6348.055 5490.861 5434.693 4864.838 10498.923 7954.530 9465.560 6943.825
2352.257 5169.975 1450.432 3797.922 8511.351 3764.843 977.935 2829.875 3996.497 4879.294 7387.443 9613.720 2794.930 4507.428 3800.590 7133.218 8952.759 8198.243 3846.076 8666.320 2871.136 3523.739 2179.617 2730.941 10238.355 8612.183 8361.514 921.725 3752.216 4004.392 1934.006 3768.634 1669.110 2745.739 7587.472 2040.002 1671.378 3944.612 5437.641 1572.271 3434.371 1793.088 5017.687 4381.152 1578.444 3289.139 6297.390 3802.804 4799.941 4180.267 5205.575 1904.831 2161.414 3548.644 4138.956 6067.739 2697.628 3486.148 8485.418 3244.036 4555.422 2858.499 7084.216 2847.635 1481.571 2411.757 4567.244 2031.460 1595.346 4460.042 3814.094 4920.803 4503.210 8637.314 7448.674 4618.312 0.000 2033.555 6023.750 1215.390 3403.361 7169.200 8963.523 7906.242 1820.567 4433.120 7769.949 4798.351 9651.538 3440.770 4072.377 9071.140 1990.859 2877.815 5645.873 6789.906 2519.706 6815.228 4624.723 12488.827 6994.374
1369.203 3492.897 1286.681 1832.237 7194.899 2004.135 2018.315 843.929 4446.430 6214.564 5421.758 9990.121 1051.307 5696.714 2039.883 7104.761 8812.611 9159.195 2833.597 9627.272 1812.401 4713.025 3295.907 1402.811 10614.756 9417.503 6416.256 1849.367 1786.531 3172.003 751.072 2672.652 1361.009 3935.025 5621.787 2920.126 1038.454 4749.932 5933.318 1712.714 3899.897 1318.361 4122.184 5152.196 2981.286 2530.732 5888.173 4089.754 5176.341 3446.577 5701.252 2370.358 1257.203 1585.321 2173.271 4905.459 4032.898 2616.056 7937.105 2185.302 3672.432 824.944 6725.147 4036.921 2471.562 3714.163 4943.645 2405.933 777.764 4746.991 1850.771 3160.095 4879.610 6733.297 5482.989 5389.356 1638.208 0.000 4775.838 2401.558 2644.954 6435.510 8022.136 8282.642 3048.946 5394.072 6757.470 4630.266 10456.858 4630.056 4522.310 8797.035 662.729 3343.342 4912.183 6246.253 1099.479 6058.916 3176.411 12510.576 5574.328
4279.688 5479.578 5373.646 3350.869 9417.489 5216.766 5178.073 4246.976 5136.124 9123.977 3502.466 7125.431 4212.031 8419.263 5144.171 4007.086 5376.070 10317.644 5937.885 10809.192 4002.482 7435.574 7429.491 5774.356 7596.940 10411.742 4730.326 5009.125 3133.864 2210.867 5122.618 5776.940 5732.554 6657.574 3778.786 7289.876 5410.000 6169.389 5630.359 4620.317 8271.443 5405.326 1559.145 5543.270 6477.062 6715.975 3103.247 8461.299 4040.125 2028.983 5668.977 6741.903 4530.303 4770.625 3515.073 364.763 6942.311 6355.848 12021.165 3725.057 6776.721 5249.071 3575.392 6732.710 5376.002 6623.576 3451.125 4579.381 5149.309 9118.537 5019.665 4787.574 3387.090 5343.367 3327.791 5780.430 5677.196 5076.970 0.000 6465.264 6830.197 2248.718 10397.787 5466.744 7070.441 8019.533 9133.121 9001.811 11451.097 7352.605 5212.003 5252.285 5034.275 7714.887 1080.677 2337.966 4491.611 10142.977 5758.261 8966.016 1190.510
2688.255 5343.653 1786.430 4133.920 8685.029 3995.593 1278.990 3165.873 4258.827 4559.289 7723.441 9914.775 3130.928 4236.067 4031.341 7434.272 9253.814 8014.488 4019.754 8482.565 3207.134 3339.985 1418.811 2988.466 10539.410 8628.392 8592.265 1251.655 4088.214 4305.447 2270.004 3942.311 1339.305 2561.984 7849.448 1279.196 2007.376 3970.952 5699.971 1873.326 3005.885 2129.086 5318.741 4643.483 1046.953 3387.219 6598.445 3406.931 5100.995 4481.322 5467.905 1508.958 2497.412 3884.642 4474.954 6368.794 2377.623 3584.228 8089.545 3580.034 4653.503 3194.497 7385.270 2663.881 1743.902 2091.752 4868.299 2332.514 1931.344 4064.169 4150.092 5151.553 4804.264 8868.065 7784.672 4880.643 1603.633 2369.553 6324.805 0.000 3501.441 7470.255 9061.603 8207.296 1059.761 4249.365 7873.517 4402.479 9667.747 3257.015 4334.707 9372.194 2326.857 2449.329 5946.928 7090.961 2855.704 6419.355 4798.401 12789.881 7295.428
3202.632 2820.186 2802.296 3589.395 6161.562 1941.108 3208.221 2601.087 6226.783 7014.107 5963.371 11823.550 2851.947 6740.107 1976.856 8861.919 10569.769 10584.162 1496.287 11052.238 3569.559 5955.941 3830.636 1720.328 12448.185 10842.469 6645.144 3152.011 3543.689 4929.161 2584.502 1457.077 1962.923 5177.941 5902.327 3454.855 2072.697 6174.899 7667.927 3546.144 4242.246 3144.952 5879.342 6611.438 3773.381 742.185 7645.331 3535.110 7009.771 5203.735 7435.861 2905.087 3090.633 2047.496 3657.543 6662.617 5104.050 939.194 6009.021 3942.460 2008.468 2582.102 8482.305 5279.837 3711.857 4818.179 6708.193 4239.363 2434.402 4192.348 2312.946 3015.314 6644.158 6920.945 6062.796 6848.598 2691.182 1966.466 6532.996 2958.339 0.000 8192.668 6277.032 10116.072 3583.675 6819.038 5228.483 3076.382 11881.824 5872.972 6302.663 10554.193 2146.202 3685.691 6669.341 8003.411 2957.154 4130.833 2274.934 14267.734 7331.486
5094.241 6992.939 6199.670 4394.038 10930.850 6666.677 5992.626 5543.977 5555.452 9723.525 4927.308 5493.101 5509.032 8998.938 6594.082 2787.522 3599.070 10653.074 7387.796 11144.622 5299.484 8135.329 8244.044 7071.358 5819.939 10747.172 5929.113 5823.677 4438.602 3025.419 6387.246 7226.851 7029.556 7472.126 5203.628 8104.428 6707.001 6570.041 5817.540 5434.869 9568.444 6246.328 2373.697 5930.456 7291.615 8165.886 2583.069 9758.301 4413.786 2843.535 5856.158 8038.905 5344.855 6075.364 4821.188 1940.417 7756.863 7805.759 13471.076 4539.609 8226.632 6546.073 2189.237 7466.300 6190.554 7438.129 3851.777 5393.933 6362.709 10415.538 6340.814 6300.935 3787.742 6768.208 4752.633 6039.600 6491.748 6373.972 1896.428 7279.816 8280.108 0.000 11911.148 3849.122 7884.993 8482.197 10646.482 10298.813 11786.527 8011.391 5631.332 3475.284 6331.276 9011.889 1895.230 1606.149 5682.725 11592.888 7271.622 7189.015 2143.355
9002.250 5282.434 8847.708 8811.648 2051.527 6573.825 9253.633 8488.478 12205.668 12831.803 8306.995 17160.292 8667.172 12765.282 6194.190 14041.947 15485.690 16629.573 5494.087 17097.649 8994.550 12001.352 9855.812 7669.126 17678.334 16887.880 7857.806 9197.423 8706.105 9957.469 8629.913 5666.133 8008.334 11223.352 8155.142 9480.031 8118.108 12220.310 13692.555 9591.555 9553.002 9190.363 10294.141 12656.850 9818.792 6155.571 12825.359 8322.797 12513.406 10232.043 13460.489 8618.191 9136.044 7104.041 8438.678 10449.266 11149.461 6081.298 3409.890 9367.450 5039.131 8627.513 13662.333 11325.248 9757.269 10863.591 11930.446 10165.171 8479.813 8329.103 7054.125 6281.327 11866.412 7961.752 8836.176 12894.010 8736.593 8011.877 10319.646 9003.750 6269.793 12373.840 0.000 15501.604 9629.086 12864.449 2047.879 5523.815 17927.235 11918.383 12281.547 15361.905 8191.613 9250.967 10733.056 12447.585 8958.376 3699.902 4923.425 19075.636 11118.136
6865.649 10384.220 7740.445 6793.456 14086.221 9202.127 6979.768 7987.136 4584.589 8196.113 8270.600 1898.282 7952.191 7471.525 9129.532 1467.573 1853.275 7746.975 9923.246 8238.523 7263.968 6762.697 9000.361 9161.896 2522.917 7841.073 8957.921 7068.266 6969.899 5573.074 8158.655 9762.301 8830.641 6415.426 8635.642 9073.535 8508.087 5042.628 2940.567 6733.344 10641.652 8017.737 5878.081 4089.003 8194.085 10125.847 3143.894 11010.086 3890.720 5391.190 3860.881 9112.113 7116.264 8606.660 7356.638 5486.305 7851.451 10322.856 15532.221 6939.026 10762.082 8912.097 2136.905 6371.617 6373.527 7532.717 4057.944 6183.622 8026.301 11667.323 8872.110 9560.514 3993.909 9889.664 8024.380 4198.146 7568.265 8464.509 5442.316 8248.923 10240.069 3545.888 15066.519 0.000 8854.100 6954.785 13801.853 12005.633 8874.277 6722.384 4660.468 2291.216 8421.814 10085.097 5441.117 3506.273 7454.133 13654.032 10067.733 5067.631 5237.692
3901.301 5944.815 2999.476 5073.582 9286.191 4596.756 2693.941 4085.274 5249.880 3542.521 8511.653 10989.420 4214.444 3268.521 4632.504 8849.223 10668.765 8455.753 4620.916 8923.829 4420.180 3475.930 359.050 3589.629 11614.055 9069.657 9193.427 2666.606 5027.877 5720.398 3483.050 4543.474 1940.467 3003.249 8450.610 401.822 2623.620 4412.217 6691.024 3288.277 2007.584 3342.132 6733.692 5634.535 1057.178 3988.382 8013.396 3038.288 6306.934 5896.273 6138.427 1894.105 3710.458 4493.918 5414.616 7783.745 2543.688 4185.390 8363.159 4793.080 5254.665 4066.289 8800.221 3105.145 3091.434 2257.818 6283.250 3747.465 3144.390 3360.786 4759.368 5752.716 6219.215 9469.228 8611.079 5627.229 2854.112 3241.345 7739.756 1637.313 4102.604 8885.206 9359.885 9281.941 0.000 4384.424 8474.680 4676.092 10109.011 3392.961 5325.760 10787.145 3195.294 1451.028 7361.879 8505.912 4068.750 6692.968 5399.563 13995.820 8710.379
5219.148 8930.743 4890.806 6296.222 12498.421 7441.981 4130.129 6150.445 3281.302 2074.339 9875.184 7927.287 6115.500 1349.751 7477.728 6592.660 8092.141 4392.623 7833.146 4860.699 5738.027 1019.793 4087.070 6312.257 8390.820 5158.559 11102.389 4218.627 6472.665 5823.484 5359.293 7755.703 5492.883 1719.984 10075.213 4407.312 5658.448 1579.108 3733.319 3994.464 5013.458 5218.375 6833.775 2772.912 3744.353 7276.209 6584.656 6703.859 4067.134 5996.355 3096.678 5446.521 4914.469 7129.960 6859.404 7662.498 2682.848 7473.217 11915.575 6110.928 8542.492 6439.814 7012.858 1622.107 3315.826 2853.434 4627.133 3757.105 5176.662 6897.234 7395.410 8561.567 4563.098 11419.430 9936.415 2585.480 4718.626 5614.870 7618.509 4842.555 7390.431 8102.460 12912.301 6529.152 4494.501 0.000 11757.018 8228.508 6190.926 1315.276 3357.182 8530.081 5572.175 5116.599 7104.387 7270.712 5643.960 10245.384 8611.793 11245.120 8557.351
7414.681 3694.864 7387.444 7224.078 1543.812 4986.255 7793.369 6900.909 10618.098 11674.851 7045.819 15572.722 7079.602 11400.851 4606.620 12454.377 13898.120 15169.309 3906.518 15637.385 7406.980 10541.089 8491.381 6081.556 16090.765 15427.617 6644.468 7737.159 7118.536 8369.899 7169.650 4078.563 6623.667 9763.089 6863.402 8115.600 6657.844 10760.046 12104.986 8131.292 8483.665 7730.100 8706.571 11196.586 8434.125 4803.946 11237.789 7253.460 10925.836 8644.473 11872.920 7492.147 7575.873 5516.472 6851.109 8861.697 9764.795 4493.729 4624.964 7779.880 3451.561 7167.249 12074.763 9864.985 8297.005 9478.924 10342.877 8577.601 7019.550 7259.766 5466.555 4693.757 10278.842 6700.576 7515.302 11433.746 7276.330 6551.614 8732.076 7619.083 4918.168 10786.271 1886.147 13914.035 8244.420 11404.185 0.000 4508.016 16466.972 10458.119 10693.978 13774.335 6731.349 8124.923 9145.487 10860.016 7370.806 3492.874 3335.855 17488.066 9530.566
5260.510 5132.982 4700.758 5647.273 6365.105 4354.978 5077.110 4658.965 8095.672 7905.648 8377.241 13712.895 4909.825 7631.648 4390.725 10919.797 12627.647 12254.531 3832.998 12722.607 5627.438 7407.927 4722.178 3804.883 14337.530 12711.358 9059.014 5020.900 5601.568 6987.039 4642.380 3793.788 3805.610 6802.027 8316.197 4346.397 3941.585 8043.787 9536.816 5604.022 4546.511 5043.414 7937.220 8480.327 5006.329 3156.055 9703.209 3316.306 8899.116 7261.613 9304.749 3484.557 5148.511 4457.792 5988.307 8720.495 6342.466 3353.064 4135.486 6000.338 3265.295 4639.980 10540.183 6903.923 5580.746 6056.595 8666.419 6130.635 4390.826 3483.119 4723.242 5352.026 8602.384 9154.800 8476.666 8717.487 4560.071 4024.344 8590.874 4701.817 2586.609 10250.546 5341.724 12005.417 4523.268 8475.749 4986.560 0.000 13750.713 7324.958 8171.551 12612.071 4102.626 4117.333 8727.219 10061.289 5015.032 2465.296 4587.730 16325.612 9389.364
10224.938 14219.600 10589.577 11141.353 17921.602 13037.507 9828.899 11346.425 7651.295 8499.268 14720.316 9053.783 11311.480 8155.252 12964.913 10105.011 10404.780 3002.049 13531.916 2369.926 10623.257 7806.224 10560.219 12011.027 9440.608 2040.729 15947.520 9917.397 11317.796 10668.615 11058.064 13454.474 11347.239 7975.284 14920.345 10880.460 11357.218 6576.643 7476.906 9641.392 11818.959 10917.146 11495.196 7142.905 9983.494 12974.979 10112.818 13305.648 8437.127 10841.487 6787.363 11516.893 10475.553 12052.131 11704.536 12091.162 9361.994 13171.988 18097.480 10996.157 14241.262 12138.585 10525.210 7931.475 9014.596 9092.575 8997.125 9091.670 10875.433 13702.735 12317.581 13446.797 8933.091 16264.561 14781.546 6733.737 10417.397 11313.641 12047.173 10653.703 13089.201 12093.503 18649.363 9211.565 10733.642 7425.485 17455.789 14410.413 0.000 7946.510 7727.175 10922.948 11270.946 11877.771 11533.051 10931.825 10813.422 16427.289 13903.114 12413.365 12986.015
4324.286 8035.881 3995.944 5654.809 11603.559 6547.119 3235.267 5255.583 3362.185 2136.433 9233.772 8531.594 5220.638 1294.605 6582.867 6887.415 8386.896 5262.871 6938.284 5730.947 4843.166 137.944 3134.969 5417.395 8995.127 6028.807 10353.970 3323.765 5724.246 5182.071 4464.431 6860.842 4458.756 914.459 9433.801 3455.210 4763.586 1650.585 4028.075 3099.602 4332.530 4323.513 6192.362 3067.668 2710.226 6381.347 6477.580 5751.757 4315.056 5354.943 3391.434 4412.394 4019.607 6235.098 6110.985 7137.030 1648.721 6578.356 10881.447 5216.066 7647.630 5544.952 6962.292 816.582 2420.964 1819.307 4445.321 3039.793 4281.800 6074.255 6500.548 7666.706 4381.286 10671.011 9295.002 2880.236 3823.764 4720.009 7093.041 3808.427 6495.569 7989.875 11878.173 6823.908 3460.374 1205.766 10862.157 7194.381 7061.173 0.000 3438.065 8824.837 4677.313 4164.497 6578.920 7158.127 4749.098 9211.257 7716.931 11703.235 8031.884
2965.265 6959.927 3414.301 3881.680 10661.929 5777.834 2653.624 4086.752 752.613 4516.683 7460.643 6578.664 4051.807 3792.095 5705.240 4525.609 6273.088 5511.453 6356.641 6003.001 3363.584 2946.781 4625.689 4835.752 7203.299 5605.551 8687.847 2742.122 4058.123 3408.942 3882.788 6279.199 4409.225 2346.866 7660.672 4540.301 4181.943 1363.198 2280.268 2407.201 6108.419 3741.871 4419.233 1223.780 3671.253 5799.704 4418.062 6476.852 1900.540 3581.814 2048.202 4578.879 3215.880 4792.458 4444.862 5247.956 3476.780 5996.713 11159.466 3736.484 7065.987 4963.310 4902.774 2303.057 1840.293 3158.045 2460.538 1857.478 3700.157 7134.090 5057.908 6187.124 2396.504 9004.888 7521.873 1460.940 3242.121 4138.366 5203.967 3715.689 5913.926 5935.866 11474.088 4871.186 4320.866 3275.355 10280.514 7472.399 6644.906 2822.843 0.000 6463.531 4095.670 5551.863 4689.846 5104.118 3553.749 9327.888 6643.441 9589.426 6142.810
7229.635 9984.165 8335.065 6529.433 13686.166 8802.071 7790.826 7679.372 6045.284 9810.738 7796.174 2782.599 7644.427 9086.151 8729.477 1625.204 648.054 9935.168 9523.191 10426.716 7434.878 8377.323 10053.490 9206.753 2868.924 10029.267 8245.537 7871.145 6573.997 5160.814 8522.641 9362.246 9164.951 8030.052 8161.215 9913.875 8842.396 6657.254 5081.477 7482.337 11481.992 8381.723 5449.052 5703.629 9101.061 10301.280 2952.577 11850.425 4704.508 4978.930 5629.330 9952.452 7480.250 8210.759 6956.583 5015.772 9160.456 9941.154 15606.471 6675.004 10362.027 8681.468 1666.373 7986.243 7405.758 8841.722 4496.883 6994.680 8498.104 12507.663 8476.209 9160.458 4432.848 9362.143 7549.953 5812.772 8379.323 8509.367 4971.783 9089.263 10415.502 3075.355 14666.464 2521.523 9694.440 8569.411 13401.798 12434.208 10998.996 8337.010 6121.163 0.000 8466.671 10925.436 4970.585 3035.740 7818.120 13728.283 9667.678 4525.434 4763.265
1711.196 4108.423 809.371 2702.021 7449.799 2696.894 1492.518 1713.713 4511.080 5665.234 6291.542 10128.303 1842.883 5223.926 2732.642 7403.348 9111.198 8868.458 2784.524 9336.534 2230.075 4240.238 2836.565 1567.170 10752.938 9126.766 7286.040 1436.308 2656.315 3888.377 1292.944 2707.082 932.380 3462.237 6491.571 2460.784 609.826 4459.195 5952.224 1867.405 3471.269 1152.027 4838.557 4895.735 2364.385 2227.587 6186.760 3661.125 5314.524 4069.637 5720.157 1941.729 1520.353 2384.873 3043.055 5775.243 3483.568 2424.596 7633.960 2602.975 3493.870 1694.728 7023.734 3564.134 1996.154 3197.698 5081.827 2546.042 954.285 4318.363 2650.323 3852.854 5017.792 7569.366 6352.773 5132.895 975.479 869.784 5645.622 1738.828 2341.809 7058.570 7901.971 8420.824 2542.446 5103.334 6708.397 4201.638 10166.121 4157.268 4586.959 9095.623 0.000 2914.713 5535.243 6679.276 1860.472 5755.772 3563.171 12809.164 6444.112
6441.487 7446.607 5539.662 7110.848 10003.667 6567.529 5456.489 6122.540 7603.234 4345.376 10548.919 13249.563 6251.710 4333.243 6603.276 11221.441 12999.076 9814.525 6122.708 10282.601 6960.366 5016.627 3010.940 5626.894 13732.232 10580.461 11230.693 5429.155 7065.142 8450.614 5896.647 6083.498 4138.332 5256.222 10487.876 3168.346 4660.886 6402.329 8765.180 6050.825 605.430 5882.318 9400.795 7679.848 4231.004 5368.606 10687.727 2456.464 8660.288 8658.821 8128.539 2960.239 6250.644 6531.183 7451.882 10184.070 4534.976 5565.615 7858.201 7333.266 6136.411 6103.555 11172.439 5144.470 5921.401 4611.172 8655.468 6510.014 5520.759 2342.273 6796.633 7641.735 8591.433 11506.493 10648.344 7617.341 5394.298 5278.611 10054.449 4177.500 5069.066 11647.754 9150.722 11542.084 3367.373 5449.147 8597.146 4263.418 11612.828 4933.657 7679.113 13159.363 5232.559 0.000 10124.427 11268.460 6269.299 6280.294 6901.355 16315.415 10852.939
3414.355 5576.288 4519.785 2714.153 9514.199 4986.791 4312.740 3864.092 4425.792 8258.644 4333.242 7491.442 3829.147 7553.930 4914.197 4373.097 5908.062 9607.313 5707.911 10098.860 3619.598 6570.241 6564.158 5391.473 8009.485 9701.411 5561.102 4143.792 2758.717 1345.534 4707.361 5546.966 5349.671 5792.241 4533.270 6424.543 5027.116 5459.057 5198.536 3754.984 7888.559 4566.443 489.985 4832.938 5611.730 6486.000 3156.509 8078.415 3329.794 1163.650 5232.710 6359.020 3664.970 4395.479 3141.303 1650.626 6076.978 6125.874 11791.191 2859.724 6546.747 4866.188 3993.483 5867.377 4510.669 5758.244 2740.793 3714.048 4682.824 8735.653 4660.929 4884.284 2676.759 5982.117 4228.214 5070.098 4811.863 4694.087 1606.637 5599.931 6600.222 2826.071 10494.497 5832.755 6205.108 7217.280 9229.831 8618.928 10740.766 6487.272 4501.672 5784.277 4651.391 7332.004 0.000 2869.957 4002.840 9913.003 5852.398 9498.007 2577.260
5100.706 7786.169 6206.136 4400.504 11557.237 6673.142 5999.091 5550.443 4691.295 8859.368 5961.001 5228.056 5515.498 8134.781 6600.548 2124.852 3357.048 9666.932 7394.262 10158.480 5305.949 7289.201 8250.509 7077.824 5577.918 9761.030 6724.592 5830.143 4445.068 3031.885 6393.712 7233.317 7036.021 6663.982 6237.321 8110.894 6713.467 5705.884 4831.398 5441.335 9574.910 6252.794 3235.483 4944.315 7298.080 8172.351 1297.829 9764.766 3427.644 2850.001 4870.016 8045.371 5351.321 6081.830 4827.654 2974.110 7651.193 7812.224 13477.542 4546.075 8233.098 6552.539 1571.134 6620.173 5896.495 7332.459 2987.620 5400.399 6369.175 10422.004 6347.280 7031.529 2923.585 7656.335 5786.326 5053.458 6498.214 6380.437 2930.122 7286.282 8286.573 1312.558 12537.535 3583.622 7891.459 7618.041 11272.869 10305.279 10800.385 7165.263 4767.175 3233.263 6337.742 9018.354 2757.016 0.000 5689.191 11599.353 7538.749 6946.994 3004.362
413.214 4528.437 1063.142 1858.879 8230.439 3166.451 1794.777 1387.660 3570.489 5893.687 5448.401 9114.180 1352.715 5375.837 3202.199 6217.534 7925.384 8563.928 3995.913 9055.476 932.094 4392.149 3523.357 2484.593 9738.815 8658.027 6442.898 1625.828 1813.174 2590.395 1235.740 3834.968 2251.645 3614.148 5648.430 3383.742 1929.091 4415.673 5057.377 1391.838 4790.534 1094.822 3540.575 4276.255 2757.747 3546.852 5000.946 4980.390 4230.829 2864.969 4825.311 3260.995 528.264 2360.968 2199.913 4590.628 3712.021 3697.838 8953.225 1304.994 4813.135 1987.260 5837.920 3716.045 2150.685 3393.286 3997.729 1529.992 1211.203 5637.628 2626.418 3755.634 3933.694 6759.939 5509.631 4513.415 1528.072 1787.206 4462.740 2559.130 3661.074 5853.902 9184.451 7406.701 3164.307 5073.195 7919.785 5520.903 9697.381 4309.179 3646.369 7909.809 1744.511 4233.979 4330.575 5493.462 0.000 7075.037 4211.951 11623.350 5261.230
6832.228 5547.024 6272.475 7218.990 4862.967 5590.855 6648.827 6230.682 9667.389 9427.898 8973.153 15284.612 6481.542 9361.378 5617.594 12491.514 14199.364 13984.260 4627.644 14452.336 7199.155 9137.657 6451.907 5376.601 15909.247 14283.075 8714.230 6592.617 7173.285 8558.757 6214.097 4588.434 5387.846 8531.756 8715.562 6076.126 5513.302 9615.505 11108.533 7175.739 6149.097 6615.131 9508.937 10052.044 6736.058 4391.045 11274.926 4918.892 10470.833 8833.331 10876.467 5214.286 6720.228 6029.510 7560.024 10067.121 8072.195 4713.785 2147.919 7572.055 4059.942 6211.697 12111.900 8633.652 7152.463 7786.325 10238.137 7702.352 5962.543 4925.198 6071.155 6146.672 10174.102 8746.745 9301.271 10289.204 6131.788 5596.061 9937.501 6383.262 4121.883 11822.264 3407.597 13577.134 6252.998 10205.479 3811.326 2119.910 15322.430 9054.687 9743.269 14183.789 5674.343 5847.062 10298.937 11633.007 6586.750 0.000 5188.015 17897.330 10735.991
4150.132 545.252 4385.354 4074.466 4109.604 1721.706 4791.279 3636.360 7353.549 8672.761 4710.689 12423.110 3815.053 8398.761 1342.071 9304.765 10748.508 12167.219 988.416 12635.295 4142.431 7538.998 5489.291 3028.130 12941.152 12425.527 5017.403 4735.069 3968.923 5220.287 4167.559 880.735 3621.577 6760.998 4453.098 5113.510 3655.754 7757.956 8840.437 5129.201 6093.281 4728.009 5556.958 8059.314 5432.035 2105.037 8088.177 5432.947 7776.224 5494.861 8608.370 4563.741 4311.324 2251.922 3701.496 5712.084 6762.704 1491.638 6588.231 4515.331 1423.303 4165.159 8925.151 6862.894 5294.915 6476.834 7193.264 5313.052 4017.459 6090.184 2202.006 1544.145 7129.229 5069.674 4944.400 8296.474 4274.239 3549.523 5582.464 4616.993 2219.259 7636.658 5001.114 10764.422 5242.329 8402.095 3736.448 4517.879 13464.881 7456.029 7429.429 10624.723 3729.259 5536.725 5995.874 7710.403 4106.257 4710.042 0.000 14338.453 6380.954
11255.863 14021.652 12241.928 10575.372 17732.105 12848.010 11481.250 11725.311 9190.287 12601.415 11561.898 4227.694 11690.366 12100.724 12775.416 5302.096 3671.862 11102.763 13569.130 11594.311 11480.817 11391.896 13629.559 13252.692 2823.796 10932.918 11976.998 11569.748 10619.936 9206.753 12548.868 13408.185 13210.890 11044.625 11926.940 13604.299 12888.335 9671.827 7431.871 11234.827 15172.417 12407.950 9402.410 8718.202 12791.486 14347.219 6969.114 15540.850 8171.986 9024.869 8352.185 13642.877 11506.477 12256.698 11002.522 8969.130 12480.650 13987.093 19652.410 10720.943 14407.966 12727.407 5712.311 11000.816 10979.225 12161.915 8339.210 10685.104 12524.331 16198.088 12522.148 13206.397 8275.175 13093.603 11315.678 8777.022 12069.747 12555.306 8925.141 12779.687 14461.441 7028.713 18712.403 5106.759 13384.864 11451.417 17447.737 16480.147 11701.874 11351.583 9266.166 4079.844 12512.610 14615.861 8923.943 7081.679 11844.347 17774.222 13713.617 0.000 8528.990
5533.243 6493.900 6392.247 4369.470 10275.011 6231.088 6431.628 5265.577 6274.830 10377.532 3860.017 6229.062 5230.632 9672.817 6158.494 3599.634 4377.609 11437.673 6952.208 11929.221 5021.083 8689.129 8683.046 6792.957 6598.479 11531.771 4547.339 6262.679 4152.465 3464.422 6141.219 6791.263 6751.155 7911.129 4225.059 8310.273 6428.601 7289.418 6673.538 5873.872 9290.044 6423.927 2812.699 6663.299 7730.617 7730.297 3489.113 9479.900 5160.154 3282.537 6712.156 7760.504 5715.279 5789.226 4533.674 1772.703 8195.865 7370.170 13035.488 4886.871 7791.043 6267.672 3001.350 7986.264 6629.557 7877.131 4571.154 5832.936 6167.910 10137.138 6033.988 5801.896 4507.119 5479.081 3613.797 6895.598 6857.177 6095.571 1643.082 7718.819 7844.519 1255.705 11412.110 4661.234 8323.996 9201.575 10147.444 10020.412 12571.126 8606.159 6350.709 4253.824 6052.876 8733.488 2334.232 2418.261 5510.212 11157.299 6772.584 7967.555 0.000
NODE_COORD_SECTION
1 -500.874011 70.822412
2 2679.250487 -1428.048682
3 30.630105 973.245588
4 -304.078864 -657.808602
5 6436.170964 -1480.007442
6 1811.019305 -425.111841
7 -803.370270 1460.969193
8 261.964854 65.245738
9 -3069.327994 1092.258170
10 -2394.259280 4533.110130
11 1164.497986 -4043.880396
12 -7503.021586 -2757.753430
13 269.461759 264.295560
14 -2418.773251 3950.369970
15 1848.719393 -477.822690
16 -4882.431653 -2291.111341
17 -5874.760683 -3437.017741
18 -6956.774036 3752.218852
19 2487.578082 -201.670144
20 -7297.602374 4344.357504
21 -376.526573 -224.052693
22 -2667.841392 3259.772954
23 -50.468752 3338.181694
24 1161.992867 548.410623
25 -7644.430276 -3249.606272
26 -7777.559153 3664.080760
27 2045.732937 -4481.935492
28 -699.643625 1318.943576
29 -75.965872 -880.630446
30 -1291.059606 -1195.374940
31 61.623236 653.002633
32 2393.071382 -186.075752
33 733.273817 1753.957364
34 -2349.305921 2535.290767
35 1375.886198 -3839.479643
36 192.890405 3158.996067
37 503.249721 1391.807636
38 -3610.533168 2068.548384
39 -4736.420125 203.544217
40 -1116.204824 1011.000740
41 933.765621 4179.923507
42 15.546548 831.634329
43 -1625.930393 -1937.581281
44 -3881.318686 862.709417
45 -529.427936 2747.728011
46 2321.952358 780.227997
47 -3621.169506 -2219.731622
48 2291.326941 3552.237277
49 -3299.312234 -67.000357
50 -1430.165579 -1376.229993
51 -4366.187539 739.460855
52 909.471301 2665.127623
53 -486.610713 393.010196
54 1174.739835 -474.279749
55 288.444662 -1030.218947
56 -1359.125572 -3007.115015
57 -1488.884353 2770.721307
58 2284.264564 346.571443
59 6481.547706 2644.007477
60 -647.587587 -459.742069
61 3025.818775 -77.197281
62 832.209786 20.240540
63 -4228.912824 -2669.257527
64 -2402.560024 2607.342509
65 -1314.202832 1569.693358
66 -1412.694853 2923.178089
67 -3053.855529 -369.611890
68 -1499.253844 836.406267
69 45.897896 921.412032
70 2612.695226 4162.997575
71 1344.382233 -441.046210
72 1963.377538 -1443.870733
73 -3041.881161 -426.734316
74 2642.781209 -4474.289770
75 891.003100 -4093.450862
76 -4013.592280 1219.422245
77 -104.551945 1431.942864
78 427.893275 544.102452
79 -1492.057420 -3040.298459
80 -30.197856 2216.309408
81 2122.519408 944.757438
82 -2918.401098 -3369.073229
83 7009.095952 -85.449774
84 -6031.438153 -2001.073704
85 45.227540 3067.013167
86 -3429.334208 3296.709602
87 5696.050376 -545.572684
88 3561.337810 2227.454379
89 -8470.991686 4190.291598
90 -2572.243698 3175.021263
91 -2999.535751 1230.795543
92 -5432.394426 -3470.460399
93 362.282035 1038.546994
94 925.431718 3631.912991
95 -1696.009639 -2084.809165
96 -3274.272592 -2816.880418
97 -319.681287 361.204040
98 5190.086720 2105.202301
99 2743.563069 -909.326649
100 -8914.508379 -4503.767209
101 -2000.793665 -3796.398506
DEMAND_SECTION
1 0
2 2
3 10
4 2
5 7
6 7
7 1
8 2
9 7
10 1
11 1
12 5
13 1
14 4
15 10
16 2
17 3
18 1
19 1
20 2
21 4
22 7
23 8
24 2
25 9
26 1
27 10
28 64
29 4
30 2
31 8
32 4
33 9
34 2
35 9
36 1
37 7
38 10
39 6
40 5
41 2
42 4
43 1
44 4
45 8
46 2
47 7
48 2
49 93
50 3
51 2
52 8
53 10
54 6
55 58
56 7
57 7
58 85
59 6
60 69
61 74
62 3
63 8
64 10
65 9
66 7
67 63
68 4
69 6
70 9
71 7
72 1
73 6
74 6
75 8
76 8
77 7
78 4
79 3
80 4
81 52
82 9
83 1
84 3
85 1
86 5
87 55
88 2
89 7
90 10
91 5
92 10
93 3
94 9
95 2
96 55
97 9
98 68
99 4
100 4
101 8
DEPOT_SECTION
1
-1
EOF
