NAME : poryos-tokyo-n50-hyb
COMMENT : Poryos2026 euclidean metric; city tokyo; 3-decimal seconds/meters; ENU ref in poryos-tokyo-n50-hyb.vrp.json
TYPE : CVRP
DIMENSION : 51
EDGE_WEIGHT_TYPE : EXPLICIT
EDGE_WEIGHT_FORMAT : FULL_MATRIX
CAPACITY : 176
EDGE_WEIGHT_SECTION
0.000 7686.373 7349.363 10780.906 16802.148 6625.982 7598.341 838.886 3092.426 3672.167 8377.099 13655.838 624.226 3582.388 3374.228 10144.208 3724.918 9982.309 2601.791 1034.433 5877.496 3927.298 9181.316 8919.667 4380.713 6872.706 13454.653 10513.764 3402.261 8579.993 8110.197 12318.042 7764.135 6921.978 3855.530 11362.184 8241.990 6688.349 6178.907 7916.433 4895.914 5170.094 8621.449 7501.719 8281.394 9843.119 3449.770 12013.765 13243.431 6843.810 4976.845
7686.373 0.000 14873.343 10769.118 20002.738 4462.416 13488.924 8025.739 5684.808 7544.804 15937.527 14789.991 7957.388 11117.484 4423.626 16088.991 4353.045 9978.349 7129.669 8339.512 12425.448 11279.433 12351.077 1333.875 10845.260 13683.176 8153.393 15533.787 10991.237 16266.316 14077.447 11786.013 13616.940 9081.848 11503.611 11668.146 15913.379 10667.265 8448.734 13616.716 5900.345 10803.008 16277.274 12242.569 15819.712 17502.952 11020.294 17031.893 5821.745 14145.778 12662.480
7349.363 14873.343 0.000 13476.566 14588.929 13794.151 8890.218 7336.203 10262.617 8171.118 1082.777 14397.617 7301.889 3778.804 10711.985 5863.791 10584.324 12981.685 8015.184 7074.053 3795.935 3610.457 9531.810 16159.870 7235.663 6785.799 20617.789 7667.265 3947.237 2668.096 8981.333 17892.098 9023.164 12372.398 4275.114 13582.467 3080.266 7825.445 11883.547 9337.616 10300.420 8531.217 3531.768 10450.534 4463.119 4234.904 4925.018 8590.884 20557.598 5260.148 2884.811
10780.906 10769.118 13476.566 0.000 9930.255 13986.236 18266.162 11619.791 12153.596 7129.003 14393.854 4070.369 11404.489 11406.736 10731.125 10379.266 8834.972 855.691 8179.719 11782.077 9680.711 10936.182 4547.211 11750.686 15058.268 17119.098 18901.501 8546.666 11556.276 16029.075 18731.837 21477.323 18435.560 16954.086 13181.688 913.189 16184.207 5652.686 16158.716 18619.798 6349.249 15949.086 16668.624 18274.095 17067.143 17622.867 13221.793 9513.369 15381.459 16485.116 13311.380
16802.148 20002.738 14588.929 9930.255 0.000 22203.058 22673.370 17502.543 19370.209 13715.114 14914.785 6237.145 17306.068 15132.305 18446.841 8771.069 16807.942 10485.283 14752.327 17493.459 12013.302 14453.917 7888.725 21160.986 19957.181 20831.558 28087.116 6990.012 15406.761 17081.452 22941.497 29029.082 22833.799 23724.103 17025.094 9073.511 17632.429 10210.221 22976.151 23111.246 14396.721 21203.133 18049.629 23572.501 19051.894 18442.383 17430.769 6034.277 25132.491 19548.579 16293.392
6625.982 4462.416 13794.151 13986.236 22203.058 0.000 9952.963 6469.670 3553.926 8570.362 14755.618 17759.451 6528.022 10127.115 3809.976 16609.529 5413.459 13137.533 7655.596 6721.644 12430.873 10538.854 14314.680 4801.045 7968.309 10683.318 6840.519 16646.365 9906.666 14488.673 10531.856 7595.820 10051.660 4788.243 9733.139 14818.914 13967.615 12112.032 4277.451 9979.576 7923.597 7471.472 14234.532 8340.266 13474.776 15432.492 9118.805 18180.341 7802.282 11557.195 11103.601
7598.341 13488.924 8890.218 18266.162 22673.370 9952.963 0.000 6783.066 7884.131 11151.273 9239.769 20732.851 6984.937 7594.710 9432.289 14405.598 10816.621 17498.045 10158.819 6564.899 10660.752 8260.439 15891.776 14347.063 3223.079 2149.038 15564.214 15736.311 7337.871 7622.820 589.068 10264.394 170.220 5847.479 5661.489 18770.692 6860.735 13451.463 5931.545 449.780 12478.117 2710.080 6800.653 2165.269 5530.880 7614.344 5333.099 16973.750 17749.964 3765.973 6459.556
838.886 8025.739 7336.203 11619.791 17502.543 6469.670 6783.066 0.000 2926.765 4508.507 8321.616 14472.242 217.196 3667.372 3614.377 10595.436 4316.609 10820.876 3440.576 314.448 6299.205 4130.245 9949.294 9206.972 3575.722 6152.065 13307.250 11099.189 3438.997 8311.859 7303.071 11722.171 6947.762 6247.366 3499.110 12199.440 7910.170 7447.914 5530.480 7093.272 5696.359 4331.726 8260.086 6664.710 7809.563 9486.510 2994.582 12579.827 13431.113 6251.110 4759.067
3092.426 5684.808 10262.617 12153.596 19370.209 3553.926 7884.131 2926.765 0.000 5684.726 11242.171 15551.031 2975.772 6574.241 1644.615 13189.569 3431.392 11303.483 4619.104 3192.622 8952.261 6987.810 11542.595 6698.140 5164.051 8002.647 10394.307 13406.473 6356.797 11115.714 8468.125 9681.359 8022.145 4802.873 6303.494 12881.670 10651.208 9160.884 4008.438 8055.370 5804.948 5175.591 10960.131 6920.756 10340.984 12179.368 5722.659 14928.618 10688.007 8555.078 7634.516
3672.167 7544.804 8171.118 7129.003 13715.114 8570.362 11151.273 4508.507 5684.726 0.000 9246.622 10041.905 4291.743 4942.832 4767.102 8550.648 3387.279 6348.410 1117.703 4656.999 5037.721 4731.115 5860.186 8876.360 7935.481 10129.911 14937.356 8186.215 4988.486 10240.124 11629.918 15366.074 11320.073 10280.405 6384.060 7691.301 10157.086 3544.539 9496.952 11497.503 2132.743 8827.192 10614.554 11173.217 10678.864 11745.929 6288.712 9717.313 13354.348 9711.386 6899.495
8377.099 15937.527 1082.777 14393.854 14914.785 14755.618 9239.769 8321.616 11242.171 9246.622 0.000 15121.029 8299.316 4826.926 11747.452 6144.009 11658.437 13927.495 9097.875 8049.552 4740.994 4688.305 10328.925 17219.288 7912.566 7096.613 21562.027 8114.838 4978.739 2172.200 9264.119 18579.937 9359.930 13114.226 5114.140 14460.397 2795.603 8757.481 12664.915 9679.329 11377.251 9170.526 3165.011 10943.911 4312.525 3580.913 5762.524 8881.503 21604.674 5500.928 3705.927
13655.838 14789.991 14397.617 4070.369 6237.145 17759.451 20732.851 14472.242 15551.031 10041.905 15121.029 0.000 14256.009 13324.492 14280.877 9799.691 12432.249 4816.949 11158.950 14570.160 10816.418 12729.348 4968.245 15805.070 17632.473 19281.798 22938.058 7617.942 13538.271 17064.139 21132.514 25111.248 20902.682 20280.291 15249.711 3157.180 17390.156 7291.208 19489.220 21127.160 9884.393 18688.419 17867.140 21082.682 18528.891 18628.291 15445.284 7944.892 19437.696 18365.901 15021.108
624.226 7957.388 7301.889 11404.489 17306.068 6528.022 6984.937 217.196 2975.772 4291.743 8299.316 14256.009 0.000 3599.104 3562.199 10451.279 4176.153 10606.449 3225.820 446.343 6158.637 4035.321 9739.846 9153.349 3772.624 6319.307 13368.380 10925.636 3381.587 8346.243 7501.646 11892.655 7150.113 6434.234 3548.849 11982.812 7961.790 7239.551 5710.782 7298.618 5498.100 4545.934 8320.276 6881.518 7900.964 9546.241 3071.445 12410.788 13405.899 6377.384 4774.107
3582.388 11117.484 3778.804 11406.736 15132.305 10127.115 7594.710 3667.372 6574.241 4942.832 4826.926 13324.492 3599.104 0.000 6934.819 7328.111 6875.217 10750.451 4495.152 3443.471 3168.392 680.088 8393.691 12394.031 4858.706 5967.118 16967.478 8289.095 289.041 5372.344 7922.433 14973.593 7759.956 9387.890 1949.090 11741.472 5226.813 6061.088 8777.154 8021.561 6971.775 6150.876 5677.583 8468.415 5771.178 6829.002 2298.482 9644.128 16780.053 5100.776 1968.117
3374.228 4423.626 10711.985 10731.125 18446.841 3809.976 9432.289 3614.377 1644.615 4767.102 11747.452 14280.877 3562.199 6934.819 0.000 12898.207 1899.706 9876.100 3850.272 3926.460 8818.539 7211.751 10562.079 5592.953 6549.673 9365.977 10397.417 12847.760 6769.057 11906.314 10010.243 10831.220 9576.291 6322.411 7109.014 11497.312 11522.009 8311.483 5538.907 9627.952 4412.405 6724.819 11874.446 8556.660 11396.203 13100.863 6606.379 14382.566 9870.285 9737.744 8321.350
10144.208 16088.991 5863.791 10379.266 8771.069 16609.529 14405.598 10595.436 13189.569 8550.648 6144.009 9799.691 10451.279 7328.111 12898.207 0.000 11889.908 10227.802 9145.809 10466.089 4298.309 6684.432 5832.162 17417.411 12097.963 12412.318 23292.179 2203.848 7616.644 8310.562 14589.880 22243.363 14554.862 16673.638 8968.908 10110.098 8872.153 5798.450 16025.708 14854.290 10327.954 13418.010 9282.437 15642.210 10317.217 9686.314 9502.128 2740.377 21881.817 11000.732 7951.038
3724.918 4353.045 10584.324 8834.972 16807.942 5413.459 10816.621 4316.609 3431.392 3387.279 11658.437 12432.249 4176.153 6875.217 1899.706 11889.908 0.000 7979.600 2794.477 4615.899 8088.436 6975.454 8926.165 5677.726 7736.522 10441.988 11560.657 11568.973 6780.973 12160.628 11375.616 12687.115 10970.988 8201.467 7554.339 9609.021 11885.584 6832.620 7412.691 11061.204 2547.898 8156.062 12285.661 10181.100 12000.702 13497.966 7174.061 13097.756 10159.159 10550.483 8563.399
9982.309 9978.349 12981.685 855.691 10485.283 13137.533 17498.045 10820.876 11303.483 6348.410 13927.495 4816.949 10606.449 10750.451 9876.100 10227.802 7979.600 0.000 7380.726 10990.631 9191.739 10306.074 4445.250 10989.249 14283.840 16395.120 18122.659 8513.713 10887.797 15494.572 17971.275 20622.808 17667.055 16104.949 12488.183 1700.017 15618.494 5171.842 15309.717 17845.893 5498.561 15152.382 16101.616 17466.012 16453.170 17084.991 12503.812 9588.955 14711.259 15805.676 12676.207
2601.791 7129.669 8015.184 8179.719 14752.327 7655.596 10158.819 3440.576 4619.104 1117.703 9097.875 11158.950 3225.820 4495.152 3850.272 9145.809 2794.477 7380.726 0.000 3613.633 5297.108 4434.473 6931.448 8460.160 6935.906 9252.047 14177.167 8998.406 4479.044 9866.796 10653.586 14294.179 10326.378 9168.059 5679.072 8771.838 9705.072 4546.036 8386.420 10491.391 2546.236 7771.707 10144.113 10097.195 10084.242 11314.762 5495.229 10533.378 12946.491 8960.225 6381.961
1034.433 8339.512 7074.053 11782.077 17493.459 6721.644 6564.899 314.448 3192.622 4656.999 8049.552 14570.160 446.343 3443.471 3926.460 10466.089 4615.899 10990.631 3613.633 0.000 6167.818 3936.325 9996.417 9518.491 3346.326 5873.118 13553.721 11028.881 3204.450 8007.869 7075.771 11811.167 6730.948 6300.111 3191.465 12345.439 7600.619 7491.384 5602.187 6885.966 5928.628 4170.452 7948.466 6531.010 7495.194 9174.901 2681.040 12498.527 13733.975 5943.695 4465.364
5877.496 12425.448 3795.935 9680.711 12013.302 12430.873 10660.752 6299.205 8952.261 5037.721 4740.994 10816.418 6158.637 3168.392 8818.539 4298.309 8088.436 9191.739 5297.108 6167.818 0.000 2491.668 5866.997 13756.777 8026.649 8866.298 19195.595 5123.010 3453.847 6379.689 10939.778 17955.239 10821.719 12396.080 5014.906 9800.389 6616.502 4029.714 11736.759 11098.044 7115.271 9318.050 7099.447 11633.274 7712.557 7973.130 5451.280 6481.796 18243.558 7712.112 4361.380
3927.298 11279.433 3610.457 10936.182 14453.917 10538.854 8260.439 4130.245 6987.810 4731.115 4688.305 12729.348 4035.321 680.088 7211.751 6684.432 6975.454 10306.074 4434.473 3936.325 2491.668 0.000 7782.246 12575.524 5537.473 6593.011 17375.419 7610.262 962.656 5509.283 8578.452 15583.744 8424.941 10002.723 2602.656 11235.161 5456.109 5498.148 9375.624 8689.557 6821.472 6826.387 5924.369 9148.163 6151.433 7027.106 2977.467 8971.084 16999.776 5648.821 2375.624
9181.316 12351.077 9531.810 4547.211 7888.725 14314.680 15891.776 9949.294 11542.595 5860.186 10328.925 4968.245 9739.846 8393.691 10562.079 5832.162 8926.165 4445.250 6931.448 9996.417 5866.997 7782.246 0.000 13583.317 12867.641 14360.581 20316.909 4074.468 8618.936 12184.121 16265.821 21223.108 16060.588 16048.011 10333.195 4323.111 12470.871 2505.663 15278.174 16298.798 6568.535 13996.919 12951.466 16402.684 13573.486 13764.933 10569.199 5244.985 17800.048 13405.422 10055.539
8919.667 1333.875 16159.870 11750.686 21160.986 4801.045 14347.063 9206.972 6698.140 8876.360 17219.288 15805.070 9153.349 12394.031 5592.953 17417.411 5677.726 10989.249 8460.160 9518.491 13756.777 12575.524 13583.317 0.000 11850.617 14686.041 7174.768 16835.518 12258.929 17490.040 14935.884 11642.184 14466.512 9576.509 12701.523 12659.357 17114.644 11963.858 9014.431 14442.587 7195.313 11698.810 17466.943 12961.183 16961.898 18693.378 12196.468 18327.351 4488.296 15236.545 13894.046
4380.713 10845.260 7235.663 15058.268 19957.181 7968.309 3223.079 3575.722 5164.051 7935.481 7912.566 17632.473 3772.624 4858.706 6549.673 12097.963 7736.522 14283.840 6935.906 3346.326 8026.649 5537.473 12867.641 11850.617 0.000 2838.601 14354.527 13147.694 4574.982 6970.080 3729.587 10669.832 3390.482 5232.092 3146.299 15580.037 6325.032 10389.124 4869.861 3562.091 9270.693 1327.630 6497.464 3616.181 5575.161 7632.238 2597.562 14494.382 15660.009 3602.739 4389.712
6872.706 13683.176 6785.799 17119.098 20831.558 10683.318 2149.038 6152.065 8002.647 10129.911 7096.613 19281.798 6319.307 5967.118 9365.977 12412.318 10441.988 16395.120 9252.047 5873.118 8866.298 6593.011 14360.581 14686.041 2838.601 0.000 16808.914 13855.512 5744.596 5491.258 2196.669 12144.543 2263.968 7238.869 4032.087 17545.070 4734.081 11998.831 7112.531 2583.927 11724.011 3271.984 4707.986 4075.014 3484.557 5613.318 3899.465 15032.422 18436.791 1618.853 4538.267
13454.653 8153.393 20617.789 18901.501 28087.116 6840.519 15564.214 13307.250 10394.307 14937.356 21562.027 22938.058 13368.380 16967.478 10397.417 23292.179 11560.657 18122.659 14177.167 13553.721 19195.595 17375.419 20316.909 7174.768 14354.527 16808.914 0.000 23123.397 16745.667 21162.157 16081.674 7776.058 15614.701 9717.096 16492.345 19805.844 20590.992 18378.339 9707.932 15446.406 13750.417 13546.181 20814.061 13541.368 19928.438 21976.501 15861.300 24654.616 5337.936 17935.134 17882.963
10513.764 15533.787 7667.265 8546.666 6990.012 16646.365 15736.311 11099.189 13406.473 8186.215 8114.838 7617.942 10925.636 8289.095 12847.760 2203.848 11568.973 8513.713 8998.406 11028.881 5123.010 7610.262 4074.468 16835.518 13147.694 13855.512 23123.397 0.000 8572.858 10244.254 15983.210 22817.912 15894.038 17328.310 10123.100 8172.393 10740.861 4874.819 16627.162 16178.436 9640.571 14432.714 11178.107 16756.163 12115.792 11693.232 10573.961 1535.055 21222.044 12558.604 9318.610
3402.261 10991.237 3947.237 11556.276 15406.761 9906.666 7337.871 3438.997 6356.797 4988.486 4978.739 13538.271 3381.587 289.041 6769.057 7616.644 6780.973 10887.797 4479.044 3204.450 3453.847 962.656 8618.936 12258.929 4574.982 5744.596 16745.667 8572.858 0.000 5412.223 7674.564 14691.305 7503.812 9105.029 1714.268 11908.568 5226.030 6262.586 8498.164 7762.256 6982.898 5864.416 5666.675 8186.587 5694.609 6836.457 2025.923 9931.347 16627.637 4932.245 1915.042
8579.993 16266.316 2668.096 16029.075 17081.452 14488.673 7622.820 8311.859 11115.714 10240.124 2172.200 17064.139 8346.243 5372.344 11906.314 8310.562 12160.628 15494.572 9866.796 8007.869 6379.689 5509.283 12184.121 17490.040 6970.080 5491.258 21162.157 10244.254 5412.223 0.000 7549.322 17454.090 7720.789 12178.736 4821.833 16177.754 766.700 10381.713 11839.611 8040.364 12318.648 8090.442 1012.439 9526.081 2270.400 1594.625 5393.978 11049.799 21741.764 3880.882 3607.478
8110.197 14077.447 8981.333 18731.837 22941.497 10531.856 589.068 7303.071 8468.125 11629.918 9264.119 21132.514 7501.646 7922.433 10010.243 14589.880 11375.616 17971.275 10653.586 7075.771 10939.778 8578.452 16265.821 14935.884 3729.587 2196.669 16081.674 15983.210 7674.564 7549.322 0.000 10612.620 481.336 6366.498 5976.202 19221.236 6782.934 13843.789 6481.968 655.309 12999.261 3292.691 6681.894 2593.495 5386.552 7419.861 5696.714 17190.094 18326.127 3763.191 6672.687
12318.042 11786.013 17892.098 21477.323 29029.082 7595.820 10264.394 11722.171 9681.359 15366.074 18579.937 25111.248 11892.655 14973.593 10831.220 22243.363 12687.115 20622.808 14294.179 11811.167 17955.239 15583.744 21223.108 11642.184 10669.832 12144.543 7776.058 22817.912 14691.305 17454.090 10612.620 0.000 10238.961 5587.099 13675.650 22279.273 16738.887 18821.615 6218.484 9969.025 15231.692 9418.069 16795.032 8117.245 15623.010 17756.837 13045.338 24301.997 12383.081 13652.142 15018.467
7764.135 13616.940 9023.164 18435.560 22833.799 10051.660 170.220 6947.762 8022.145 11320.073 9359.930 20902.682 7150.113 7759.956 9576.291 14554.862 10970.988 17667.055 10326.378 6730.948 10821.719 8424.941 16060.588 14466.512 3390.482 2263.968 15614.701 15894.038 7503.812 7720.789 481.336 10238.961 0.000 5897.945 5825.138 18940.632 6957.233 13620.995 6003.205 320.576 12642.168 2851.798 6887.121 2164.620 5609.750 7681.372 5500.636 17127.686 17845.223 3875.868 6611.385
6921.978 9081.848 12372.398 16954.086 23724.103 4788.243 5847.479 6247.366 4802.873 10280.405 13114.226 20280.291 6434.234 9387.890 6322.411 16673.638 8201.467 16104.949 9168.059 6300.111 12396.080 10002.723 16048.011 9576.509 5232.092 7238.869 9717.096 17328.310 9105.029 12178.736 6366.498 5587.099 5897.945 0.000 8121.753 17672.992 11506.731 13579.213 795.576 5736.062 10606.876 4108.691 11632.935 3863.569 10577.198 12701.317 7483.398 18792.024 12292.896 8556.126 9488.540
3855.530 11503.611 4275.114 13181.688 17025.094 9733.139 5661.489 3499.110 6303.494 6384.060 5114.140 15249.711 3548.849 1949.090 7109.014 8968.908 7554.339 12488.183 5679.072 3191.465 5014.906 2602.656 10333.195 12701.523 3146.299 4032.087 16492.345 10123.100 1714.268 4821.833 5976.202 13675.650 5825.138 8121.753 0.000 13566.679 4413.132 7968.322 7612.493 6093.601 8225.118 4473.692 4774.676 6677.759 4461.745 5999.702 650.773 11420.590 16922.090 3334.611 1408.427
11362.184 11668.146 13582.467 913.189 9073.511 14818.914 18770.692 12199.440 12881.670 7691.301 14460.397 3157.180 11982.812 11741.472 11497.312 10110.098 9609.021 1700.017 8771.838 12345.439 9800.389 11235.161 4323.111 12659.357 15580.037 17545.070 19805.844 8172.393 11908.568 16177.754 19221.236 22279.273 18940.632 17672.992 13566.679 0.000 16374.245 5815.780 16877.460 19135.297 7092.369 16515.654 16859.197 18863.898 17322.356 17772.025 13646.360 9026.140 16290.901 16839.499 13607.603
8241.990 15913.379 3080.266 16184.207 17632.429 13967.615 6860.735 7910.170 10651.208 10157.086 2795.603 17390.156 7961.790 5226.813 11522.009 8872.153 11885.584 15618.494 9705.072 7600.619 6616.502 5456.109 12470.871 17114.644 6325.032 4734.081 20590.992 10740.861 5226.030 766.700 6782.934 16738.887 6957.233 11506.731 4413.132 16374.245 0.000 10560.350 11191.823 7276.564 12198.352 7406.023 484.963 8780.440 1534.519 1615.779 4940.263 11611.737 21315.262 3129.966 3338.732
6688.349 10667.265 7825.445 5652.686 10210.221 12112.032 13451.463 7447.914 9160.884 3544.539 8757.481 7291.208 7239.551 6061.088 8311.483 5798.450 6832.620 5171.842 4546.036 7491.384 4029.714 5498.148 2505.663 11963.858 10389.124 11998.831 18378.339 4874.819 6262.586 10381.713 13843.789 18821.615 13620.995 13579.213 7968.322 5815.780 10560.350 0.000 12815.982 13851.074 4768.747 11501.075 11045.308 13906.439 11518.051 11976.185 8154.135 6364.660 16348.483 11145.502 7847.395
6178.907 8448.734 11883.547 16158.716 22976.151 4277.451 5931.545 5530.480 4008.438 9496.952 12664.915 19489.220 5710.782 8777.154 5538.907 16025.708 7412.691 15309.717 8386.420 5602.187 11736.759 9375.624 15278.174 9014.431 4869.861 7112.531 9707.932 16627.162 8498.164 11839.611 6481.968 6218.484 6003.205 795.576 7612.493 16877.460 11191.823 12815.982 0.000 5879.673 9811.805 3877.531 11347.965 4112.015 10348.187 12451.795 6966.016 18100.588 11943.776 8329.577 9000.367
7916.433 13616.716 9337.616 18619.798 23111.246 9979.576 449.780 7093.272 8055.370 11497.503 9679.329 21127.160 7298.618 8021.561 9627.952 14854.290 11061.204 17845.893 10491.391 6885.966 11098.044 8689.557 16298.798 14442.587 3562.091 2583.927 15446.406 16178.436 7762.256 8040.364 655.309 9969.025 320.576 5736.062 6093.601 19135.297 7276.564 13851.074 5879.673 0.000 12780.503 2911.598 7203.808 1939.609 5923.802 7989.258 5750.957 17419.731 17762.434 4196.407 6907.241
4895.914 5900.345 10300.420 6349.249 14396.721 7923.597 12478.117 5696.359 5804.948 2132.743 11377.251 9884.393 5498.100 6971.775 4412.405 10327.954 2547.898 5498.561 2546.236 5928.628 7115.271 6821.472 6568.535 7195.313 9270.693 11724.011 13750.417 9640.571 6982.898 12318.648 12999.261 15231.692 12642.168 10606.876 8225.118 7092.369 12198.352 4768.747 9811.805 12780.503 0.000 9955.733 12646.131 12171.272 12624.143 13799.910 8027.554 11133.033 11599.016 11496.931 8895.929
5170.094 10803.008 8531.217 15949.086 21203.133 7471.472 2710.080 4331.726 5175.591 8827.192 9170.526 18688.419 4545.934 6150.876 6724.819 13418.010 8156.062 15152.382 7771.707 4170.452 9318.050 6826.387 13996.919 11698.810 1327.630 3271.984 13546.181 14432.714 5864.416 8090.442 3292.691 9418.069 2851.798 4108.691 4473.692 16515.654 7406.023 11501.075 3877.531 2911.598 9955.733 0.000 7524.532 2405.773 6480.878 8597.487 3915.967 15794.488 15262.363 4459.499 5704.993
8621.449 16277.274 3531.768 16668.624 18049.629 14234.532 6800.653 8260.086 10960.131 10614.554 3165.011 17867.140 8320.276 5677.583 11874.446 9282.437 12285.661 16101.616 10144.113 7948.466 7099.447 5924.369 12951.466 17466.943 6497.464 4707.986 20814.061 11178.107 5666.675 1012.439 6681.894 16795.032 6887.121 11632.935 4774.676 16859.197 484.963 11045.308 11347.965 7203.808 12646.131 7524.532 0.000 8779.173 1312.101 1226.435 5273.901 12022.814 21638.343 3144.017 3765.672
7501.719 12242.569 10450.534 18274.095 23572.501 8340.266 2165.269 6664.710 6920.756 11173.217 10943.911 21082.682 6881.518 8468.415 8556.660 15642.210 10181.100 17466.012 10097.195 6531.010 11633.274 9148.163 16402.684 12961.183 3616.181 4075.014 13541.368 16756.163 8186.587 9526.081 2593.495 8117.245 2164.620 3863.569 6677.759 18863.898 8780.440 13906.439 4112.015 1939.609 12171.272 2405.773 8779.173 0.000 7556.419 9676.074 6184.958 18087.190 16055.512 5651.281 7763.353
8281.394 15819.712 4463.119 17067.143 19051.894 13474.776 5530.880 7809.563 10340.984 10678.864 4312.525 18528.891 7900.964 5771.178 11396.203 10317.217 12000.702 16453.170 10084.242 7495.194 7712.557 6151.433 13573.486 16961.898 5575.161 3484.557 19928.438 12115.792 5694.609 2270.400 5386.552 15623.010 5609.750 10577.198 4461.745 17322.356 1534.519 11518.051 10348.187 5923.802 12624.143 6480.878 1312.101 7556.419 0.000 2137.628 4836.267 13050.405 21022.798 2021.732 3804.882
9843.119 17502.952 4234.904 17622.867 18442.383 15432.492 7614.344 9486.510 12179.368 11745.929 3580.913 18628.291 9546.241 6829.002 13100.863 9686.314 13497.966 17084.991 11314.762 9174.901 7973.130 7027.106 13764.933 18693.378 7632.238 5613.318 21976.501 11693.232 6836.457 1594.625 7419.861 17756.837 7681.372 12701.317 5999.702 17772.025 1615.779 11976.185 12451.795 7989.258 13799.910 8597.487 1226.435 9676.074 2137.628 0.000 6499.904 12410.500 22860.629 4148.247 4954.383
3449.770 11020.294 4925.018 13221.793 17430.769 9118.805 5333.099 2994.582 5722.659 6288.712 5762.524 15445.284 3071.445 2298.482 6606.379 9502.128 7174.061 12503.812 5495.229 2681.040 5451.280 2977.467 10569.199 12196.468 2597.562 3899.465 15861.300 10573.961 2025.923 5393.978 5696.714 13045.338 5500.636 7483.398 650.773 13646.360 4940.263 8154.135 6966.016 5750.957 8027.554 3915.967 5273.901 6184.958 4836.267 6499.904 0.000 11904.153 16375.027 3470.728 2057.909
12013.765 17031.893 8590.884 9513.369 6034.277 18180.341 16973.750 12579.827 14928.618 9717.313 8881.503 7944.892 12410.788 9644.128 14382.566 2740.377 13097.756 9588.955 10533.378 12498.527 6481.796 8971.084 5244.985 18327.351 14494.382 15032.422 24654.616 1535.055 9931.347 11049.799 17190.094 24301.997 17127.686 18792.024 11420.590 9026.140 11611.737 6364.660 18100.588 17419.731 11133.033 15794.488 12022.814 18087.190 13050.405 12410.500 11904.153 0.000 22693.638 13666.985 10519.513
13243.431 5821.745 20557.598 15381.459 25132.491 7802.282 17749.964 13431.113 10688.007 13354.348 21604.674 19437.696 13405.899 16780.053 9870.285 21881.817 10159.159 14711.259 12946.491 13733.975 18243.558 16999.776 17800.048 4488.296 15660.009 18436.791 5337.936 21222.044 16627.637 21741.764 18326.127 12383.081 17845.223 12292.896 16922.090 16290.901 21315.262 16348.483 11943.776 17762.434 11599.016 15262.363 21638.343 16055.512 21022.798 22860.629 16375.027 22693.638 0.000 19190.127 18179.538
6843.810 14145.778 5260.148 16485.116 19548.579 11557.195 3765.973 6251.110 8555.078 9711.386 5500.928 18365.901 6377.384 5100.776 9737.744 11000.732 10550.483 15805.676 8960.225 5943.695 7712.112 5648.821 13405.422 15236.545 3602.739 1618.853 17935.134 12558.604 4932.245 3880.882 3763.191 13652.142 3875.868 8556.126 3334.611 16839.499 3129.966 11145.502 8329.577 4196.407 11496.931 4459.499 3144.017 5651.281 2021.732 4148.247 3470.728 13666.985 19190.127 0.000 3362.781
4976.845 12662.480 2884.811 13311.380 16293.392 11103.601 6459.556 4759.067 7634.516 6899.495 3705.927 15021.108 4774.107 1968.117 8321.350 7951.038 8563.399 12676.207 6381.961 4465.364 4361.380 2375.624 10055.539 13894.046 4389.712 4538.267 17882.963 9318.610 1915.042 3607.478 6672.687 15018.467 6611.385 9488.540 1408.427 13607.603 3338.732 7847.395 9000.367 6907.241 8895.929 5704.993 3765.672 7763.353 3804.882 4954.383 2057.909 10519.513 18179.538 3362.781 0.000
NODE_COORD_SECTION
1 -2164.012052 1974.697434
2 5007.817556 -790.295071
3 -9493.429751 2515.784382
4 -2183.797196 -8806.190058
5 -11613.810627 -11918.232370
6 4257.367499 3608.566605
7 -3848.583265 9383.949179
8 -2163.273826 2813.582744
9 758.414441 2985.895695
10 -2483.927376 -1683.507400
11 -10483.710767 2953.676592
12 -5408.370924 -11290.144866
13 -2192.006837 2598.295677
14 -5745.971906 2030.069750
15 1159.327904 1390.895331
16 -10903.314302 -3175.987567
17 668.543719 -444.319388
18 -1886.630662 -8003.756679
19 -2119.974564 -626.720394
20 -2434.182328 2973.226105
21 -7416.966198 -661.859776
22 -6052.352382 1422.903389
23 -6016.507137 -6359.260093
24 6339.699119 -717.392652
25 -3273.432567 6212.602001
26 -5485.485340 7991.499355
27 11004.712881 4733.748758
28 -9904.412901 -5140.457897
29 -5555.331891 2247.328488
30 -10154.261209 5100.748402
31 -4254.492443 9810.843124
32 6299.510121 10924.721953
33 -3847.306623 9554.163903
34 1746.931391 7685.941077
35 -5469.445405 3959.443785
36 -2907.485856 -9363.136689
37 -9568.253409 5595.141455
38 -5164.148289 -4003.027769
39 1545.312735 6916.336728
40 -3601.191902 9759.581773
41 -588.223058 -2660.695202
42 -2325.630617 7142.265038
43 -9768.518093 6036.823113
44 -1684.688950 9461.087706
45 -8802.870779 6925.155699
46 -10899.861528 6510.325917
47 -4845.652609 4144.884934
48 -11240.948227 -5895.485973
49 10826.490901 -601.211246
50 -6783.566305 7024.197839
51 -6846.105354 3661.998566
DEMAND_SECTION
1 0
2 6
3 8
4 10
5 8
6 5
7 6
8 5
9 4
10 3
11 9
12 3
13 4
14 6
15 84
16 6
17 81
18 7
19 8
20 1
21 2
22 10
23 1
24 7
25 85
26 10
27 5
28 9
29 9
30 1
31 6
32 61
33 5
34 84
35 8
36 1
37 7
38 6
39 3
40 4
41 62
42 10
43 9
44 1
45 7
46 8
47 1
48 1
49 6
50 10
51 9
DEPOT_SECTION
1
-1
EOF
