NAME : mamut-paris-n10-poi
COMMENT : Mamut2026 euclidean metric; city paris; 3-decimal seconds/meters; ENU ref in mamut-paris-n10-poi.vrp.json
TYPE : CVRP
DIMENSION : 11
EDGE_WEIGHT_TYPE : EXPLICIT
EDGE_WEIGHT_FORMAT : FULL_MATRIX
CAPACITY : 117
EDGE_WEIGHT_SECTION
0.000 6969.934 2879.713 4324.350 1500.482 879.049 472.687 4826.292 4101.382 2779.683 1088.107
6969.934 0.000 4165.634 5868.402 8061.573 6134.131 7083.160 10031.114 6063.587 6201.102 6794.633
2879.713 4165.634 0.000 4159.112 4173.592 2009.513 3088.645 6234.676 3143.258 2502.966 2635.445
4324.350 5868.402 4159.112 0.000 4210.282 4166.750 4004.035 9129.982 7182.476 6187.426 5131.713
1500.482 8061.573 4173.592 4210.282 0.000 2301.503 1119.882 5567.248 5575.582 4246.101 2508.916
879.049 6134.131 2009.513 4166.750 2301.503 0.000 1182.126 5030.545 3510.713 2254.913 991.284
472.687 7083.160 3088.645 4004.035 1119.882 1182.126 0.000 5210.281 4553.104 3237.730 1560.642
4826.292 10031.114 6234.676 9129.982 5567.248 5030.545 5210.281 0.000 4196.177 3843.544 4039.375
4101.382 6063.587 3143.258 7182.476 5575.582 3510.713 4553.104 4196.177 0.000 1330.688 3072.496
2779.683 6201.102 2502.966 6187.426 4246.101 2254.913 3237.730 3843.544 1330.688 0.000 1741.828
1088.107 6794.633 2635.445 5131.713 2508.916 991.284 1560.642 4039.375 3072.496 1741.828 0.000
NODE_COORD_SECTION
1 -500.874011 70.822412
2 6467.771607 -63.205621
3 2343.367099 521.424603
4 1784.925457 -3600.025640
5 -1537.540196 -1013.967562
6 345.005668 310.016937
7 -607.864337 -389.597205
8 -2479.027745 4473.094962
9 1621.133720 3580.582641
10 827.041372 2512.805079
11 -222.563016 1122.734638
DEMAND_SECTION
1 0
2 4
3 10
4 2
5 59
6 5
7 9
8 2
9 8
10 80
11 82
DEPOT_SECTION
1
-1
EOF
