NAME : mamut-lyon-n50-poi
COMMENT : Mamut2026 shortest metric; city lyon; 3-decimal seconds/meters; ENU ref in mamut-lyon-n50-poi.vrp.json
TYPE : CVRP
DIMENSION : 51
EDGE_WEIGHT_TYPE : EXPLICIT
EDGE_WEIGHT_FORMAT : FULL_MATRIX
CAPACITY : 157
EDGE_WEIGHT_SECTION
0.000 2812.786 5952.598 3065.218 693.948 7047.619 582.525 1150.878 570.439 4821.444 5170.065 3089.415 4383.676 2162.605 2624.747 3155.642 2213.423 1861.718 5211.713 4226.829 5546.711 686.135 1190.200 5225.751 1684.811 1653.475 911.781 1187.284 3801.289 2090.067 6419.107 4626.937 1019.751 4320.973 2100.130 2466.022 3359.025 975.101 4790.855 1144.030 3684.575 1586.054 6100.204 6067.866 2775.903 2374.564 2775.566 6131.237 3055.451 1675.221 3633.823
3267.849 0.000 3746.407 5636.834 2337.599 7767.930 3154.142 3643.609 2283.389 7393.060 7741.682 5103.737 5194.692 4176.927 4638.387 5598.464 4785.040 3875.358 4813.214 5700.094 6602.253 2924.063 2833.850 7797.367 4073.393 3884.201 3347.722 3758.900 3570.964 4651.900 6046.579 6546.007 3437.127 5376.515 4661.963 5037.638 732.497 3536.934 7362.471 3490.022 6256.191 3558.997 7573.468 3861.675 3831.445 4946.181 3453.220 8246.595 5627.068 4120.286 2287.307
6007.001 3711.112 0.000 8375.986 5940.309 9023.997 5893.294 6200.938 5272.423 10132.212 10480.834 7661.066 7957.170 6734.256 7935.726 8155.793 7524.192 7172.697 8048.849 8462.572 8116.040 6057.723 6131.190 10536.519 6995.580 6441.530 6222.550 6498.052 5757.335 7349.806 7672.835 8424.701 5994.456 7305.190 7359.869 7776.790 3473.588 6276.086 10101.623 6047.351 8995.343 6116.326 10335.946 659.878 6388.774 7685.333 5099.324 11442.006 8366.220 6985.989 3543.374
2934.937 5400.748 8583.178 0.000 3316.120 7760.333 2789.042 2987.072 3401.662 2253.296 3226.373 2913.712 4868.298 3325.625 3493.759 2440.276 964.650 2682.490 5867.538 4737.047 6176.330 3197.685 3316.739 3184.317 2311.379 3048.931 3118.298 2184.258 5600.951 1977.964 7957.139 4938.071 3190.198 4950.592 1825.956 1263.128 5989.605 2667.438 2819.585 3086.138 992.867 3528.162 6575.302 8698.446 4177.855 1891.535 4783.479 4228.535 487.303 2159.385 6026.815
1712.363 2237.791 5983.574 3580.287 0.000 8063.748 1598.655 2167.008 842.280 5336.513 5685.134 4105.544 3817.140 3178.735 2419.741 4171.772 2728.493 1656.712 4636.718 3660.293 6562.841 1307.601 615.205 5740.820 1942.973 2669.605 1731.260 1707.427 3226.294 3106.196 5844.112 5643.067 2035.881 5337.103 3116.259 2981.091 2969.664 1991.231 5247.967 2160.160 4199.644 2602.184 5533.667 6098.842 3792.033 2889.633 3487.444 6027.949 3570.521 1901.641 4305.541
7626.757 7902.232 9372.912 7481.767 7590.054 0.000 7513.050 6452.602 6892.179 7964.813 6854.876 4974.800 11288.241 5074.716 9616.091 5206.292 7295.989 8853.062 10924.912 11131.394 1826.374 7677.479 8086.306 6910.562 8588.973 5681.332 7842.306 7374.300 9688.854 6167.166 12158.277 3122.366 6298.819 3026.322 5995.150 6937.992 7664.707 6542.549 10301.352 6124.080 8101.124 5702.763 13004.768 9488.181 5035.155 7204.832 5759.143 11710.302 7472.000 8554.454 5723.026
533.062 2824.635 5994.778 2775.461 588.543 7572.196 0.000 1675.456 612.619 4531.687 4880.308 3613.992 3996.373 2687.182 2237.444 3680.220 1923.666 1474.415 4870.910 3839.526 6071.289 470.107 1202.049 4935.994 1277.591 2178.053 329.256 897.526 3813.138 2614.644 6430.956 5151.515 1544.328 4845.551 2624.707 2176.264 3401.205 1499.678 4501.098 1668.608 3394.818 2110.632 5712.900 6110.046 3300.481 2084.807 3300.144 5841.480 2765.694 1385.464 4158.401
1743.643 3095.366 6227.450 3102.205 1812.156 6307.993 1629.936 0.000 1506.557 4858.431 5069.490 2349.789 5501.885 1422.979 3742.956 2512.846 2250.411 2979.927 5782.821 5345.038 4807.085 1804.343 2308.408 5125.175 2713.171 913.849 1959.191 1498.499 4540.570 1706.858 7016.186 3887.311 280.125 3581.347 1716.921 2252.312 3633.877 800.467 5666.449 404.404 3721.562 846.428 7218.412 6342.718 2036.277 2115.144 2107.378 7005.996 3092.439 2678.652 3116.742
1059.467 2250.075 5382.159 3428.452 907.639 7393.051 945.760 1514.112 0.000 5184.678 5533.299 3452.649 4605.826 2525.839 2963.017 3518.876 2576.657 2199.989 4696.894 4448.979 5892.143 1024.405 1403.891 5588.985 2048.045 2016.709 1275.015 1550.518 3454.643 2453.301 5930.259 4990.171 1382.985 4666.405 2463.364 2829.256 2788.586 1338.335 5154.089 1507.264 4047.809 1949.288 6322.353 5497.427 3121.335 2737.798 2743.110 6494.471 3418.685 2038.455 3561.207
4748.044 7213.855 10396.285 1813.107 5129.227 8510.548 4602.149 4800.179 5214.769 0.000 2478.340 4683.765 6538.558 5100.628 5306.866 3570.436 2777.757 4495.597 7537.798 6407.307 7044.506 5010.792 5129.846 2335.225 4124.487 4843.154 4931.405 3997.366 7414.058 3752.967 9627.399 5594.326 5003.305 5962.443 3600.959 3076.236 7802.712 4480.546 3507.277 4899.245 2117.780 5341.269 8028.407 10511.553 5972.078 3704.642 6577.701 4916.227 1793.564 3972.492 7839.922
5609.228 7958.892 10893.109 3002.935 6068.680 7273.379 5480.138 5014.335 6092.757 2418.533 0.000 4120.045 7854.915 4960.399 6496.694 3006.716 3736.373 5685.425 8854.155 7723.664 5955.540 5950.245 6255.449 278.743 5314.314 4702.925 5809.394 4885.656 8603.886 3970.613 10943.756 4505.361 5217.461 4873.478 3818.605 3676.395 8497.403 5056.548 5554.045 4761.071 3441.378 5203.095 9561.919 11008.378 5831.849 4461.310 6437.472 6962.995 2993.168 5162.320 7765.485
2820.244 4579.149 7513.366 2644.245 2888.758 5117.357 2704.214 1634.592 2765.249 4400.471 4054.183 0.000 6578.486 1114.925 4819.557 1261.164 2407.878 4056.528 7165.959 6421.639 3470.453 2880.945 3385.010 4109.869 3765.640 1133.362 3033.470 2550.967 5929.902 1279.055 8399.324 2412.087 1837.718 2244.715 1107.039 2049.881 5117.660 1719.216 5463.830 1381.328 3263.602 1736.688 8295.014 7628.635 2052.281 2323.804 2965.098 6872.781 2634.479 3731.121 4297.074
4296.842 5246.860 8014.099 4993.070 3873.436 10962.270 4150.948 5439.237 4323.901 6521.280 7704.019 7377.773 0.000 6450.963 3470.079 6996.936 4931.643 3211.469 999.241 1314.547 9461.362 3755.001 3453.906 7661.962 3565.377 5941.833 4279.375 4097.114 2982.889 5863.344 3088.842 8915.296 5308.109 8235.624 5941.423 5339.858 5978.734 5005.496 5778.058 5432.388 5186.058 5874.412 2847.607 8129.367 6690.554 5248.401 6312.329 6072.456 4946.133 3110.627 7130.426
3044.140 4803.045 7406.300 2839.273 3112.654 4973.538 2928.110 1858.488 2989.145 4595.499 4322.753 926.810 6802.382 0.000 5043.453 1719.829 2465.498 4280.424 7389.855 6645.535 3403.049 3104.841 3608.905 4378.439 3989.536 1357.258 3257.366 2774.863 6153.797 1336.675 8623.220 2464.332 2061.614 2177.310 1164.659 2107.501 5341.556 1943.111 5556.449 1605.224 3458.630 1960.584 8518.909 7521.568 1568.372 2501.244 3115.771 6965.399 2829.507 3955.017 4000.518
2677.559 4533.613 8279.397 3852.193 2531.605 9716.693 2531.664 3819.953 2982.070 5500.206 6394.170 5758.489 4235.960 4831.679 0.000 5347.204 3367.979 1280.063 5062.562 3979.897 8215.786 2413.170 2112.074 6449.855 1831.406 4322.550 2860.920 2427.142 4396.286 4213.612 7014.104 7296.012 3688.825 6990.048 4291.692 3690.126 5265.487 3324.844 3823.698 3813.104 4164.984 4255.128 5017.064 8394.665 5444.978 3598.669 5444.641 4019.024 3842.427 1196.007 6302.897
3302.509 5131.717 8065.935 2377.282 3441.326 5494.025 3173.419 2187.160 3317.817 3691.820 2793.019 1113.329 7102.664 2130.373 5360.607 0.000 2355.293 4597.578 7718.527 6971.413 3847.121 3433.513 3937.578 2848.704 4231.690 1875.750 3502.675 3017.018 6482.470 1236.837 8951.892 2608.863 2390.286 2621.383 1084.829 1997.295 5670.228 2229.373 5196.867 1933.896 2996.639 2375.920 8809.668 8181.203 3004.674 2451.429 3610.298 6605.817 2367.515 4197.171 4938.310
2252.876 4718.687 7901.116 851.795 2634.059 7401.812 2106.981 2305.011 2719.600 2608.020 3454.396 2841.311 5131.387 2757.272 3591.585 2429.941 0.000 2780.316 6130.628 5000.136 5831.323 2515.623 2801.665 3510.081 2409.206 2375.753 2436.237 1502.197 5451.597 1508.245 8069.415 4892.606 2508.137 4605.584 1374.428 772.863 5307.544 1985.377 3568.970 2404.077 1471.151 2846.101 6838.392 8016.385 3504.678 1209.473 4110.301 4977.921 842.028 2257.211 5344.754
1894.696 3927.472 7542.936 3069.330 1925.463 8933.830 1748.801 3037.090 2361.420 4741.552 5611.307 4975.626 3814.360 4048.816 1140.725 4564.341 2585.116 0.000 4688.897 3657.513 7432.923 1807.028 1505.933 5666.993 1048.543 3539.687 2078.057 1644.279 3790.145 3430.749 6407.963 6513.149 2905.962 6207.185 3508.829 2907.263 4659.345 2541.981 4021.692 3030.241 3406.331 3472.265 5431.753 7658.205 4662.115 2815.806 4661.778 4936.629 3059.564 413.145 5520.035
5326.656 4776.969 8166.732 6022.884 4903.250 10492.378 5180.762 6032.827 5002.737 7551.093 8733.832 7492.954 1029.814 6566.145 4499.892 7987.682 5961.456 4241.282 0.000 2014.037 8991.471 4784.815 4483.720 8691.776 4595.191 6273.419 5309.189 5126.928 3135.522 6893.158 2701.692 8935.224 5826.345 7765.733 6971.237 6369.672 5508.842 6035.310 6807.872 5879.240 6215.872 5948.215 3253.629 8282.000 6220.663 6278.214 5842.437 6551.973 5975.947 4140.441 6660.535
4722.799 5745.271 8512.510 5419.027 4299.393 11460.680 4576.904 5865.193 4749.858 6947.236 8129.975 7803.730 930.576 6876.920 3896.035 7422.893 5357.599 3637.425 1699.893 0.000 9959.773 4180.958 3879.862 8087.919 3991.333 6367.790 4705.332 4523.071 3481.300 6289.300 3789.494 9341.252 5734.066 8734.035 6367.380 5765.814 6477.144 5431.453 6204.015 5858.345 5612.015 6300.369 2300.727 8627.778 7188.965 5674.357 6810.740 5257.837 5372.090 3536.584 7628.837
5886.550 6787.001 8257.681 5702.617 5955.064 1846.635 5770.520 4700.898 5290.753 6495.035 5385.098 3160.637 9644.792 3259.995 7885.863 3427.142 5481.267 7122.834 9323.485 9487.945 0.000 5947.251 6451.316 5440.784 6831.946 3866.611 6099.776 5617.273 8087.428 4352.445 10556.850 1489.543 4553.760 1247.172 4180.429 5123.270 6549.476 4785.521 8522.202 4379.021 6321.974 3957.704 11361.319 8372.950 3784.666 5390.110 4595.627 9931.152 5692.851 6797.427 4607.796
1829.100 2354.528 6100.311 3697.024 118.435 8180.485 1715.392 2283.745 959.018 5453.250 5801.871 4222.282 3933.877 3295.472 2536.478 4288.509 2845.230 1773.449 4753.455 3777.030 6679.578 0.000 731.942 5857.557 2059.710 2786.342 1847.997 1824.164 3343.031 3222.933 5960.849 5759.804 2152.618 5453.840 3232.997 3097.828 3086.401 2107.968 5364.704 2276.897 4316.381 2718.921 5650.404 6215.579 3908.770 3006.371 3604.181 6144.687 3687.258 2018.378 4422.278
2111.603 2845.636 6591.419 3784.735 1236.951 8671.594 1965.709 2774.853 1450.126 5540.961 5889.583 4713.390 3337.858 3786.580 1940.459 4779.617 2932.941 1177.431 4212.395 3181.011 7170.686 1569.762 0.000 5945.268 1786.667 3277.450 2094.136 1911.875 3009.798 3709.025 5627.616 6250.912 2643.726 5944.948 3724.105 3185.539 3577.509 2599.076 5030.907 2768.005 4404.092 3210.029 5054.385 6706.687 4399.878 3094.082 4095.289 5548.668 3774.969 1422.359 4913.386
5515.698 7865.363 10799.580 3022.982 5975.151 7164.908 5386.608 4920.806 5999.228 2438.580 1214.874 4026.515 7874.962 4866.870 6516.742 2913.186 3756.421 5705.472 8874.203 7743.711 5862.011 5856.716 6275.497 0.000 5334.362 4609.395 5715.864 4792.127 8623.934 3877.083 10963.804 4411.832 5123.932 4779.948 3725.076 3582.865 8403.874 4963.019 5574.092 4667.541 3461.426 5109.565 9581.967 10914.848 5738.320 4367.781 6343.943 6983.043 3013.216 5182.368 7671.955
1552.451 3322.489 6974.960 3127.157 1270.010 8591.586 1406.557 2694.845 1592.802 4883.383 5330.431 4633.382 3313.787 3706.572 1231.620 4283.465 2373.789 468.591 4188.324 3156.940 7090.679 1151.575 1005.360 5386.116 0.000 3197.442 1548.276 1352.723 3289.572 3149.873 5907.390 6170.904 2563.718 5864.940 3227.953 2626.387 4054.362 2261.105 4233.640 2687.997 3618.278 3130.021 5030.315 7090.229 4319.870 2534.930 4319.534 4839.828 3117.391 625.092 5154.009
2408.413 3903.032 6616.173 2899.034 2476.926 5482.668 2292.382 1222.760 2314.223 4655.260 4495.075 1435.939 6166.654 509.130 4407.725 1892.151 2047.240 3644.696 6380.290 6009.807 3912.178 2469.113 2973.178 4550.761 3353.808 0.000 2621.638 2139.135 5144.233 1457.568 7613.655 2973.462 1357.482 2686.440 1336.982 2049.140 4441.543 1307.384 5616.210 969.496 3518.391 761.426 7883.182 6731.441 1256.535 1911.972 1989.835 7025.160 2889.268 3319.289 3321.812
1036.352 2639.292 5779.104 3278.751 520.454 7399.812 890.457 1503.072 396.945 5034.977 5383.598 3441.608 4210.182 2514.798 2451.253 3507.836 2426.956 1688.224 5038.219 4053.335 5898.905 512.641 1016.706 5439.284 1661.971 2005.669 0.000 1400.817 3627.795 2442.260 6245.613 4979.131 1371.944 4673.167 2452.323 2679.555 3185.531 1327.294 4966.965 1496.223 3898.108 1938.247 5926.710 5894.372 3128.097 2588.097 3127.760 6059.462 3268.985 1844.725 3958.152
763.935 3280.092 6412.176 2291.835 1223.388 7339.599 634.845 1442.859 1247.465 4048.061 4325.649 3381.395 4575.859 2454.586 2709.805 3039.622 1440.041 1946.776 5450.396 4419.012 5838.692 1104.953 1836.894 4381.334 1566.552 1945.456 964.101 0.000 4447.984 1911.683 7065.802 4918.918 1311.731 4612.954 1984.110 1441.942 3818.603 968.803 4647.667 1436.011 2911.192 1878.035 6292.386 6527.444 3067.884 1304.774 3067.547 5988.049 2282.069 1532.033 3925.804
4349.387 3594.423 5967.853 6022.519 3326.680 9494.017 4203.492 4864.583 3539.855 7778.745 8127.366 6494.593 3281.152 5567.783 4861.973 6869.347 5170.724 4098.944 3289.264 3786.554 7993.109 3807.545 3057.436 8183.052 4385.205 5275.058 4331.920 4149.658 0.000 5803.771 3124.473 7936.863 4733.455 6767.371 5813.834 5423.323 4326.296 4688.805 7690.199 4857.734 6641.876 4949.853 5659.928 6083.121 5222.301 5331.865 4844.076 8470.181 6012.752 4343.873 5662.173
2313.531 4566.607 7610.116 1760.625 2772.983 6141.426 2184.441 1548.240 2678.897 3516.851 3466.611 1580.925 6131.330 1687.197 4371.629 1169.554 1386.849 3608.600 7055.351 6000.079 4570.936 2654.548 3298.658 3522.296 3242.712 1419.931 2513.696 2028.039 5909.747 0.000 8487.427 3632.220 1751.366 3345.198 114.042 1028.852 5105.118 1426.609 4477.800 1478.077 2379.982 1920.101 7838.334 7725.384 2548.855 1462.450 3154.479 5886.751 1750.858 3208.193 4482.491
7060.698 6112.132 8415.777 7918.031 6037.991 11827.542 6914.803 7367.990 6251.166 9446.240 10628.979 8828.118 2924.960 7901.308 6395.039 9322.845 7856.603 6136.429 2231.364 3909.183 10326.634 6518.856 5768.747 10586.923 6490.337 7608.583 7043.231 6860.969 2962.220 8515.082 0.000 10270.388 7161.508 9100.896 8525.145 8134.633 6844.006 7400.116 8703.019 7214.404 8111.018 7283.379 5148.775 8531.045 7555.826 8043.176 7177.601 8447.119 7871.094 6035.588 7995.698
5107.308 6488.536 8494.670 4787.402 5175.822 3215.734 4991.278 3921.656 4899.726 5200.957 4091.021 2287.064 8865.550 2868.969 7106.621 2511.928 4694.942 6343.592 8932.459 8708.703 1572.372 5168.009 5672.074 4146.706 6052.704 3420.426 5320.534 4838.031 7696.401 3566.119 10165.824 0.000 4124.782 1085.025 3394.103 4336.945 6786.465 4006.280 7606.987 3668.392 5406.759 3566.677 10582.078 8609.938 3393.639 4610.868 4542.004 9015.938 4777.636 6018.185 4844.784
1652.687 2827.228 5959.312 3215.592 1721.200 6341.158 1538.979 671.378 1238.419 4971.818 5182.877 2463.176 5410.929 1536.366 3652.000 2626.233 2363.798 2888.971 5514.683 5254.082 4840.250 1713.387 2217.452 5238.563 2622.215 1027.236 1868.235 1407.542 4272.432 1820.245 6748.048 4000.698 0.000 3614.512 1830.308 2365.699 3365.739 901.501 5703.330 517.791 3834.949 860.572 7127.456 6074.580 2069.442 2228.531 2042.942 7043.712 3205.826 2587.696 2901.199
4771.408 5764.419 7627.091 4679.411 4839.921 3242.758 4655.377 3585.755 4175.610 5644.311 4659.664 2045.494 8529.649 2144.852 6770.720 2415.210 4366.125 6007.691 8208.342 8372.802 1595.854 4832.108 5336.173 4715.350 5716.803 2751.468 4984.633 4502.131 6972.285 3237.302 9441.707 1179.458 3438.617 0.000 3065.286 4008.128 5918.886 3670.379 7457.076 3263.879 5298.768 2842.561 10246.177 7742.359 2669.523 4274.968 3759.993 8866.026 4669.644 5682.284 3977.205
2245.711 4498.788 7502.839 1674.614 2705.163 6027.384 2116.621 1480.420 2611.077 3430.840 3374.816 1466.883 6063.510 1573.155 4303.809 1077.760 1300.839 3540.780 6987.531 5932.259 4456.894 2586.728 3230.838 3430.502 3174.892 1312.654 2445.876 1960.219 5841.927 180.039 8388.796 3518.178 1683.546 3231.156 0.000 942.842 5037.299 1358.789 4391.790 1370.800 2293.971 1812.824 7770.514 7618.107 2441.579 1394.631 3047.202 5800.740 1664.848 3140.373 4375.214
1932.833 4448.990 7581.074 1313.993 2392.286 6628.950 1803.743 1852.767 2416.363 3070.219 3174.558 2068.449 5729.918 2174.720 3990.931 1657.078 940.218 3227.903 6674.653 5598.667 5058.460 2273.850 3005.792 3230.244 2862.014 1907.455 2132.999 1647.342 5616.882 735.383 8234.700 4119.743 2055.893 3832.722 601.566 0.000 4987.501 1533.134 4031.169 1951.833 1933.350 2393.857 7436.922 7696.342 3036.379 1069.889 3642.002 5440.119 1304.226 2827.495 4892.510
3808.596 758.017 3533.041 6177.581 3058.654 7554.564 3694.888 4253.458 2824.136 7933.806 8282.428 5824.792 5915.748 4897.983 5359.442 6258.222 5325.786 4596.414 5534.270 6421.150 6646.608 3464.809 3554.906 8338.114 4614.139 4605.257 3888.469 4299.646 4292.020 5192.646 6767.635 6955.269 4122.330 5835.757 5202.709 5578.384 0.000 4077.680 7903.218 4211.078 6796.937 4280.053 8294.524 3648.309 4552.501 5486.927 3629.891 8967.651 6167.814 4787.584 2073.941
1115.557 3348.551 6480.635 2428.796 1518.851 6876.973 986.467 645.979 1395.342 4185.022 4462.610 2846.047 4982.840 1991.959 3173.655 2434.677 1577.002 2410.626 5857.377 4825.993 5376.066 1456.574 2015.103 4518.295 2047.893 1482.830 1315.723 833.221 4626.192 1369.101 7244.010 4456.292 849.105 4150.328 1379.164 1578.903 3887.062 0.000 4937.164 973.385 3048.153 1415.408 6699.368 6595.903 2605.258 1441.735 2676.358 6276.711 2419.030 2013.374 3685.722
4135.923 6601.734 9784.163 3619.033 4517.106 10873.524 3990.028 4870.869 4602.647 4273.713 6226.214 6265.964 5858.227 5912.152 3521.261 5792.527 4018.126 3638.227 6760.396 5677.731 9315.201 4398.670 4295.130 6184.158 3289.770 5479.381 4319.284 3815.928 6579.342 4998.723 8849.997 8290.323 5073.995 8089.463 5076.802 4475.237 7190.591 4551.236 0.000 4969.935 2955.624 5411.959 5120.879 9899.432 6601.809 4383.779 6761.787 2385.646 3572.096 3115.123 7741.732
1813.705 3287.494 6221.711 3010.851 1882.218 5903.589 1699.997 628.052 1698.684 4767.077 4711.366 1945.385 5571.946 1018.575 3813.017 2108.442 2159.057 3049.988 5874.303 5415.099 4402.681 1874.405 2378.470 4767.052 2764.423 509.445 2029.253 1549.751 4638.246 1582.309 7107.669 3482.907 549.407 3176.943 1553.272 2160.958 3826.005 717.999 5575.095 0.000 3630.208 442.024 7288.474 6336.979 1631.873 2023.789 1791.851 6914.642 3001.085 2729.904 3094.086
3683.359 6149.171 9331.600 748.422 4064.543 8508.756 3537.465 3735.494 4150.084 2120.974 3374.234 3662.135 5250.530 4074.048 4167.337 3188.698 1713.073 3356.067 6249.771 5119.279 6924.752 3946.107 3990.317 3332.178 2984.957 3797.353 3866.721 2932.681 6274.529 2726.387 8339.372 5686.494 3938.620 5699.014 2574.379 2011.551 6738.027 3415.861 2219.592 3834.560 0.000 4276.584 6740.722 9446.868 4926.278 2639.957 5531.901 3628.542 629.123 2832.963 6775.237
1935.491 3315.539 6249.756 3132.638 2004.005 5921.102 1821.784 749.839 1726.730 4888.864 5064.489 2298.507 5693.733 1371.698 3934.804 2461.564 2280.844 3171.775 5902.349 5536.886 4420.194 1996.192 2500.257 5120.174 2886.210 862.568 2151.040 1671.538 4666.292 1737.291 7135.714 3836.030 596.056 3194.456 1747.354 2282.745 3854.050 839.786 5696.882 421.318 3751.995 0.000 7410.261 6365.025 1649.386 2145.576 1762.344 7036.429 3122.872 2851.691 3094.320
5482.905 6883.662 9650.901 6391.419 5059.499 12522.039 5337.010 6625.299 5509.964 7919.628 9102.367 8563.836 2068.967 7637.026 4448.431 8213.919 6304.243 4397.531 2895.568 1812.903 11021.132 4941.064 4639.968 9060.311 4963.726 7127.896 5465.438 5283.177 4619.691 7080.327 4985.169 10101.358 6494.172 9795.394 7158.406 6556.841 7615.536 6191.559 5313.861 6618.451 6584.407 7060.475 0.000 9766.169 8250.324 6465.384 7949.131 3975.724 6344.482 4508.976 8767.228
6266.989 3971.100 556.025 8635.974 6200.296 9283.984 6153.282 6460.926 5532.411 10392.200 10740.821 7921.053 8217.158 6994.244 8195.714 8415.781 7784.180 7432.685 8308.837 8722.560 8376.028 6317.710 6391.178 10796.507 7255.567 6701.518 6482.538 6758.040 6017.322 7609.793 7932.823 8684.689 6254.444 7565.177 7619.856 8036.778 3733.575 6536.074 10361.611 6307.339 9255.331 6376.314 10595.934 0.000 6648.762 7945.321 5359.311 11701.993 8626.208 7245.977 3803.362
3601.070 4455.301 6704.477 3613.781 3564.366 4271.715 3487.362 2426.914 2866.491 5370.007 5023.719 1758.152 7262.553 1059.416 5590.403 2230.700 3280.689 4827.374 6899.224 7105.706 2770.808 3651.791 4060.618 5079.404 4563.285 1850.358 3816.618 3348.613 5663.166 2151.866 8132.589 2714.562 2273.131 1545.070 1979.850 2922.691 4993.812 2516.861 6371.640 2098.392 4233.138 1677.075 8979.080 6819.745 0.000 3189.531 2441.004 7780.590 3604.014 4528.766 3298.695
2047.098 4563.254 7695.338 2171.215 2506.550 7382.755 1918.008 1967.031 2530.627 3927.441 4205.029 3027.316 5853.033 2409.217 4105.196 2615.946 1319.421 3342.167 6788.918 5721.782 5812.266 2388.115 3120.057 4260.714 2976.279 2027.698 2247.263 1761.606 5731.146 1479.347 8348.964 4873.549 2170.157 4586.527 1560.433 1321.322 5101.766 1647.398 4888.391 2066.097 2790.572 2508.121 7560.037 7810.607 3156.623 0.000 3762.246 6297.342 2161.449 2941.760 5006.774
3040.974 3397.173 4867.853 4341.745 3004.271 6007.535 2927.267 1958.946 2306.396 6097.971 6160.350 3008.111 6296.008 2081.302 5030.308 3557.425 3489.951 4267.279 5908.337 6545.611 4506.628 3091.696 3500.523 6216.035 4029.553 1788.576 3256.523 2880.645 4672.280 2946.398 7141.702 4450.381 1805.163 3280.890 2956.461 3491.852 3159.648 2048.893 6905.989 1630.425 4961.102 1545.177 8418.985 4983.122 1735.820 3354.684 0.000 8245.536 4331.979 4019.962 1474.291
5984.164 8449.975 11632.405 4418.537 6365.347 11912.089 5838.269 6719.111 6450.889 5073.217 7025.719 7065.468 5777.067 7477.381 4149.803 6592.031 5036.252 5396.083 6603.668 5521.003 10328.085 6246.912 6143.371 6983.662 5138.011 7120.532 6167.525 5664.170 8327.791 6129.720 8693.269 9089.827 6922.237 9102.347 5977.712 5414.884 9038.832 6399.477 2231.275 6818.177 3755.128 7260.201 4133.417 11747.673 8249.457 5963.136 8610.028 0.000 4371.600 4963.364 9589.973
3054.236 5520.048 8702.477 119.299 3435.419 7879.632 2908.341 3106.371 3520.961 1911.685 3063.959 3033.011 4987.597 3444.925 3613.058 2559.575 1083.950 2801.789 5986.837 4856.346 6295.629 3316.984 3436.039 3021.903 2430.679 3168.230 3237.597 2303.558 5720.250 2097.263 8076.438 5057.371 3309.497 5069.891 1945.255 1382.428 6108.904 2786.738 2848.715 3205.437 629.123 3647.461 6694.601 8817.745 4297.155 2010.834 4902.778 4257.666 0.000 2278.684 6146.114
1481.551 3947.362 7129.792 2656.186 1862.734 8520.685 1335.656 2623.945 1948.276 4328.408 5198.162 4562.482 3585.023 3635.672 1622.028 4151.197 2171.972 810.759 4584.263 3453.772 7019.778 1744.299 1640.758 5253.848 635.398 3126.542 1664.912 1231.134 3924.970 3017.605 6542.788 6100.004 2492.818 5794.040 3095.684 2494.119 4536.219 2128.837 3608.548 2617.097 2993.186 3059.121 5292.027 7245.060 4248.970 2402.661 4248.633 4948.930 2646.419 0.000 5106.890
4140.115 2329.294 3799.975 5730.604 4048.978 5667.269 4026.407 3238.497 3405.536 7486.830 7549.209 4396.971 7003.411 3470.161 6129.448 4946.284 4878.810 5366.419 6615.740 7508.813 4759.312 4190.836 4545.229 7604.894 5128.693 3177.435 4355.663 4179.005 5379.683 4335.257 7849.105 5067.973 3032.015 3948.462 4345.320 4880.711 2091.770 3437.752 8234.737 3019.284 6349.961 2934.036 9382.187 3915.243 3124.679 4743.543 1743.037 9575.119 5720.838 5119.103 0.000
NODE_COORD_SECTION
1 135.757630 21.597263
2 -1204.859930 -1635.258778
3 -2021.314548 -4931.426335
4 2001.538258 1384.309677
5 -366.301272 187.392840
6 4058.105162 -4693.413840
7 92.131381 266.185699
8 721.423571 -388.459841
9 -166.822797 -250.266483
10 3501.261943 2185.386360
11 4441.758408 867.518115
12 2164.506745 -1044.678501
13 -2535.928796 1984.964514
14 1800.109435 -1165.910798
15 -33.829315 1846.325402
16 2731.409381 -528.635912
17 1553.680396 844.508492
18 -201.036898 1316.847140
19 -3142.625500 1663.415544
20 -2401.046089 2136.315364
21 3498.122079 -3494.167434
22 -272.158515 167.381619
23 -585.825173 510.979759
24 4611.649023 797.007960
25 -78.552876 1110.867142
26 1361.783948 -914.453373
27 24.137676 -12.926301
28 483.479718 503.679743
29 -2435.111645 -170.233540
30 1800.826777 -14.644165
31 -4846.838953 690.063500
32 3729.329545 -2315.006685
33 549.657665 -446.551437
34 2921.168488 -2491.816267
35 1840.124737 -96.269832
36 1749.367633 489.546739
37 -1504.565529 -1866.099936
38 804.293681 -144.205158
39 1669.216711 3558.158350
40 925.524907 -664.465151
41 2090.053894 2037.426795
42 993.827510 -822.993924
43 -1623.612128 3471.340320
44 -2417.870859 -5002.140366
45 1518.828426 -1856.982479
46 1654.272696 515.051121
47 330.434530 -1977.941645
48 1259.696068 5029.118899
49 2068.939970 1446.896284
50 143.474388 1415.488353
51 -397.461906 -3019.777174
DEMAND_SECTION
1 0
2 2
3 4
4 3
5 7
6 2
7 6
8 2
9 3
10 7
11 9
12 10
13 3
14 2
15 6
16 8
17 3
18 8
19 73
20 7
21 2
22 79
23 10
24 4
25 7
26 9
27 3
28 7
29 55
30 70
31 7
32 4
33 87
34 3
35 4
36 3
37 4
38 2
39 8
40 5
41 9
42 9
43 5
44 8
45 1
46 8
47 7
48 4
49 4
50 8
51 8
DEPOT_SECTION
1
-1
EOF
