NAME : poryos-tokyo-n100-poi
COMMENT : Poryos2026 fastest metric; city tokyo; 3-decimal seconds/meters; ENU ref in poryos-tokyo-n100-poi.vrp.json
TYPE : CVRP
DIMENSION : 101
EDGE_WEIGHT_TYPE : EXPLICIT
EDGE_WEIGHT_FORMAT : FULL_MATRIX
CAPACITY : 177
EDGE_WEIGHT_SECTION
0.000 183.764 906.307 103.676 725.024 201.022 200.858 386.084 446.305 245.717 108.448 251.724 312.515 421.719 304.606 279.579 311.750 528.840 251.213 323.958 261.634 191.737 550.454 229.747 434.590 500.750 458.529 525.371 344.873 305.906 215.948 459.317 550.707 608.577 249.253 768.895 195.553 435.474 309.556 463.904 106.150 344.982 349.805 365.757 318.474 246.462 689.652 110.878 236.235 219.550 237.843 543.507 372.351 299.003 446.740 170.087 173.224 137.585 159.842 414.999 441.854 139.827 247.092 160.598 466.457 273.502 228.770 613.124 158.666 173.159 275.377 247.593 674.302 314.654 777.962 151.788 182.230 198.988 168.255 113.484 237.764 243.624 68.602 190.334 95.802 687.573 237.853 415.886 583.644 310.890 162.705 212.348 398.163 442.857 180.399 420.677 209.925 273.678 152.663 245.585 159.567
164.346 0.000 1002.471 168.434 683.964 335.103 56.001 515.517 580.386 234.501 242.529 240.509 446.597 276.862 334.720 346.917 219.275 436.545 330.529 253.247 340.179 321.169 684.535 102.786 444.616 380.613 356.814 524.530 478.955 213.431 295.263 314.459 523.833 610.887 122.293 799.155 50.696 308.514 443.637 494.018 240.231 224.052 479.238 373.465 452.555 235.247 823.733 244.959 143.163 74.692 371.924 500.784 373.106 329.117 456.766 212.357 215.494 182.566 289.275 270.142 399.131 181.619 381.173 118.023 600.538 352.818 362.851 747.205 288.099 215.429 213.983 190.883 808.383 193.724 874.127 285.869 37.373 333.069 302.336 182.772 371.845 237.011 210.334 324.415 212.374 821.654 116.923 271.028 486.827 444.971 204.975 101.361 355.440 348.286 309.832 323.860 90.216 335.906 286.744 124.656 12.664
1010.504 1125.114 0.000 1019.830 1252.452 949.517 1142.207 1127.144 983.236 985.007 948.658 995.332 834.533 1363.068 951.336 1140.306 1129.656 1427.448 811.209 1231.049 1122.360 1052.463 574.163 1147.657 1333.198 1290.098 1088.759 1413.154 926.040 1124.363 885.585 1400.666 1400.847 1036.917 1167.164 1126.769 1136.902 1353.337 977.790 987.422 942.680 1176.594 1103.346 1012.488 840.491 999.608 1065.834 960.888 1148.721 1138.701 978.282 1377.798 1270.959 927.913 1345.348 965.537 968.674 1050.071 977.552 1356.348 1282.494 1052.313 833.490 1069.914 816.925 810.976 977.266 942.182 976.376 968.609 1173.986 1066.635 1050.485 1137.831 332.992 924.165 1123.579 979.695 950.478 937.897 905.921 1142.233 994.193 938.829 1004.034 987.790 1099.804 1357.235 1253.450 832.907 958.155 1173.199 1258.890 1341.465 983.096 1210.026 1170.777 897.115 925.039 1115.938 1100.916
103.643 188.707 917.924 0.000 764.348 218.984 205.801 364.383 453.042 252.863 143.132 258.870 347.200 391.333 353.081 257.878 318.896 440.569 295.298 246.392 239.932 170.035 569.963 234.689 412.889 507.896 475.531 503.670 379.558 313.052 269.261 454.433 516.978 657.053 254.196 812.979 196.412 440.417 334.120 512.380 140.835 349.924 328.104 391.826 353.158 253.609 724.336 145.563 138.980 224.492 272.527 493.929 350.650 347.479 425.038 228.526 231.663 40.330 138.141 361.201 392.276 42.572 281.776 163.515 501.141 317.587 235.565 647.808 136.965 231.598 207.128 254.739 708.987 319.596 789.579 184.931 187.172 189.884 179.357 184.890 272.449 201.641 61.746 225.018 61.240 722.257 242.795 411.002 590.790 345.575 221.144 182.109 348.585 354.586 158.698 427.823 198.554 326.991 187.347 250.528 164.509
729.718 695.498 1160.211 771.091 0.000 794.118 676.311 981.150 1000.169 545.652 718.446 544.912 882.369 754.315 497.362 900.293 522.066 928.098 631.909 870.797 882.348 812.451 994.680 670.401 1008.358 473.699 357.304 1099.139 916.965 524.978 572.363 791.927 1124.475 253.694 638.643 454.014 691.824 665.745 881.647 437.648 704.651 611.708 957.352 421.619 888.327 562.128 1261.743 720.876 795.992 659.306 830.939 1135.155 952.377 530.266 1020.508 636.494 641.417 785.223 780.556 747.594 1051.960 784.276 737.253 697.107 1038.549 668.366 821.866 1185.216 779.380 632.280 866.811 592.221 1246.394 559.418 1031.867 745.958 678.501 793.157 762.425 641.029 809.856 889.839 776.084 783.429 785.925 1259.664 610.537 748.497 312.339 880.744 630.899 745.129 1008.269 856.294 789.704 454.461 731.344 539.327 746.832 623.089 683.682
209.324 362.538 837.545 219.930 794.801 0.000 379.631 216.150 261.541 357.528 135.895 378.055 196.265 600.492 360.012 252.870 470.660 626.176 218.056 364.976 234.924 163.504 481.549 408.520 446.099 631.103 532.075 508.987 203.595 465.367 255.865 638.090 496.479 614.920 428.026 731.944 374.327 614.248 142.619 484.194 129.916 517.598 192.352 405.446 198.306 372.129 546.320 154.457 348.821 398.323 84.509 473.430 408.138 323.245 492.575 306.542 309.678 250.171 86.232 571.043 371.777 243.759 157.011 339.372 325.611 240.345 44.007 469.793 85.056 309.613 307.799 407.639 530.971 478.835 709.201 82.041 361.003 40.716 104.903 241.568 147.069 308.310 204.640 57.944 194.454 544.242 416.626 594.659 661.201 194.640 299.159 391.121 350.940 540.193 83.753 551.030 388.699 278.055 77.757 424.359 338.340
194.889 50.841 1033.014 198.976 671.509 365.646 0.000 546.059 610.928 265.044 273.072 271.051 477.139 259.670 365.263 377.460 248.527 419.354 361.071 283.789 370.721 351.712 715.078 85.695 448.599 368.158 344.359 539.380 509.497 243.974 325.806 297.268 554.376 598.433 109.838 808.821 21.271 296.059 474.179 505.824 270.774 240.711 509.781 404.007 483.098 265.790 854.275 275.502 173.706 57.501 402.467 531.327 386.726 359.660 460.749 242.900 246.036 213.108 319.817 252.950 429.674 212.161 411.715 148.565 631.081 383.360 393.394 777.748 318.641 245.971 244.526 221.426 838.926 224.267 904.669 316.412 24.649 363.611 332.879 213.314 402.388 267.553 240.877 354.957 242.917 852.197 147.466 253.837 474.372 475.514 235.518 84.115 385.983 331.095 340.375 311.405 70.330 366.449 317.286 155.199 43.207
385.998 536.421 1007.760 365.079 974.927 213.462 553.514 0.000 237.356 551.351 323.450 571.878 339.618 703.820 539.213 277.166 659.671 689.811 396.468 414.680 259.221 210.308 625.927 582.403 330.930 824.926 712.201 393.818 258.999 653.827 439.870 773.558 381.310 793.332 601.910 910.356 544.126 788.131 198.023 662.606 323.739 697.638 69.776 589.422 341.660 565.953 519.248 322.584 471.927 572.206 277.784 358.261 393.674 507.221 455.256 494.416 497.553 395.321 231.382 673.688 256.608 388.908 337.560 511.229 419.470 418.757 205.643 460.477 228.170 497.488 357.503 595.514 503.898 666.710 879.416 277.829 534.886 231.224 280.585 429.279 340.893 368.592 349.789 251.767 339.603 526.225 590.509 736.465 841.327 337.993 487.034 532.039 235.771 619.347 251.939 744.853 547.734 462.031 273.545 598.242 512.223
432.403 585.617 873.588 464.247 998.057 267.597 602.710 249.974 0.000 562.113 358.973 582.640 252.750 823.571 563.446 432.949 675.245 846.211 409.624 571.080 415.004 343.583 492.930 631.599 487.330 835.688 735.332 550.218 176.318 669.952 459.121 861.169 537.709 817.564 651.105 934.588 597.405 837.326 193.847 686.839 352.994 722.183 226.176 608.703 258.709 576.714 345.250 377.536 593.138 621.402 284.562 514.660 550.074 526.502 611.656 511.127 514.263 494.488 330.549 815.360 413.008 488.076 341.048 562.450 258.525 431.913 259.777 268.722 329.373 514.198 513.903 612.225 329.900 683.420 745.243 319.694 584.082 285.358 343.478 464.647 286.144 524.992 441.292 289.748 438.771 343.171 639.705 817.738 864.457 251.125 503.745 614.200 392.171 775.747 328.069 755.615 611.777 481.311 315.411 647.437 561.419
256.563 263.491 886.081 263.538 538.637 359.990 280.585 549.900 587.678 0.000 283.244 30.382 452.787 501.446 131.339 465.091 171.652 646.557 220.769 452.380 447.146 377.249 624.586 286.035 643.749 347.309 275.000 723.663 485.145 165.807 143.645 539.044 722.966 435.311 305.541 595.774 275.280 464.802 449.827 290.638 269.449 224.565 526.102 166.114 458.745 53.804 829.923 285.674 344.968 277.079 396.811 699.917 572.238 126.009 655.899 150.784 159.893 277.671 345.354 494.726 598.264 276.723 327.908 189.555 606.728 257.225 387.738 753.395 344.178 146.571 413.116 126.751 814.573 181.405 757.737 310.756 261.957 357.955 327.223 181.293 378.035 417.538 302.551 349.301 307.479 827.844 185.887 495.613 404.126 451.162 149.374 312.011 554.573 560.574 354.502 267.237 309.588 132.798 311.630 202.021 239.294
98.637 251.851 820.402 133.163 701.580 115.117 268.944 315.008 360.400 263.381 0.000 283.908 226.610 489.806 265.866 223.188 361.273 549.264 195.730 327.796 205.242 135.345 472.441 297.833 432.565 536.956 438.854 510.862 258.968 355.429 169.693 527.403 510.164 569.837 317.340 713.411 263.640 503.561 223.650 425.164 26.497 407.075 291.210 327.017 232.569 277.983 603.746 43.770 262.055 287.636 151.938 487.115 378.456 257.662 462.893 196.018 199.155 163.405 99.274 483.085 385.463 165.646 161.187 228.685 380.552 218.019 142.865 527.219 98.098 199.090 270.619 297.116 588.397 368.312 692.057 65.883 250.316 113.082 82.350 130.881 151.859 264.048 107.527 104.429 117.367 601.668 305.939 483.972 567.979 224.985 188.636 280.434 341.772 463.281 104.818 456.883 278.012 227.423 66.758 313.672 227.653
277.652 284.581 926.069 284.628 546.928 404.135 301.674 594.046 631.824 80.272 327.389 0.000 496.932 522.535 171.327 496.984 152.967 667.647 265.368 473.469 479.038 421.394 667.390 300.761 664.838 328.625 256.316 744.752 529.290 147.123 194.330 560.133 744.055 473.852 296.108 635.762 296.370 469.976 493.972 330.625 313.595 205.880 570.248 197.359 502.891 97.239 874.068 329.819 366.058 291.805 440.956 721.006 593.328 165.997 676.988 181.306 184.443 298.760 389.500 515.815 619.354 297.813 370.712 210.645 650.874 301.825 431.884 797.541 388.324 184.378 434.205 115.599 858.719 162.721 797.724 354.902 283.046 402.101 371.368 218.327 422.181 438.627 323.640 393.447 328.568 871.990 167.202 516.702 385.441 495.307 173.924 333.100 575.663 581.664 398.648 248.552 330.678 172.785 355.776 183.337 260.383
323.812 477.025 743.642 358.337 889.466 189.604 494.119 339.683 242.475 453.522 250.382 474.049 0.000 714.980 454.855 433.305 566.654 774.438 288.550 545.410 415.359 343.939 348.384 523.008 569.631 727.097 626.741 632.519 122.204 561.361 350.530 752.578 620.011 708.973 542.514 823.904 488.814 728.735 187.770 578.248 244.403 613.592 315.885 500.112 5.958 468.123 482.451 268.945 487.229 512.811 188.262 596.962 588.573 417.910 673.010 402.536 405.672 388.579 266.667 708.260 495.309 390.821 201.393 453.859 182.133 310.839 217.353 403.129 265.491 405.607 488.234 503.633 467.102 574.829 615.298 213.280 475.491 221.543 239.593 356.056 144.934 488.745 332.701 193.448 342.542 448.738 531.114 709.147 755.866 13.590 395.153 505.609 474.473 688.455 264.580 647.024 503.186 372.720 214.155 538.846 452.828
423.461 279.413 1261.586 393.640 750.617 594.218 249.778 710.868 836.594 493.616 501.644 499.624 705.711 0.000 593.835 525.896 425.457 265.517 589.644 362.506 519.157 539.282 943.650 314.267 472.305 381.170 521.289 563.086 738.069 440.756 554.378 141.449 588.422 726.676 311.144 964.953 267.048 319.865 702.752 682.754 499.346 417.640 658.747 610.683 711.670 494.362 1082.848 504.074 279.815 286.073 631.039 599.102 444.087 588.232 484.490 471.472 474.608 407.772 521.693 39.261 531.232 399.420 640.288 377.138 859.653 611.933 619.117 1006.320 520.517 474.544 401.904 449.998 1067.498 440.877 1133.242 544.984 262.415 573.436 561.451 441.887 630.960 424.932 445.298 583.530 444.792 1080.769 376.038 61.135 509.510 704.086 464.090 274.829 534.419 212.143 542.250 404.330 271.249 595.021 545.859 383.771 271.779
303.543 352.159 847.529 352.206 481.322 350.488 369.252 536.069 555.088 123.331 276.217 131.716 437.288 590.113 0.000 458.065 260.245 735.225 186.829 541.047 440.119 370.222 588.850 374.702 667.442 439.180 218.597 745.738 478.118 254.401 130.134 627.711 745.041 349.580 394.209 510.044 363.947 553.469 442.800 204.907 262.423 313.158 512.271 106.760 443.247 137.933 822.896 278.647 433.636 365.746 387.309 721.992 611.804 78.753 686.193 204.848 209.772 366.338 338.328 583.393 620.340 365.391 292.172 278.222 597.748 223.285 378.237 746.368 337.152 200.634 501.783 221.107 807.547 269.998 719.184 303.729 350.624 350.929 320.196 214.854 371.009 483.078 335.038 339.800 344.879 820.817 276.512 584.280 347.722 435.663 199.253 400.678 576.648 649.242 347.475 359.107 398.256 97.098 304.604 292.646 327.961
313.576 353.334 1059.111 270.998 927.556 284.678 370.026 308.906 454.844 476.532 263.260 482.540 454.279 508.663 491.842 0.000 518.817 494.655 421.706 196.669 55.494 128.136 703.115 403.782 229.772 681.609 657.809 308.069 397.078 512.973 395.669 578.402 307.372 795.814 423.288 939.387 352.299 609.509 336.102 651.140 264.065 523.594 256.666 552.993 460.238 477.278 739.803 260.935 271.407 393.585 355.803 284.323 175.663 483.639 260.100 421.995 425.131 261.971 203.835 478.532 182.670 237.860 388.856 387.185 597.454 443.995 301.166 663.276 200.624 425.066 139.493 478.408 724.454 493.266 930.766 268.040 356.265 255.578 253.038 356.858 379.528 150.582 277.367 320.148 267.182 737.725 416.465 541.308 787.822 452.654 414.613 331.519 138.979 424.191 224.392 624.856 347.965 453.399 277.042 424.198 333.602
304.620 229.780 1020.388 311.595 525.895 456.140 246.874 646.484 684.262 176.366 363.566 160.623 549.371 437.514 263.650 520.339 0.000 597.198 348.445 426.668 506.006 457.571 721.170 245.763 595.904 231.110 198.745 686.685 581.729 39.032 279.397 475.112 697.254 452.819 226.188 663.207 241.569 369.740 546.411 357.473 361.268 98.486 615.640 217.834 555.329 193.333 926.507 365.996 316.585 236.807 492.961 674.205 539.923 262.091 608.054 208.274 211.410 325.727 425.677 430.794 572.553 324.780 424.493 221.100 703.312 370.734 483.888 849.979 424.500 211.345 387.404 93.889 911.157 53.750 892.043 406.906 228.245 454.105 423.373 245.294 474.619 410.432 350.608 445.451 355.536 924.428 112.204 431.681 314.004 547.746 200.891 281.503 528.862 508.939 443.337 151.037 279.080 268.880 407.780 124.757 205.582
535.292 438.221 1340.168 442.085 939.279 626.296 408.587 695.868 841.720 638.206 565.377 644.214 769.445 279.842 738.425 513.935 584.266 0.000 717.543 362.301 507.196 539.077 992.208 473.076 393.153 569.832 680.097 483.934 801.803 599.564 691.506 236.776 509.269 915.338 469.953 1144.559 425.857 508.527 741.432 841.562 563.079 576.449 643.748 769.491 775.403 638.952 1045.282 567.807 347.378 444.882 694.772 519.949 404.621 732.822 387.741 613.869 617.006 454.450 545.453 261.214 452.080 422.544 704.021 526.100 923.386 739.832 642.877 1008.094 544.277 616.941 401.698 602.349 1029.933 599.685 1211.824 604.911 421.224 597.196 594.656 584.284 694.693 422.831 493.742 647.263 471.543 1052.259 528.389 326.295 698.172 767.820 606.487 396.472 510.075 237.953 566.010 592.992 424.151 739.611 609.592 536.122 430.588
235.207 333.735 703.643 276.117 623.202 200.700 350.828 388.183 396.612 213.601 191.659 231.484 273.170 571.690 187.488 373.507 338.278 683.735 0.000 478.114 355.561 285.664 424.732 356.279 582.884 498.720 360.476 661.180 322.942 332.984 94.206 609.287 660.483 441.607 375.785 558.631 345.524 561.958 287.624 310.881 177.865 385.215 364.385 243.758 279.128 228.202 667.720 194.089 405.009 347.322 237.521 637.434 527.246 161.557 601.635 174.159 177.295 306.358 227.811 564.969 535.782 308.600 128.054 278.535 433.630 53.990 228.449 591.193 226.635 177.231 420.938 275.257 652.371 346.452 575.298 174.424 332.200 229.954 200.737 146.518 215.833 398.520 250.481 190.012 260.321 665.642 308.425 565.856 489.602 271.545 166.777 381.820 492.091 597.752 233.355 418.647 379.398 116.367 175.298 324.559 309.537
320.916 266.180 1125.792 243.006 866.010 362.074 282.872 411.329 557.180 439.128 333.459 445.135 531.675 360.446 539.346 202.890 431.663 361.956 491.905 0.000 196.152 268.788 777.831 316.628 246.397 562.762 538.860 337.178 537.730 425.819 465.868 430.184 362.514 792.934 336.134 1003.322 265.145 490.663 476.755 698.645 334.264 436.440 359.208 578.091 537.633 439.874 843.415 331.134 184.253 306.431 433.198 356.757 174.887 533.744 258.547 414.791 417.928 242.250 281.230 330.314 255.105 218.138 466.251 327.021 674.849 514.194 378.654 779.057 280.054 417.863 89.010 403.271 828.066 406.112 997.447 345.435 269.111 332.973 330.433 385.206 456.923 100.099 284.707 397.543 257.167 850.392 329.311 393.091 668.873 530.049 407.409 244.365 211.413 275.973 301.787 505.906 260.811 523.599 354.437 337.044 246.448
272.026 368.371 1017.561 251.107 886.006 243.128 385.062 267.356 413.294 447.807 221.710 464.544 412.729 523.700 450.292 35.431 524.569 509.691 380.156 211.706 0.000 86.586 661.565 418.818 244.809 696.645 623.280 323.105 355.528 518.725 354.119 593.438 322.408 754.264 438.325 897.837 367.335 624.546 294.552 609.590 222.515 538.630 215.116 511.443 418.688 459.282 698.253 219.385 286.444 408.621 314.253 299.359 190.700 442.089 275.137 380.445 383.581 243.976 162.285 493.568 197.706 219.864 347.306 369.189 555.904 402.445 259.616 621.726 159.073 383.516 154.529 460.413 682.904 508.302 889.216 226.490 371.301 214.028 211.488 315.308 337.978 165.618 235.817 278.598 225.631 696.175 431.501 556.345 752.406 411.104 373.063 346.556 154.015 439.227 182.842 633.497 363.001 411.849 235.492 439.234 348.638
192.227 342.650 936.935 171.308 806.206 162.502 359.743 210.308 332.848 368.008 141.910 388.535 332.104 535.457 370.493 95.326 465.900 536.967 300.356 269.089 77.380 0.000 580.939 388.632 304.703 641.583 543.481 383.000 274.902 460.056 274.319 605.195 382.303 674.464 408.139 818.038 350.355 594.360 213.926 529.791 142.715 503.867 158.069 431.644 338.062 382.610 617.627 139.585 290.086 378.435 233.627 359.254 250.594 362.289 335.031 300.645 303.782 201.550 81.659 505.325 257.601 195.137 266.680 317.458 475.278 322.645 178.990 541.100 78.448 303.717 211.912 401.743 602.278 472.939 808.590 145.864 341.115 133.402 130.862 235.508 257.352 212.423 156.018 197.972 145.832 615.549 396.738 564.945 672.606 330.478 293.263 343.328 213.910 450.984 102.216 561.510 353.963 332.050 154.866 404.471 318.452
536.579 689.793 465.501 555.633 983.391 461.784 706.886 619.126 475.218 599.401 473.533 619.928 326.514 927.748 580.651 656.456 712.534 963.252 414.332 766.223 638.510 567.090 0.000 730.535 856.482 872.976 753.639 919.370 418.022 707.241 480.358 965.345 906.862 767.856 750.041 857.707 701.582 914.405 487.443 704.044 465.973 759.472 595.328 629.910 332.473 614.003 609.238 482.198 684.525 721.579 487.935 883.813 806.763 547.708 881.152 548.415 551.552 585.875 489.818 906.746 782.160 588.116 369.293 652.792 330.853 431.121 489.532 485.586 488.642 551.487 709.046 649.513 593.889 720.709 337.157 436.431 688.258 491.962 462.744 520.775 415.575 678.036 529.997 451.096 539.837 531.194 682.681 921.914 882.765 324.889 541.033 718.376 761.323 877.269 495.362 792.904 715.954 502.518 437.305 698.816 665.595
220.146 104.710 1035.074 224.233 673.817 390.903 90.560 571.316 636.186 267.104 298.329 273.112 502.396 311.421 367.323 402.717 244.849 471.104 363.132 309.047 395.978 376.969 735.857 0.000 500.349 370.467 346.668 580.330 534.754 239.005 327.866 349.019 579.633 600.741 112.147 811.130 101.036 298.368 499.436 508.133 296.031 243.019 535.038 399.674 508.355 267.850 879.532 300.759 198.963 38.942 427.724 556.584 428.905 361.720 512.499 244.960 248.096 238.366 345.075 304.701 454.931 237.418 436.973 150.626 656.338 385.421 418.651 803.005 343.899 248.032 269.783 216.456 864.183 219.298 906.729 341.669 87.712 388.868 358.136 215.375 427.645 292.810 266.134 380.214 268.174 877.454 142.497 305.588 476.681 500.771 237.578 154.341 411.240 382.845 365.632 313.714 140.556 368.509 342.543 150.230 86.653
438.523 457.434 1229.463 430.895 1007.375 437.379 434.136 324.291 470.143 630.382 433.611 636.389 563.535 476.001 662.194 232.584 584.394 398.488 592.057 249.883 225.845 298.487 858.714 498.624 0.000 704.127 680.225 158.462 482.916 599.692 566.021 545.785 183.797 934.299 478.303 1109.739 451.406 632.028 421.941 821.492 434.417 584.800 272.171 723.345 565.577 631.127 719.810 431.286 372.927 470.431 501.702 194.477 125.350 653.990 164.032 573.656 576.793 429.127 374.187 445.915 126.608 405.015 559.207 518.275 652.257 614.347 429.560 662.532 370.975 576.728 243.592 594.524 704.461 597.366 1101.118 438.392 446.772 425.930 423.390 508.519 549.880 248.263 405.259 475.685 415.052 726.787 520.565 508.646 810.239 561.910 566.274 422.020 138.497 399.517 394.744 647.272 449.700 623.751 447.394 528.298 437.702
503.137 381.461 1203.458 507.224 483.330 639.643 362.274 829.554 867.332 375.138 562.897 359.394 732.440 371.523 465.774 685.708 236.547 545.306 531.515 558.117 678.969 656.903 904.240 356.363 695.679 0.000 324.635 786.460 764.798 251.845 460.980 409.136 811.795 459.389 324.605 697.666 377.786 282.954 729.481 486.100 549.103 320.280 805.756 418.888 738.399 392.105 1109.577 565.327 481.954 345.268 676.464 822.476 639.698 460.863 707.829 421.087 424.223 521.357 625.008 364.803 737.922 520.409 607.562 433.617 886.382 553.804 667.392 1033.049 623.832 424.158 552.774 306.702 1094.227 273.899 1075.113 590.410 364.463 637.609 606.876 458.107 657.689 575.801 549.125 628.955 551.165 1107.498 325.017 365.705 242.223 730.815 413.704 431.092 694.231 473.503 634.156 137.043 417.307 467.652 591.284 337.570 369.644
449.863 388.098 989.342 480.885 330.322 515.907 368.911 702.939 721.958 267.441 440.235 266.701 604.158 542.568 219.152 622.083 193.024 702.251 353.699 563.396 604.137 534.240 755.720 363.000 700.958 312.369 0.000 791.739 638.754 195.936 294.152 580.166 817.074 257.246 331.242 467.634 384.423 474.794 603.436 164.637 426.441 282.666 679.141 143.408 610.117 282.273 983.532 442.665 485.875 351.905 552.728 827.754 644.976 252.055 713.108 356.639 361.562 495.017 502.346 535.848 741.843 494.070 459.042 390.390 760.338 390.155 543.655 907.005 501.170 352.425 556.694 263.179 968.183 230.376 860.998 467.747 371.100 514.947 484.214 361.174 531.645 579.722 496.229 505.219 506.069 981.454 281.494 536.735 195.160 602.533 351.043 437.729 698.152 613.992 511.493 232.296 423.944 261.116 468.622 294.047 374.872
527.512 545.750 1303.148 519.884 1096.364 508.850 523.125 395.761 541.613 718.698 521.927 724.705 635.006 564.990 750.510 320.900 673.383 487.477 680.373 338.872 314.161 386.803 930.185 587.613 156.881 793.116 769.214 0.000 554.387 688.681 654.336 634.774 46.622 1023.288 567.292 1198.055 540.394 721.017 493.411 909.808 522.732 673.788 343.641 811.661 637.047 719.443 740.276 519.602 461.916 559.419 573.172 103.860 248.621 742.306 204.043 662.645 665.782 518.116 462.502 534.904 147.073 494.004 632.948 606.591 723.728 702.662 501.030 703.087 459.291 665.717 331.908 682.840 724.926 685.682 1174.804 526.708 535.761 514.246 511.706 597.508 636.280 337.252 494.248 547.155 504.041 747.253 608.881 597.635 899.227 633.381 655.263 511.009 214.973 488.506 483.059 736.261 538.689 712.067 535.710 616.613 526.017
345.332 498.545 811.819 379.857 910.986 196.580 515.639 257.674 165.626 475.042 271.902 495.569 121.915 736.500 476.375 361.932 588.174 795.958 331.508 535.696 343.987 272.566 425.397 544.528 487.623 748.617 648.261 550.510 0.000 582.881 372.050 774.098 538.002 730.493 564.034 847.517 510.334 750.255 106.775 599.767 265.923 635.112 233.876 521.632 127.873 489.643 405.603 290.465 508.749 534.331 197.491 514.953 517.201 439.430 601.638 424.056 427.192 410.099 259.532 729.780 413.301 412.340 244.352 475.379 243.601 353.797 188.760 329.075 258.356 427.127 478.519 525.153 390.253 596.349 683.474 232.623 497.011 214.342 256.407 377.576 178.735 479.030 354.221 202.676 364.062 403.524 552.634 730.667 777.386 120.290 416.673 527.129 392.464 709.975 257.053 668.544 524.706 394.240 228.340 560.366 474.348
317.576 242.737 1033.345 324.552 511.416 469.096 249.377 659.441 697.219 189.323 376.523 173.580 562.328 423.035 276.607 533.295 36.691 582.718 361.402 439.625 518.963 470.528 734.127 243.467 581.424 216.630 184.266 672.205 594.686 0.000 292.354 460.633 697.541 438.340 211.709 648.728 254.526 355.260 559.368 345.731 374.225 126.333 628.596 230.791 568.286 206.290 939.464 378.953 329.541 232.372 505.918 687.162 525.443 275.048 593.574 221.230 224.367 338.684 438.633 416.315 585.510 337.737 437.449 234.057 716.269 383.691 496.845 862.936 437.457 224.302 400.361 106.846 924.114 74.043 905.000 419.863 241.202 467.062 436.329 258.251 487.576 423.389 363.565 458.408 368.493 937.385 125.161 417.202 299.525 560.703 213.848 294.460 541.818 494.459 456.294 136.558 292.037 281.837 420.737 137.714 218.539
215.342 313.870 783.082 265.042 565.123 248.706 330.963 436.309 463.276 133.965 180.584 154.492 339.196 551.824 129.409 362.432 282.494 672.660 103.464 467.039 344.486 274.589 495.654 336.413 571.809 442.937 302.397 650.105 371.554 277.201 0.000 589.422 649.408 433.381 355.920 583.439 325.658 506.175 336.236 288.707 166.789 335.959 412.511 190.560 345.154 148.566 716.332 183.014 393.046 327.457 285.527 626.359 516.171 108.803 590.560 128.455 133.379 295.283 239.599 545.104 524.706 297.525 198.976 258.670 493.137 133.428 276.455 639.804 238.423 124.241 409.863 240.185 700.982 292.799 654.737 201.397 312.335 248.596 217.864 126.653 264.444 387.445 239.405 238.018 249.246 714.253 273.353 545.991 431.523 337.570 122.860 361.955 481.015 586.677 245.143 362.864 359.533 78.564 202.271 289.487 289.672
458.816 314.768 1296.941 453.284 786.030 629.572 285.133 775.281 874.855 528.971 536.999 534.978 741.066 140.301 629.189 590.309 460.812 217.117 624.998 426.919 583.570 603.695 979.005 349.622 536.780 416.584 556.643 627.561 773.424 476.110 589.733 0.000 652.896 762.089 346.499 1000.366 302.403 316.680 738.106 718.108 534.701 452.995 723.161 646.037 747.025 529.717 1118.202 539.429 344.228 321.428 666.394 663.576 508.500 623.587 548.965 506.827 509.963 467.416 574.125 154.486 595.706 463.833 675.642 412.492 895.008 647.287 657.321 1041.675 572.949 509.898 466.317 485.352 1102.853 476.231 1168.596 580.339 297.770 625.868 596.806 477.241 666.315 489.345 497.730 618.884 497.224 1116.124 411.393 138.078 544.924 739.441 499.444 310.183 598.832 276.618 594.682 439.743 306.603 630.376 581.213 419.126 307.134
544.782 543.482 1290.285 520.308 1113.634 495.986 540.394 382.898 528.750 716.429 519.659 722.437 622.142 582.260 748.241 318.632 690.652 504.746 678.105 356.141 311.893 384.535 917.321 593.929 174.150 810.386 786.484 35.601 541.523 703.120 652.068 652.044 0.000 1040.558 584.562 1192.880 542.446 738.287 480.547 907.539 520.464 691.058 330.777 809.392 624.184 717.175 727.412 517.334 461.555 576.689 560.308 78.578 265.891 740.038 206.130 678.394 681.530 519.552 460.234 552.174 134.209 495.440 620.084 604.323 710.864 700.394 488.167 690.224 457.023 681.466 329.640 680.572 712.062 683.413 1161.940 524.439 546.412 511.977 509.437 613.257 623.417 340.729 511.517 534.291 521.310 734.389 606.612 614.905 916.497 620.517 671.012 521.667 202.110 505.776 480.791 753.530 538.112 709.798 533.441 614.345 523.749
607.094 624.536 976.017 655.757 246.426 609.526 605.349 795.107 814.126 426.883 579.768 435.267 696.326 725.379 353.762 761.616 451.103 899.162 445.867 799.834 743.670 673.773 810.485 599.438 937.396 444.763 286.342 1028.177 739.511 454.015 433.686 762.991 1048.593 0.000 567.680 320.572 620.861 636.810 704.193 216.621 565.974 540.746 771.309 316.373 702.285 441.485 1084.289 582.198 725.029 588.343 646.348 1025.544 881.415 373.987 949.546 508.399 513.323 669.889 641.879 718.658 923.891 668.942 551.211 581.774 856.787 482.323 637.275 1007.762 640.703 504.185 795.849 521.259 1068.940 488.456 847.672 591.916 607.538 641.465 618.229 518.405 632.402 786.629 638.590 598.838 648.430 1082.211 539.574 719.561 306.306 694.701 502.804 674.167 880.200 827.358 650.847 425.525 660.382 394.846 592.791 552.127 612.719
237.204 115.528 1052.132 241.292 628.641 407.961 96.341 588.375 653.244 284.163 315.387 290.170 519.455 304.077 384.381 419.775 205.659 463.760 380.190 326.105 413.037 394.027 752.915 90.431 472.518 325.290 301.491 563.298 551.813 220.958 344.924 341.674 588.634 555.565 0.000 765.953 111.853 253.191 516.495 462.956 313.089 197.843 552.096 390.885 525.413 284.908 896.591 317.817 216.021 79.335 444.782 573.642 416.536 378.778 484.667 262.018 265.155 255.424 362.133 297.357 471.990 254.477 454.031 167.684 673.396 402.479 435.709 820.063 360.957 265.090 286.841 228.238 881.241 221.079 923.788 358.727 98.530 405.927 375.194 232.433 444.703 309.869 283.192 397.273 285.232 894.512 154.278 298.244 431.504 517.829 254.636 165.159 428.298 375.501 382.690 268.537 151.374 385.567 359.602 162.011 103.711
670.482 731.761 916.613 711.391 346.083 626.425 712.574 812.006 831.025 506.865 626.934 516.412 713.225 862.953 434.907 808.781 575.735 1036.736 462.766 907.059 790.836 720.939 751.081 706.664 1018.159 582.337 410.973 1096.455 756.410 578.647 481.340 900.566 1092.334 222.208 674.906 0.000 728.087 774.384 721.092 309.636 613.139 652.371 788.208 409.388 719.184 521.467 1101.188 629.364 817.169 695.569 663.246 1069.285 962.521 431.790 1036.910 587.307 592.230 741.633 662.202 856.233 967.632 743.875 568.109 661.756 858.136 499.222 654.174 1024.660 661.026 583.093 856.212 605.803 1085.839 609.211 788.268 608.815 714.763 658.364 635.128 581.793 649.301 833.795 685.755 615.737 695.596 1099.109 651.199 857.135 443.880 711.600 581.712 781.392 927.365 957.656 667.746 563.100 767.607 423.487 609.690 663.752 711.494
193.124 49.076 1031.249 196.962 684.883 363.881 20.941 544.045 609.164 263.280 271.307 269.287 475.375 264.948 363.498 362.119 248.053 424.631 359.307 268.448 355.380 349.698 713.313 99.070 453.876 381.533 357.734 539.732 507.733 242.209 324.041 302.546 539.035 611.807 123.212 822.196 0.000 309.434 472.415 519.199 269.009 252.830 500.431 402.243 481.333 264.025 852.511 273.737 158.365 70.876 400.702 515.986 388.307 357.895 466.026 241.135 244.272 211.094 317.803 258.228 414.333 210.147 409.951 146.801 629.316 381.596 391.630 775.983 316.627 244.207 229.184 219.661 837.161 222.502 902.905 314.647 13.414 361.847 331.114 211.550 400.623 252.212 239.112 353.193 240.902 850.432 145.701 259.115 487.747 473.750 233.753 64.067 370.642 336.372 338.360 324.780 50.282 364.684 315.522 153.434 41.442
441.135 319.459 1256.064 445.223 665.542 611.892 300.272 792.306 857.175 441.752 519.318 447.759 723.386 299.278 541.970 623.707 361.620 473.155 584.121 496.116 616.968 597.959 934.722 294.362 633.678 293.266 467.102 724.459 755.744 376.918 511.508 291.163 749.794 641.601 262.604 879.878 315.785 0.000 720.426 628.567 517.021 347.952 756.027 546.845 729.345 442.497 1100.522 521.749 419.953 283.267 648.713 760.474 577.696 536.368 645.828 447.118 450.255 459.355 566.064 296.406 675.921 458.408 657.962 371.615 877.328 606.410 639.641 1023.995 564.888 450.190 490.772 401.052 1085.173 371.189 1127.719 562.659 302.462 609.858 579.125 436.364 648.635 513.800 487.124 601.204 489.164 1098.443 363.487 285.822 424.436 721.761 439.736 369.090 632.230 405.106 586.621 319.255 355.306 543.156 563.533 363.970 307.643
304.844 458.057 855.734 337.562 870.498 140.912 475.151 203.530 209.721 434.554 231.414 455.081 187.591 696.012 435.887 307.789 547.686 743.809 293.141 481.552 289.843 218.422 497.852 504.040 433.479 708.129 607.773 496.367 106.972 542.393 331.562 733.610 483.859 690.005 523.546 807.029 469.846 709.767 0.000 559.280 225.435 594.624 179.732 481.144 189.633 449.155 449.697 249.977 466.454 493.843 155.227 460.810 463.057 398.943 547.494 383.568 386.704 367.804 203.865 688.675 359.157 361.391 227.818 434.891 316.938 315.430 133.093 373.170 202.689 386.639 424.375 484.665 434.348 555.861 727.389 192.135 456.523 158.674 215.919 337.088 167.546 424.886 313.733 162.189 312.086 447.619 512.146 690.179 736.898 185.966 376.186 486.641 338.320 657.826 201.385 628.056 484.218 353.752 187.852 519.878 433.860
463.379 511.995 904.535 512.042 430.037 464.388 505.508 649.969 668.988 283.168 436.053 291.552 551.188 679.166 210.047 617.901 351.263 838.849 300.729 699.994 599.955 530.058 702.750 499.598 827.278 470.608 186.501 905.574 594.373 354.175 289.970 716.763 904.877 215.889 467.840 386.376 521.021 621.541 559.055 0.000 422.259 415.640 626.171 172.658 557.147 297.769 939.151 438.483 593.472 488.503 501.209 881.828 771.640 230.272 846.029 364.684 369.608 526.174 498.164 672.446 780.176 525.227 406.072 438.059 711.649 337.185 492.137 862.624 496.988 360.470 661.619 380.943 923.802 372.481 776.190 446.778 507.697 496.327 473.091 374.690 487.264 642.914 494.875 453.700 504.715 937.072 414.468 673.333 353.399 549.563 359.089 560.514 736.485 750.590 505.709 390.535 558.092 251.130 447.653 427.021 487.797
92.100 245.313 831.851 126.625 695.042 127.376 262.407 323.155 372.659 256.843 34.802 277.371 238.870 483.268 259.328 216.650 354.735 542.726 189.192 321.258 198.705 128.808 475.855 291.296 426.027 530.418 432.316 504.324 271.228 348.891 163.155 520.865 503.627 563.300 310.802 706.873 257.102 497.023 235.910 418.626 0.000 400.537 286.876 320.479 244.828 271.445 616.006 37.232 255.517 281.099 164.197 480.578 371.919 251.125 456.355 189.481 192.617 156.867 96.913 476.548 378.925 159.108 173.446 222.147 392.811 211.481 155.125 539.478 95.737 192.553 264.081 290.579 600.656 361.774 703.507 78.143 243.779 125.342 94.609 124.344 164.118 257.511 100.989 116.688 110.830 613.927 299.402 477.435 561.442 237.245 182.099 273.897 335.234 456.743 114.573 450.346 271.474 220.885 79.017 307.134 221.116
323.468 219.763 1042.036 327.555 571.729 477.787 236.856 668.132 705.910 201.864 385.213 186.120 571.019 415.339 289.148 510.321 74.114 575.022 370.093 416.651 503.583 479.219 742.818 235.746 581.761 276.944 244.580 672.542 603.377 82.100 304.895 452.937 687.237 498.653 204.013 698.130 231.552 341.754 568.059 382.970 382.916 0.000 637.287 243.332 576.977 218.831 948.155 387.644 306.567 224.676 514.608 664.188 525.780 287.589 593.911 229.921 233.058 341.687 447.324 408.619 562.536 340.740 446.140 216.667 724.960 392.382 505.536 871.627 446.148 232.993 377.387 115.537 932.805 24.290 913.691 428.554 218.228 475.753 445.020 266.942 496.267 400.415 369.456 467.099 371.496 946.076 102.187 409.506 359.838 569.393 222.539 271.486 518.844 486.763 464.984 196.871 269.063 294.377 429.428 113.790 195.565
349.987 500.410 990.155 329.068 957.321 195.856 517.504 73.812 219.664 525.768 299.671 546.295 322.012 641.018 521.607 224.618 623.660 627.010 378.862 351.878 206.673 157.760 608.235 546.392 268.129 799.343 694.596 331.016 241.393 617.816 422.264 710.756 318.508 775.726 565.899 892.750 500.270 752.120 180.417 645.000 300.476 661.628 0.000 571.816 324.054 540.370 519.312 297.346 419.379 536.195 260.178 295.459 330.873 489.615 392.455 458.406 461.542 359.310 211.476 610.886 193.807 351.932 319.954 475.218 401.778 401.151 188.037 442.785 208.265 461.477 294.702 559.503 503.963 630.699 861.810 260.223 498.876 213.618 260.680 393.268 323.287 305.791 313.778 234.162 303.592 517.234 554.498 673.663 823.721 320.387 451.023 479.491 172.970 556.546 232.033 719.270 495.936 444.425 255.940 562.231 476.212
364.476 392.522 911.314 392.569 413.764 411.340 409.615 598.943 618.873 167.130 337.149 166.390 501.073 608.713 116.066 518.997 223.410 768.397 250.613 581.410 501.052 431.155 652.635 408.710 728.375 401.573 155.206 806.671 534.187 217.566 191.067 646.311 805.974 317.042 397.387 487.529 404.310 540.939 498.869 172.369 323.355 276.324 575.145 0.000 507.031 190.888 878.965 339.580 473.999 399.754 448.161 782.925 672.737 148.969 747.126 265.254 270.177 406.701 399.260 601.993 681.272 405.754 355.957 318.585 655.771 287.070 439.088 802.438 398.084 261.040 542.146 255.782 863.616 233.164 782.969 364.662 390.987 411.861 381.129 275.787 427.078 544.010 395.971 400.652 405.812 876.887 275.152 602.880 284.332 499.448 259.658 441.041 637.581 680.137 408.408 321.501 438.619 158.031 365.536 287.705 368.324
328.751 481.964 743.748 363.276 894.405 183.646 499.058 333.724 236.516 458.461 255.321 478.988 5.958 719.919 459.794 427.739 571.593 779.377 293.488 539.844 409.793 338.373 348.489 527.947 563.673 732.036 631.680 626.561 116.246 566.300 355.469 757.517 614.052 713.912 547.453 828.843 493.753 733.674 181.811 583.186 249.342 618.531 309.926 505.051 0.000 473.062 476.493 273.883 492.168 517.750 182.303 591.003 583.007 422.849 667.444 407.475 410.611 393.518 261.101 713.199 489.351 395.759 206.332 458.798 176.175 315.777 211.395 397.171 259.925 410.546 482.667 508.572 461.143 579.768 615.403 217.436 480.430 215.585 241.219 360.995 149.873 483.178 337.640 187.489 347.481 442.779 536.053 714.086 760.805 7.632 400.092 510.548 468.514 693.394 258.621 651.963 508.125 377.659 213.153 543.785 457.767
255.476 262.405 916.022 262.452 579.084 385.749 279.498 575.660 613.438 56.159 306.443 64.988 478.546 500.360 161.552 474.808 206.257 645.471 247.342 451.293 456.862 400.448 650.346 284.949 642.662 381.915 309.606 722.577 510.904 200.413 170.217 537.957 721.880 465.524 304.455 625.987 274.194 463.715 475.586 320.851 295.209 259.171 551.862 206.562 484.505 0.000 855.683 308.873 343.882 275.992 422.570 698.831 571.152 155.950 654.812 145.160 154.287 276.584 368.553 493.639 597.178 275.637 353.668 188.469 632.488 283.798 413.498 779.155 367.377 140.946 412.029 143.678 840.333 216.011 787.677 336.516 260.870 383.715 352.982 188.171 403.795 416.451 301.465 375.061 306.393 853.604 186.758 494.526 438.731 476.921 143.768 310.925 553.487 559.488 380.262 301.842 308.502 162.738 337.390 202.893 238.207
696.433 849.646 966.244 730.958 1262.087 547.681 866.740 533.100 372.386 826.143 623.003 846.670 489.239 1087.601 827.476 713.033 939.275 1050.077 684.730 852.506 695.088 623.667 614.375 895.629 719.481 1099.718 999.362 744.101 412.806 933.982 723.151 1125.199 731.794 1081.594 915.135 1198.618 861.435 1101.356 457.876 950.869 617.024 986.213 521.207 872.733 495.197 840.744 0.000 641.566 859.850 885.432 548.592 708.745 811.222 790.531 815.621 775.157 778.293 761.200 610.634 1080.881 638.097 763.442 604.025 826.480 445.138 707.019 539.861 192.705 609.457 778.228 795.329 876.254 66.518 947.450 837.899 583.724 848.112 565.443 607.508 728.677 538.407 806.418 705.322 553.778 715.163 161.260 903.735 1081.768 1128.487 487.614 767.774 878.230 670.284 1036.637 608.154 1019.645 875.807 745.341 579.441 911.467 825.449
114.924 268.138 836.689 149.450 717.866 131.403 285.231 331.295 376.686 279.668 16.287 300.195 242.897 506.092 282.153 231.395 377.560 565.551 212.016 336.003 213.449 143.552 488.728 314.120 440.772 553.243 455.141 519.069 275.255 371.716 185.979 543.690 518.372 586.124 333.626 729.698 279.926 519.848 239.937 441.451 42.783 423.362 301.621 343.304 248.856 294.270 620.033 0.000 278.341 303.923 168.225 495.323 386.663 273.949 471.100 212.305 215.442 179.691 111.658 499.372 393.670 181.933 177.473 244.972 396.839 234.305 159.152 543.506 110.482 215.377 278.826 313.403 604.684 384.599 708.344 82.170 266.603 129.369 98.636 147.168 168.146 279.337 123.813 120.715 133.654 617.954 322.226 500.259 584.266 241.272 204.923 296.721 349.979 479.568 121.105 473.170 294.299 243.710 83.044 329.959 243.940
251.967 164.771 1062.706 154.871 796.396 363.767 180.523 502.305 597.824 342.091 287.915 348.098 491.982 291.511 442.309 311.753 330.254 368.457 437.536 218.082 305.014 314.818 714.745 215.219 397.783 493.045 469.246 488.564 524.340 324.409 402.270 361.249 488.669 723.320 234.725 906.744 162.796 420.946 478.902 601.607 285.617 335.031 450.065 481.054 497.941 342.836 869.118 290.345 0.000 205.022 417.310 465.620 335.910 436.706 409.933 319.364 322.501 169.003 282.923 261.379 363.967 168.056 426.558 225.612 645.924 459.825 380.347 792.591 281.747 322.436 178.818 301.861 853.769 304.703 934.361 329.713 167.399 334.667 324.140 289.779 417.231 201.846 206.528 369.800 206.023 867.040 227.902 324.156 599.259 490.357 311.982 120.085 320.276 282.474 303.480 436.292 136.530 443.495 332.129 235.634 145.039
219.514 76.212 1034.442 223.601 654.027 390.271 62.061 570.684 635.554 266.472 297.697 272.480 501.764 282.922 366.691 402.085 231.045 442.606 362.500 308.414 395.346 376.337 735.225 38.942 471.851 350.676 326.877 562.632 534.122 238.373 327.234 320.520 579.001 580.951 92.356 791.339 72.537 278.577 498.804 488.342 295.399 223.229 534.406 399.042 507.723 267.218 878.900 300.127 198.331 0.000 427.092 555.952 409.978 361.088 484.001 244.328 247.464 237.734 344.442 276.202 454.299 236.786 436.340 149.994 655.706 384.789 418.019 802.373 343.266 247.400 269.151 215.824 863.551 218.666 906.097 341.037 59.214 388.236 357.504 214.743 427.013 292.178 265.502 379.582 267.542 876.822 141.865 277.089 456.890 500.139 236.946 125.843 410.608 354.347 365.000 293.923 112.058 367.877 341.911 149.598 68.578
252.015 405.229 879.809 277.634 837.492 80.659 422.322 266.374 311.765 400.218 178.585 420.746 211.666 643.183 402.703 310.574 513.351 683.881 260.747 422.680 292.629 221.208 521.927 451.211 496.322 673.793 574.766 559.210 209.535 508.058 298.555 680.781 546.702 657.611 470.717 774.635 417.017 656.939 156.635 526.885 172.607 560.289 242.576 448.137 213.708 414.820 554.313 197.148 406.526 441.014 0.000 523.653 465.843 365.936 550.280 349.232 352.369 307.876 143.937 628.747 422.000 301.463 199.702 382.062 341.013 283.036 94.230 477.785 142.761 352.304 365.503 450.330 538.963 521.526 751.464 126.697 403.694 98.420 150.480 284.259 180.091 366.014 260.904 96.750 252.158 552.234 459.317 637.350 703.891 210.041 341.850 433.812 401.163 597.898 141.457 593.721 431.390 320.746 122.413 467.050 381.031
533.250 506.756 1253.559 483.582 1118.551 459.261 523.448 346.172 492.024 679.704 482.933 685.711 585.417 587.178 711.516 281.906 672.239 509.664 641.379 350.091 275.167 347.809 880.595 557.204 179.068 815.304 791.402 96.957 504.797 666.395 615.343 656.962 81.503 1015.487 576.710 1156.154 505.721 743.204 443.822 870.814 483.739 677.016 294.052 772.667 587.458 680.449 690.686 480.608 424.829 547.007 523.583 0.000 270.809 703.312 218.128 641.668 644.805 482.826 423.508 557.092 97.484 458.714 583.359 567.597 674.138 663.668 451.441 653.498 420.297 644.740 292.914 643.846 675.337 646.688 1125.214 487.714 509.687 475.252 472.712 576.531 586.691 304.004 497.041 497.566 486.855 697.663 569.887 619.822 921.415 583.791 634.286 484.941 165.384 510.694 444.066 758.448 501.387 673.073 496.716 577.620 487.024
410.300 387.998 1160.026 364.824 985.803 385.594 404.689 371.586 517.438 560.945 364.175 566.953 555.195 480.239 592.757 163.148 553.480 441.636 522.621 212.256 156.409 229.051 804.030 438.445 124.135 682.555 658.653 247.301 497.993 547.636 496.584 549.977 272.637 896.729 456.731 1040.303 386.962 610.456 437.018 752.056 364.980 558.258 319.466 653.909 561.153 561.691 803.673 361.850 306.071 428.248 456.719 283.317 0.000 584.554 207.081 522.910 526.047 364.068 304.750 450.107 215.362 339.956 489.771 448.839 698.369 544.910 402.081 739.314 301.539 525.982 174.156 525.088 788.323 527.929 1031.682 368.955 390.928 356.494 353.953 457.773 480.443 185.245 377.036 421.064 368.097 810.650 451.128 512.884 788.666 553.570 515.528 366.183 171.671 395.766 325.307 625.700 382.628 554.315 377.957 458.861 368.265
315.484 364.100 821.003 364.147 532.124 307.768 381.193 495.371 521.930 135.273 288.065 143.883 398.257 602.055 81.566 469.913 285.152 747.166 150.428 552.988 451.967 382.070 554.307 386.644 679.290 460.810 269.398 757.586 430.615 279.308 126.297 639.652 756.889 382.664 406.150 514.006 375.889 565.410 395.297 237.991 274.271 338.065 471.573 147.517 404.216 149.874 775.393 290.495 445.577 377.687 344.589 733.840 623.652 0.000 698.041 216.789 221.713 378.279 325.028 595.334 632.188 377.332 257.630 290.164 552.199 186.884 335.516 698.866 323.852 212.575 513.724 233.274 760.044 294.905 692.659 271.641 362.565 327.171 297.953 226.795 323.506 494.926 346.887 297.080 356.727 773.315 288.453 596.221 398.524 396.632 211.194 412.619 588.497 661.183 330.572 380.737 410.197 60.294 272.515 304.587 339.902
446.014 471.261 1241.004 438.386 1014.866 498.883 441.626 458.406 604.258 645.074 474.253 651.081 668.484 483.591 688.515 276.437 591.885 393.171 618.378 257.374 269.698 342.340 893.043 506.115 155.691 711.618 687.716 197.719 611.283 607.183 592.341 553.375 203.764 941.790 485.794 1136.060 458.896 639.519 550.307 847.813 471.955 592.290 406.286 749.666 674.443 645.820 807.820 475.139 380.418 477.921 570.008 212.261 167.123 680.311 0.000 581.147 584.284 436.618 418.040 453.505 214.618 412.506 603.060 532.967 786.372 640.667 515.370 770.632 414.828 584.219 258.285 609.217 792.471 612.058 1112.659 482.245 454.263 469.783 467.243 516.010 593.733 255.754 412.750 534.353 422.543 814.797 535.257 516.235 817.729 666.859 573.765 429.511 272.613 407.107 438.597 654.763 457.191 650.072 491.247 542.990 452.394
188.748 244.891 888.017 244.938 633.431 323.769 261.984 514.114 551.892 126.153 231.195 140.207 417.000 482.845 214.147 413.043 200.233 627.957 216.075 433.779 395.098 325.201 588.800 267.435 595.466 389.232 356.868 686.247 449.358 194.388 137.407 520.443 700.020 518.119 286.941 678.582 256.680 446.201 414.040 373.445 228.897 246.035 483.269 273.163 422.959 126.899 794.137 233.625 326.368 258.478 360.590 676.971 533.227 208.544 607.616 0.000 13.776 259.070 293.306 476.125 575.318 258.123 292.122 170.955 570.942 238.364 351.518 717.609 292.130 48.392 394.515 136.076 778.787 207.271 759.673 274.536 243.356 321.735 291.002 112.924 342.249 398.937 234.736 313.081 257.819 792.058 169.244 477.012 472.126 415.375 8.233 293.410 531.627 541.974 310.966 309.160 290.988 188.433 275.410 185.378 220.693
196.984 256.981 882.449 254.728 619.654 325.309 274.075 515.653 553.431 124.710 232.735 145.237 418.540 494.936 200.371 414.583 221.611 637.747 202.831 443.569 396.637 326.740 590.340 279.525 597.006 410.611 353.159 687.787 450.898 215.767 123.630 532.534 701.559 504.342 299.031 664.806 268.770 467.580 415.580 359.669 230.437 267.413 484.809 261.263 424.499 125.455 795.676 235.165 336.158 270.569 362.130 678.510 534.767 194.768 609.156 38.830 0.000 268.860 294.846 488.216 576.858 267.913 293.662 192.333 572.482 232.795 353.057 719.149 293.670 34.616 404.305 157.454 780.327 228.650 754.104 276.075 255.447 323.275 292.542 114.464 343.789 406.040 242.972 314.621 259.359 793.597 190.623 489.103 482.285 416.915 47.063 305.067 533.167 551.764 312.506 330.538 302.644 174.657 276.950 206.757 232.784
142.160 202.839 948.165 40.330 778.481 249.226 219.933 394.624 483.284 266.995 173.374 273.002 377.442 405.465 367.214 261.990 333.028 454.702 325.539 255.664 244.044 200.277 600.204 248.821 436.614 522.028 489.663 526.947 409.800 327.184 299.503 468.565 526.250 671.185 268.328 831.649 210.544 454.549 364.362 526.512 171.076 364.057 358.346 405.958 383.400 267.741 754.578 175.804 153.112 238.624 302.769 503.201 365.104 361.611 448.764 242.658 245.795 0.000 168.383 375.334 401.548 44.564 312.018 177.647 531.383 347.828 265.807 678.050 167.207 245.730 216.400 268.871 739.228 333.728 819.821 215.173 201.304 220.126 209.599 213.073 302.690 203.633 91.988 255.260 86.950 752.499 256.927 425.134 604.922 375.816 235.276 196.241 357.857 368.719 188.940 441.955 212.686 357.233 217.589 264.660 178.641
172.074 322.497 855.276 151.155 772.992 98.301 339.591 243.700 332.359 334.794 92.068 355.321 250.445 532.400 337.279 184.096 440.436 557.402 238.720 296.201 166.150 94.730 499.280 368.480 393.473 608.369 510.267 471.769 274.413 434.592 235.865 588.223 471.072 639.377 387.986 756.401 330.202 574.207 213.437 496.577 105.599 483.715 219.902 398.430 256.403 349.396 617.138 91.202 280.047 358.282 157.913 448.023 339.364 329.075 423.801 275.182 278.318 181.397 0.000 502.268 346.371 174.985 185.021 297.306 399.015 261.009 114.882 540.610 16.282 278.253 239.024 376.280 601.788 447.475 726.931 64.205 320.963 69.201 49.203 210.045 175.693 239.535 135.865 116.313 125.679 615.059 376.585 544.792 639.392 248.819 267.800 323.176 302.679 471.419 22.531 528.296 333.810 284.488 73.207 384.318 298.299
417.268 273.220 1255.393 357.299 744.424 566.195 243.585 674.526 800.252 487.423 490.342 493.431 694.410 47.156 587.642 489.554 419.264 233.001 583.451 326.165 482.815 502.941 917.173 308.074 436.025 374.977 515.096 526.806 726.768 434.563 548.185 154.469 552.142 720.483 304.951 958.760 260.855 313.672 681.330 676.561 488.045 411.447 622.406 604.490 700.369 488.169 1071.546 492.773 243.473 279.880 619.737 562.822 407.745 582.039 448.211 465.279 468.415 371.431 485.351 0.000 494.952 363.079 628.986 370.945 848.352 605.740 582.775 995.018 484.175 468.351 365.562 443.805 1056.197 434.684 1127.048 532.141 256.222 537.094 526.567 435.694 619.659 388.590 408.956 572.228 408.450 1069.467 369.845 86.501 503.317 692.785 457.897 262.160 498.077 175.863 505.908 398.137 265.056 588.828 534.557 377.578 265.586
435.766 409.273 1156.075 386.099 1040.897 361.777 425.964 248.689 394.540 582.220 385.450 588.228 487.933 535.789 614.032 184.422 574.755 458.275 543.896 252.607 177.684 250.326 783.112 459.720 127.680 737.547 713.748 152.300 407.314 568.911 517.859 605.573 139.792 918.004 479.226 1058.671 408.237 665.448 346.338 773.330 386.255 579.532 196.568 675.183 489.975 582.966 642.075 383.125 327.345 449.523 426.099 116.743 219.420 605.829 223.819 544.185 547.321 385.342 326.025 505.703 0.000 361.231 485.875 470.114 576.655 566.185 353.958 587.241 322.813 547.256 195.431 546.363 626.726 549.204 1027.731 390.230 412.203 377.768 375.228 479.048 489.208 206.520 399.557 400.082 389.371 649.053 472.403 568.434 843.761 486.308 536.803 387.458 67.901 459.305 346.582 680.794 403.903 575.589 399.232 480.136 389.540
144.402 201.868 950.407 42.572 777.509 243.592 218.961 388.991 477.650 266.024 175.616 272.031 379.683 395.966 366.242 226.859 332.057 420.703 327.781 220.533 208.914 194.643 602.446 247.850 401.484 521.056 488.692 491.817 412.041 326.212 301.744 465.704 491.120 670.214 267.356 830.677 209.573 453.578 358.728 525.540 173.318 363.085 352.138 404.987 385.642 266.769 756.819 178.046 143.613 237.653 305.011 468.071 329.973 360.639 413.634 241.687 244.823 33.545 162.749 365.834 366.418 0.000 314.259 176.676 533.625 350.070 260.173 680.292 161.573 244.759 181.269 267.900 741.470 332.757 822.062 217.414 200.333 214.492 211.841 212.102 304.932 168.503 94.229 257.501 88.839 754.740 255.956 424.163 603.951 378.058 234.305 195.270 322.727 334.720 183.306 440.984 211.715 359.474 219.830 263.689 177.670
237.923 391.137 750.724 272.449 731.215 143.541 408.230 331.144 348.415 311.364 164.493 331.892 206.312 629.091 299.297 347.416 424.497 683.807 141.391 459.522 329.471 258.050 394.728 437.119 556.793 584.939 468.490 623.980 245.882 419.204 192.309 666.689 611.472 555.763 456.625 672.787 402.925 639.087 210.564 425.038 158.515 471.435 307.346 341.861 212.270 325.966 590.660 183.056 401.340 426.922 180.362 588.423 502.685 259.660 587.121 260.378 263.515 302.690 180.778 622.371 486.771 304.932 0.000 364.755 366.772 163.680 171.290 514.132 179.602 263.450 402.345 361.476 575.311 432.672 622.379 127.391 389.602 175.480 153.704 232.738 138.773 398.592 246.812 132.853 256.653 588.581 394.645 623.258 597.615 204.686 252.996 419.720 465.934 597.824 186.322 504.867 417.298 214.469 128.266 410.779 366.939
141.072 112.160 948.140 144.095 691.655 311.828 129.254 491.178 557.111 180.170 219.255 186.177 423.322 350.115 280.388 356.451 238.719 500.023 276.197 305.845 338.506 296.831 648.922 134.704 497.214 412.531 388.731 577.128 455.680 232.875 240.931 387.712 576.431 584.360 154.210 744.823 123.949 340.431 420.362 439.686 216.957 248.081 454.899 319.133 429.281 180.915 800.458 221.685 195.761 125.747 348.650 553.382 425.703 274.785 509.364 158.025 161.162 158.227 264.936 343.395 451.729 157.280 352.244 0.000 577.264 298.486 339.577 723.931 263.760 161.097 266.581 174.563 785.109 217.753 819.795 262.595 110.625 309.794 279.062 128.440 348.571 289.609 187.060 301.140 188.036 798.380 141.608 344.281 510.613 421.697 150.643 160.680 408.038 414.040 285.493 347.646 158.257 281.574 263.469 149.340 87.962
454.598 607.812 704.886 489.123 1020.252 308.099 624.905 409.204 265.295 584.308 381.168 604.835 169.601 845.766 585.641 552.192 697.440 905.224 426.122 664.297 534.246 462.826 341.978 653.794 646.560 857.883 757.527 709.447 232.615 692.147 481.316 883.364 696.939 839.759 673.300 956.783 619.600 859.521 306.265 709.034 375.189 744.378 385.406 630.898 175.559 598.909 427.189 399.731 618.015 643.597 306.757 673.890 707.460 548.697 770.886 533.322 536.458 519.365 385.554 839.046 572.238 521.607 338.965 584.645 0.000 448.411 335.848 303.537 384.378 536.393 607.121 634.420 411.840 705.615 576.542 341.889 606.277 340.038 365.673 486.842 275.638 607.632 463.487 311.943 473.328 349.146 661.900 839.933 886.652 167.976 525.940 636.395 551.401 819.241 383.074 777.810 633.973 503.506 337.606 669.632 583.614
241.874 340.402 700.268 282.783 628.530 207.367 357.495 394.850 393.236 215.698 198.325 236.225 269.794 578.356 192.816 380.173 344.944 690.402 26.497 484.781 362.228 292.331 421.356 362.945 589.551 505.386 365.804 667.847 322.922 339.651 100.873 615.954 667.150 446.935 382.452 563.959 352.190 568.625 294.291 316.209 184.531 391.882 371.052 245.274 275.753 230.300 674.387 200.756 411.675 353.989 244.188 644.101 533.913 163.072 608.302 180.825 183.962 313.025 234.477 571.636 542.448 315.267 124.678 285.202 430.254 0.000 235.115 597.859 233.301 183.897 427.604 281.923 659.037 353.119 571.923 181.090 338.867 236.621 207.403 153.185 222.500 405.186 257.147 196.678 266.988 672.308 315.092 572.523 494.930 268.169 173.443 388.487 498.757 604.419 240.021 425.314 386.065 117.882 181.965 331.226 316.204
221.870 375.084 866.544 214.907 808.272 41.834 392.178 205.105 250.496 370.074 148.441 390.601 225.263 596.152 372.559 243.869 483.207 621.154 247.054 359.953 225.924 154.503 510.547 421.066 435.054 643.649 545.547 497.942 192.550 477.913 271.145 650.636 485.433 643.918 440.573 760.942 386.873 626.794 131.574 513.193 142.462 530.144 181.307 431.392 227.304 384.676 535.275 160.460 343.799 410.869 112.959 462.384 399.137 349.191 483.574 319.088 322.224 245.149 81.210 566.020 360.732 238.737 186.009 351.918 354.610 269.343 0.000 458.748 80.034 322.160 302.777 420.186 519.926 491.381 738.199 85.009 373.549 37.274 107.557 254.114 176.068 303.288 199.617 86.942 189.431 533.196 429.172 607.205 674.672 223.638 311.706 386.928 339.895 535.171 78.730 563.576 397.562 304.001 80.725 436.905 350.886
601.994 755.208 843.713 636.520 1167.648 453.242 772.301 449.529 277.948 731.704 528.564 752.231 394.800 993.162 733.037 618.595 844.837 1009.229 590.291 766.749 600.649 529.228 491.844 801.190 655.241 1005.279 904.923 703.253 318.368 839.543 628.712 1030.760 690.945 987.155 820.696 1104.179 766.996 1006.918 363.438 856.430 522.586 891.775 426.769 778.294 400.759 746.306 189.374 547.127 765.411 790.993 454.153 667.896 743.518 696.093 774.772 680.718 683.854 666.761 516.195 986.442 581.266 669.003 509.586 732.041 322.607 612.580 445.423 0.000 515.019 683.790 709.572 781.816 174.025 853.011 715.368 489.286 753.673 471.004 513.069 634.238 443.969 720.662 610.883 459.339 620.724 114.340 809.296 987.329 1034.048 393.175 673.336 783.791 582.042 948.396 513.715 925.206 781.369 650.902 485.002 817.029 731.010
157.827 308.251 858.488 136.909 771.807 84.055 325.344 227.418 318.112 333.609 95.279 354.136 253.656 518.154 336.093 167.814 431.501 543.155 241.931 281.955 149.868 78.448 502.491 354.233 377.191 607.184 509.081 455.487 260.166 425.656 239.076 573.977 454.790 640.065 373.739 759.613 315.956 559.961 199.190 495.391 108.316 469.468 203.620 397.245 259.614 348.210 602.891 94.413 265.800 344.036 155.180 431.741 323.082 327.890 407.519 266.246 269.382 167.150 3.211 488.022 330.089 160.738 188.232 283.059 396.830 264.220 100.635 526.364 0.000 269.318 224.778 367.344 587.542 438.539 730.143 67.417 306.716 54.955 52.415 201.109 178.905 225.289 121.619 119.525 111.433 600.813 362.339 530.546 638.207 252.031 258.864 308.929 286.397 457.172 23.768 527.111 319.563 287.699 76.419 370.072 284.053
185.618 245.615 872.153 243.362 609.359 313.943 262.709 504.287 542.065 126.721 221.369 147.249 407.174 483.570 190.075 403.217 227.340 626.381 192.535 432.203 385.271 315.374 578.974 268.159 585.640 416.340 342.864 676.421 439.532 221.496 113.335 521.168 690.193 494.047 287.665 654.510 257.404 473.308 404.214 349.373 219.071 273.142 473.443 250.967 413.133 131.105 784.310 223.799 324.792 259.203 350.764 667.144 523.401 184.472 597.790 50.290 53.426 257.494 283.480 476.850 565.492 256.547 282.296 190.416 561.116 222.500 341.691 707.783 282.304 0.000 392.939 163.183 768.961 234.379 743.808 264.709 244.081 311.909 281.176 103.098 332.423 394.674 231.606 303.255 247.993 782.231 196.352 477.737 471.989 405.549 42.907 293.701 521.801 540.398 301.140 336.267 291.278 164.361 265.584 212.486 221.418
291.775 237.957 1086.765 214.783 869.582 331.594 254.649 381.953 527.805 410.905 302.979 416.912 501.195 407.667 511.123 173.515 403.440 409.177 461.426 113.423 166.776 238.308 738.805 288.405 271.214 566.231 542.432 351.128 507.251 397.595 435.389 477.405 350.431 796.506 307.911 975.558 236.922 494.132 446.275 670.421 303.785 408.217 329.833 549.868 507.154 411.650 814.040 300.654 156.030 278.207 402.719 327.382 199.703 505.520 283.364 386.568 389.704 214.027 250.750 377.535 225.729 189.915 435.771 298.798 644.369 483.715 348.174 749.682 249.574 389.640 0.000 375.047 798.690 377.889 958.421 314.956 240.888 302.494 299.954 356.983 426.444 69.619 256.484 367.064 228.944 821.017 301.088 440.312 672.445 499.570 379.186 216.142 182.038 323.194 271.307 509.478 232.588 493.119 323.958 308.820 218.224
263.316 224.215 979.084 270.291 576.172 414.835 241.308 605.180 642.958 140.796 322.262 125.053 508.067 462.169 231.851 482.647 92.387 615.280 307.141 421.103 464.702 416.267 679.866 240.198 612.472 281.387 249.022 692.386 540.425 86.543 243.827 499.767 691.689 503.096 235.544 696.287 236.003 409.519 505.107 386.851 319.964 141.058 574.336 247.212 514.025 154.311 885.203 324.692 311.019 231.241 451.657 668.640 540.961 226.521 624.621 166.970 170.106 284.423 384.372 455.449 566.987 283.476 383.189 179.796 662.008 329.430 442.584 808.675 383.196 170.041 381.839 0.000 869.853 99.426 850.739 365.602 222.680 412.801 382.069 203.990 433.315 404.866 309.304 404.147 314.232 883.124 106.639 456.336 364.281 506.442 159.587 275.937 523.296 529.297 402.033 201.314 273.515 233.310 366.476 119.192 200.017
681.487 834.701 951.298 716.013 1247.141 532.735 851.794 518.154 357.441 811.197 608.057 831.724 474.293 1072.655 812.530 698.088 924.330 1037.251 669.784 839.680 680.142 608.722 599.429 880.683 706.656 1084.772 984.416 731.276 397.861 919.037 708.205 1110.253 718.968 1066.648 900.189 1183.672 846.489 1086.411 442.931 935.923 602.079 971.268 506.262 857.787 480.252 825.799 61.388 626.620 844.904 870.486 533.646 695.919 798.396 775.586 802.795 760.211 763.347 746.254 595.688 1065.935 625.272 748.496 589.079 811.534 430.192 692.073 524.916 177.760 594.512 763.283 782.503 861.309 0.000 932.504 822.953 568.779 833.166 550.497 592.562 713.731 523.462 793.593 690.376 538.832 700.217 146.314 888.789 1066.822 1113.541 472.668 752.829 863.284 655.338 1021.692 593.208 1004.699 860.862 730.396 564.495 896.522 810.503
315.621 211.917 1034.189 319.709 552.015 469.941 229.010 660.285 698.063 192.260 377.367 176.517 563.172 425.070 279.544 502.475 54.399 584.754 362.247 408.804 495.736 471.372 734.972 227.900 591.493 257.229 224.865 680.088 595.530 62.385 295.291 462.668 679.391 478.938 213.745 688.527 223.705 351.485 560.212 373.367 375.069 57.657 629.441 233.728 569.131 209.227 940.308 379.797 298.721 218.943 506.762 656.342 528.663 277.985 603.642 222.075 225.211 333.841 439.478 418.350 554.689 332.894 438.294 208.821 717.114 384.536 497.689 863.781 438.302 225.147 369.540 107.690 924.959 0.000 905.844 420.707 210.382 467.907 437.174 259.096 488.421 392.568 361.609 459.253 363.649 938.229 94.341 419.237 340.123 561.547 214.693 263.639 510.998 496.495 457.138 177.157 261.217 284.774 421.582 106.894 187.719
761.703 876.313 316.039 771.029 1003.652 700.717 893.407 878.344 734.436 736.206 699.858 746.532 585.732 1114.268 702.536 891.505 880.856 1178.648 562.408 982.248 873.560 803.663 325.438 898.857 1084.398 1041.298 839.959 1164.432 677.240 875.563 636.785 1151.865 1152.125 788.117 918.363 877.968 888.102 1104.536 728.989 738.622 693.879 927.794 854.546 763.687 591.691 750.808 817.110 712.088 899.921 889.900 729.481 1129.076 1022.159 679.112 1096.548 716.737 719.873 801.271 728.751 1107.547 1033.773 803.512 584.689 821.114 568.203 562.175 728.465 693.458 727.575 719.809 925.185 817.835 801.761 889.030 0.000 675.364 874.778 730.895 701.677 689.097 657.121 893.432 745.393 690.029 755.233 739.066 851.003 1108.434 1004.650 584.107 709.355 924.398 1010.089 1092.665 734.295 961.225 921.976 648.315 676.239 867.137 852.115
153.181 306.395 806.099 187.707 739.583 82.873 323.488 282.765 328.156 301.384 79.751 321.911 201.268 544.349 303.869 245.800 414.517 603.808 189.543 357.905 227.854 156.434 450.103 352.377 455.177 574.959 476.857 533.474 233.626 409.224 202.455 581.947 532.776 590.201 371.883 707.225 318.183 558.105 198.308 453.176 73.773 461.455 258.967 362.703 207.226 315.986 578.404 95.672 316.598 342.180 119.695 509.727 401.068 280.501 485.505 250.398 253.535 217.948 79.162 537.629 408.075 220.190 135.844 283.228 355.209 211.832 110.622 501.876 77.986 253.470 300.729 351.496 563.054 422.692 677.755 0.000 304.860 81.306 52.088 185.425 126.516 301.240 162.070 72.185 171.911 576.325 360.483 538.516 605.983 199.643 243.016 334.978 364.384 517.825 84.706 494.887 332.556 235.311 24.332 368.216 282.197
181.750 37.702 1019.875 185.838 673.509 352.507 25.429 532.921 597.790 251.906 259.933 257.913 464.001 261.671 352.124 364.321 236.679 421.354 347.933 270.651 357.583 338.573 701.940 87.696 450.600 370.159 346.360 541.381 496.359 230.835 312.667 299.269 541.237 600.433 111.839 810.822 13.323 298.060 461.041 507.825 257.635 241.457 496.642 390.869 469.959 252.651 841.137 262.363 160.568 59.502 389.328 518.188 388.726 346.521 462.750 229.761 232.898 199.970 306.679 254.951 416.536 199.023 398.577 135.427 617.942 370.222 380.256 764.609 305.503 232.833 231.387 208.287 825.787 211.128 891.531 303.274 0.000 350.473 319.740 200.176 389.249 254.415 227.738 341.819 229.778 839.058 134.327 255.838 476.373 462.376 222.379 68.669 372.845 333.095 327.236 313.406 54.884 353.310 304.148 142.060 30.068
204.308 357.522 864.161 189.565 790.710 39.451 374.615 229.297 274.688 352.511 130.878 373.038 222.880 570.810 354.996 222.505 465.644 595.812 244.671 334.611 204.560 133.139 508.164 403.504 431.883 626.086 527.984 510.179 216.742 460.351 253.582 626.633 508.901 641.535 423.010 758.559 368.612 609.231 155.766 510.810 124.900 512.582 205.499 416.147 224.921 367.113 559.467 135.118 318.457 393.307 110.576 485.852 377.774 340.067 462.210 301.525 304.662 219.807 55.868 540.678 384.199 213.394 183.626 334.355 352.227 266.960 56.032 482.939 54.692 304.597 277.434 402.623 544.117 473.819 735.816 74.594 355.987 0.000 82.214 236.552 173.685 277.945 174.275 84.559 164.089 557.388 411.610 583.202 657.110 221.255 294.143 361.585 341.089 509.829 53.388 546.014 372.220 294.877 74.219 419.343 333.324
171.577 324.791 832.935 188.974 757.979 95.481 341.885 282.970 336.840 319.781 90.798 340.308 228.103 562.746 322.266 223.366 432.914 596.672 216.378 335.471 205.420 133.999 476.939 370.773 432.743 593.356 495.254 511.039 251.821 427.620 220.852 600.343 510.342 617.036 390.280 734.060 336.580 576.501 216.503 480.012 92.169 479.851 259.172 383.417 234.062 334.383 596.599 89.932 317.866 360.576 132.302 487.293 378.634 307.337 463.071 268.795 271.931 219.215 56.728 540.087 385.640 214.255 162.679 301.625 373.404 238.667 118.184 520.071 55.552 271.867 278.294 369.893 581.249 441.088 704.590 41.864 323.256 70.123 0.000 203.822 153.352 278.805 163.338 93.972 164.949 594.520 378.879 556.912 624.379 226.478 261.413 353.375 341.949 510.689 62.272 513.283 350.952 262.147 50.866 386.612 300.593
113.066 197.432 840.925 189.307 642.793 239.461 214.525 435.240 484.744 170.955 146.887 191.482 350.955 435.387 219.983 328.735 258.606 578.198 168.982 384.020 310.790 240.893 541.707 219.976 511.158 447.606 376.298 601.939 383.313 252.762 133.716 472.984 615.712 523.955 239.482 684.418 209.221 425.703 347.995 379.282 144.589 304.408 398.961 281.135 356.913 185.273 728.091 149.317 276.608 211.019 276.282 592.663 448.919 214.381 523.308 93.352 96.488 209.311 208.998 428.666 491.010 208.364 245.029 142.233 504.896 191.271 267.210 651.563 207.822 96.423 344.756 194.449 712.741 265.645 712.580 190.228 195.897 237.427 206.694 0.000 276.203 320.193 163.671 228.773 173.511 726.012 226.880 429.553 505.424 349.330 85.969 245.517 447.319 492.215 226.658 367.533 243.095 191.447 191.102 234.612 173.234
239.476 392.690 782.433 274.002 805.131 143.122 409.783 343.014 293.463 369.186 166.047 389.713 131.179 630.645 370.519 348.970 482.319 690.103 227.774 461.075 331.024 259.603 424.551 438.672 558.347 642.761 542.405 635.850 183.715 477.026 266.195 668.242 623.342 624.638 458.179 741.662 404.479 644.400 180.497 493.912 160.068 529.257 319.216 415.776 137.137 383.788 537.705 184.609 402.894 428.475 159.020 600.293 504.238 333.575 588.675 318.200 321.337 304.244 182.332 623.924 498.640 306.485 151.811 369.524 291.639 250.063 170.870 461.178 181.156 321.272 403.898 419.298 522.356 490.493 654.089 128.945 391.155 175.061 155.258 271.720 0.000 404.409 248.366 126.579 258.206 535.626 446.778 624.811 671.531 129.554 310.818 421.273 467.553 604.120 187.876 562.689 418.851 288.385 129.819 454.511 368.492
242.202 253.939 1037.192 199.701 885.564 308.383 270.631 370.459 516.311 405.235 270.441 411.242 474.508 423.649 484.703 162.021 419.422 422.029 414.567 102.060 155.282 215.098 689.232 304.387 245.406 582.214 558.414 336.187 484.040 413.578 388.530 493.387 338.937 788.674 323.893 932.248 252.904 510.114 423.064 644.001 268.143 424.199 318.339 544.198 480.467 405.980 802.546 272.871 172.012 294.190 379.508 315.888 173.896 476.499 257.556 377.335 380.472 190.674 227.540 393.517 214.235 166.562 404.552 314.780 621.158 436.856 324.963 738.187 226.364 380.407 42.784 391.029 787.196 393.871 908.848 291.745 256.870 279.283 276.743 312.198 399.757 0.000 208.938 343.853 205.591 809.523 317.070 456.294 688.427 472.883 369.953 232.124 170.544 339.176 248.097 525.461 248.570 446.260 300.747 324.803 234.207
62.291 224.659 898.306 57.309 776.812 212.199 241.752 357.597 446.256 286.611 123.514 292.619 327.582 438.554 345.816 251.092 352.644 487.790 275.680 293.612 233.147 163.250 550.345 270.641 406.103 541.644 509.279 496.884 359.940 346.800 249.643 494.377 522.220 649.787 290.147 793.361 236.356 476.369 324.622 505.114 121.216 385.876 321.318 406.967 333.540 287.357 704.718 125.944 186.201 260.444 252.909 515.020 343.864 337.612 418.253 210.982 214.118 87.551 131.355 408.422 413.367 89.792 262.158 201.493 481.523 297.969 228.779 628.190 130.179 214.053 246.890 288.487 689.368 355.548 769.961 165.313 223.124 183.099 159.739 165.272 252.831 215.137 0.000 205.400 60.155 702.639 278.747 450.946 624.538 325.957 203.600 229.329 369.676 401.807 151.912 461.571 239.964 307.373 167.729 286.480 200.461
192.438 345.652 820.660 226.964 777.915 52.393 362.746 252.284 297.675 340.642 119.009 361.169 188.157 583.607 343.127 284.615 453.775 643.065 201.170 396.721 266.670 195.249 464.663 391.634 482.233 614.217 515.189 545.121 195.920 448.481 238.979 621.204 532.613 598.034 411.141 715.058 357.441 597.362 160.602 467.308 113.030 500.712 228.486 388.560 190.199 355.244 540.699 137.571 355.856 381.437 76.402 509.564 439.884 306.359 524.320 289.656 292.792 257.206 117.978 576.886 407.911 259.447 140.125 322.486 317.504 223.459 80.141 464.171 116.801 292.728 339.544 390.754 525.349 461.949 692.315 67.120 344.117 84.331 90.903 224.682 130.184 340.055 201.328 0.000 211.168 538.620 399.740 577.773 644.315 186.532 282.274 374.236 387.074 557.082 123.521 534.144 371.813 261.169 62.836 407.473 321.454
96.857 232.582 902.128 61.240 780.634 193.125 249.676 338.524 427.183 296.738 127.337 302.745 331.404 442.485 349.638 232.019 362.771 468.329 279.502 258.087 214.073 144.176 554.167 278.565 389.034 551.771 514.139 479.815 363.762 356.927 253.465 498.308 505.150 653.610 298.071 797.184 240.287 484.292 308.261 508.936 125.039 393.800 302.245 410.789 337.363 297.484 708.540 129.767 190.132 268.367 256.732 495.947 326.795 341.435 401.184 234.231 237.368 91.482 112.282 412.353 394.294 85.529 265.980 207.391 485.346 301.791 209.706 632.013 111.106 237.303 218.823 298.614 693.191 363.471 773.783 167.575 231.048 164.025 161.485 169.094 256.653 198.068 45.950 209.222 0.000 706.462 286.670 454.877 634.665 329.779 226.849 233.261 350.603 382.346 132.839 471.698 243.895 311.196 171.551 294.403 208.384
677.454 830.668 874.810 711.980 1243.108 528.702 847.761 524.989 353.408 807.164 604.024 827.691 441.632 1068.622 808.497 694.055 920.297 1044.779 665.751 842.209 676.109 604.689 522.941 876.650 714.183 1080.739 980.383 738.803 393.828 915.004 704.172 1106.220 726.495 1062.615 896.156 1179.639 842.456 1082.378 438.898 931.890 598.046 967.235 502.229 853.754 447.591 821.766 158.394 622.587 840.871 866.453 529.613 703.446 805.923 771.553 810.322 756.178 759.314 742.221 591.655 1061.902 632.799 744.463 585.046 807.501 353.704 688.040 520.883 101.272 590.479 759.250 785.032 857.276 152.238 928.471 746.465 564.746 829.133 546.464 588.529 709.698 519.429 796.122 686.343 534.799 696.184 0.000 884.756 1062.789 1109.508 440.007 748.796 859.251 657.502 1023.856 589.175 1000.666 856.829 726.363 560.462 892.489 806.470
235.183 131.478 1001.335 239.271 609.726 405.940 148.572 586.354 651.223 183.855 313.366 185.311 517.434 369.433 284.073 422.037 125.941 522.544 329.393 328.366 415.298 392.006 702.118 147.461 519.735 314.941 282.577 599.650 549.792 120.097 278.882 407.031 598.953 536.650 142.808 735.565 143.267 353.189 514.474 420.405 311.068 130.719 550.075 280.767 523.392 184.600 894.570 315.796 218.283 138.505 442.761 575.904 448.225 278.471 531.885 189.221 192.358 253.403 360.112 362.713 474.251 252.456 405.440 128.902 671.375 351.682 433.688 818.042 358.936 192.293 289.102 97.549 879.220 100.390 872.991 356.706 129.944 403.906 373.173 226.242 442.682 312.130 281.171 395.252 283.211 892.491 0.000 363.600 397.835 515.808 181.839 183.201 430.560 436.561 380.669 234.868 180.779 285.259 357.581 20.552 107.281
415.281 271.233 1253.406 409.674 742.495 586.038 241.598 726.902 831.321 485.436 493.464 491.444 697.531 54.851 585.655 541.930 417.277 297.348 581.464 378.540 535.191 555.316 935.470 306.087 488.339 373.049 513.109 579.120 729.889 432.576 546.198 148.889 604.456 718.554 302.964 956.831 258.868 311.744 694.571 674.574 491.166 409.460 674.782 602.503 703.490 486.182 1074.667 495.894 295.849 277.893 622.859 615.136 460.121 580.052 500.525 463.292 466.428 423.807 530.590 64.346 547.266 415.455 632.108 368.958 851.473 603.753 613.786 998.140 529.414 466.364 417.938 441.818 1059.318 432.697 1125.061 536.804 254.235 582.333 553.271 433.707 622.780 440.966 454.195 575.350 453.689 1072.589 367.858 0.000 501.389 695.906 455.910 266.648 550.453 228.177 551.147 396.209 263.069 586.841 537.679 375.591 263.599
564.282 481.165 1140.039 583.481 286.910 641.546 461.978 828.578 847.597 382.090 565.874 381.175 729.798 496.043 344.791 747.722 295.620 669.827 479.338 656.463 729.777 659.880 881.360 456.068 794.025 215.427 182.968 884.806 764.394 310.387 419.792 533.656 910.142 297.669 424.310 535.946 477.491 407.474 729.076 344.433 552.080 379.353 804.780 274.610 735.756 396.692 1109.172 568.304 581.659 444.973 678.367 920.822 738.044 377.694 806.175 471.057 475.981 597.613 627.985 489.323 837.627 596.666 584.682 492.986 885.977 515.794 669.295 1032.644 626.809 466.844 652.478 365.775 1093.822 332.972 1011.694 593.387 464.167 640.586 609.853 475.593 657.284 675.506 610.648 630.858 620.488 1107.093 384.090 490.225 0.000 728.172 465.462 530.796 793.936 598.023 637.133 196.190 517.011 386.755 594.261 396.643 469.348
325.437 478.651 745.268 359.963 891.091 187.952 495.744 338.030 240.822 455.147 252.007 475.674 1.625 716.605 456.480 432.044 568.280 776.064 290.175 544.150 414.099 342.678 350.009 524.633 567.979 728.722 628.366 630.866 120.551 562.986 352.155 754.203 618.358 710.598 544.139 825.530 490.439 730.361 186.117 579.873 246.029 615.218 314.232 501.737 7.584 469.749 480.799 270.570 488.854 514.436 186.609 595.309 587.313 419.536 671.750 404.161 407.297 390.204 265.407 709.885 493.657 392.446 203.018 455.484 180.480 312.464 215.700 401.476 264.231 407.233 486.973 505.259 465.449 576.454 616.923 214.905 477.116 219.890 241.218 357.681 146.560 487.484 334.326 191.795 344.167 447.085 532.739 710.772 757.491 0.000 396.779 507.234 472.820 690.081 262.927 648.649 504.812 374.345 215.780 540.472 454.453
196.130 252.273 892.967 252.320 630.173 331.151 269.366 521.496 559.274 133.536 238.577 147.589 424.383 490.228 210.889 420.425 207.615 635.339 213.350 441.161 402.480 332.583 596.182 274.817 602.848 396.615 363.678 693.629 456.741 201.771 134.149 527.825 707.402 514.861 294.323 675.324 264.062 453.583 421.423 370.187 236.280 253.417 490.651 271.781 430.341 134.281 801.519 241.008 333.750 265.860 367.972 684.353 540.609 205.286 614.998 7.382 10.519 266.452 300.688 483.507 582.700 265.505 299.504 178.337 578.324 243.314 358.900 724.991 299.512 45.135 401.897 143.458 786.169 214.653 764.623 281.918 250.738 329.117 298.384 120.306 349.631 406.319 242.119 320.463 265.202 799.440 176.626 484.394 479.509 422.757 0.000 300.792 539.009 549.356 318.348 316.542 298.370 185.175 282.792 192.760 228.075
212.020 106.003 1069.532 182.054 741.811 382.777 83.466 531.311 625.008 302.144 290.203 308.152 494.271 273.579 402.363 340.759 290.307 395.245 397.590 247.088 334.020 342.001 732.210 155.997 424.491 438.460 414.661 515.272 526.629 284.463 362.324 311.177 517.675 668.735 180.140 866.798 65.739 366.361 491.311 561.661 287.905 295.084 479.072 441.108 500.229 302.890 871.407 292.633 124.282 127.803 419.598 494.626 362.617 396.760 436.641 279.418 282.554 196.186 310.107 265.948 392.973 195.239 428.847 185.666 648.212 419.879 407.531 794.879 308.931 282.490 207.824 261.915 856.057 264.756 941.187 333.544 70.342 361.850 350.010 249.833 419.519 230.852 233.712 372.089 233.206 869.328 187.955 267.746 544.674 492.646 272.036 0.000 349.282 309.262 330.664 381.707 27.680 403.549 334.418 195.688 98.370
394.899 368.405 1138.464 345.231 1000.030 344.165 385.097 231.077 376.928 541.353 344.582 547.360 470.321 523.734 573.165 143.555 533.888 504.140 503.028 211.740 136.816 209.458 765.500 418.853 140.233 696.680 672.880 203.467 389.702 528.044 476.992 593.472 190.959 877.136 438.359 1020.710 367.370 624.580 328.726 732.463 345.388 538.665 178.956 634.316 472.363 542.098 663.163 342.257 286.478 408.656 408.487 167.910 190.734 564.961 269.684 503.317 506.454 344.475 285.158 493.602 66.257 320.363 468.263 429.246 559.043 525.318 336.346 590.785 281.946 506.389 154.563 505.495 647.814 508.337 1010.119 349.363 371.336 336.901 334.361 438.180 460.851 165.653 358.690 382.470 348.504 665.234 431.536 556.379 802.893 468.696 495.935 346.590 0.000 439.261 305.715 639.927 363.036 534.722 358.365 439.269 348.673
452.864 308.816 1270.310 366.756 842.336 556.437 279.181 640.803 786.655 523.019 495.518 529.027 699.586 203.366 623.238 455.831 454.860 235.040 619.047 292.442 449.092 469.218 922.349 343.670 416.612 472.890 550.692 507.392 731.944 470.159 583.781 273.104 532.728 804.765 340.547 1015.154 296.451 411.585 671.573 712.157 493.220 447.043 588.683 640.086 705.544 523.765 1059.389 497.948 252.931 315.476 624.913 543.408 374.022 617.635 428.797 500.875 504.012 380.888 475.594 173.234 475.538 352.685 634.162 406.541 853.527 641.336 573.018 982.862 474.418 503.947 331.839 479.401 1044.040 470.280 1141.965 535.053 291.818 527.337 524.797 471.290 624.834 354.867 418.414 577.404 401.684 1057.311 405.441 236.010 601.230 697.961 493.493 271.617 464.354 0.000 496.151 496.049 299.297 624.424 539.733 413.174 301.182
174.859 325.282 868.814 153.940 786.530 82.159 342.376 246.485 316.217 348.332 105.606 368.859 263.982 535.185 350.816 186.881 448.532 560.187 252.258 298.986 168.935 97.515 512.818 371.265 396.258 621.907 523.804 474.554 258.270 442.688 249.402 591.008 473.857 652.915 390.771 769.939 332.987 576.992 197.295 510.114 119.137 486.500 222.687 411.968 267.629 362.933 600.996 104.740 282.832 361.068 153.284 450.808 342.149 342.613 426.586 283.278 286.414 184.182 13.538 505.053 349.156 177.770 198.559 300.091 394.934 274.547 98.740 524.468 19.067 286.349 241.810 384.375 585.646 455.571 740.469 77.743 323.748 53.059 62.741 218.141 189.231 242.321 138.650 127.267 128.464 598.917 379.371 547.578 652.930 262.357 275.895 325.961 305.464 474.204 0.000 541.834 336.595 298.026 86.745 387.103 301.085
425.361 330.021 1111.386 432.337 437.957 547.572 310.834 737.482 775.260 283.066 470.826 267.323 640.369 394.718 373.703 634.268 144.475 568.501 439.443 505.319 626.747 564.831 812.169 304.923 642.881 113.957 232.564 733.662 672.727 159.774 368.909 432.331 758.997 414.016 273.165 652.293 326.346 306.149 637.409 394.029 457.032 228.209 713.684 326.817 646.327 300.033 1017.505 473.256 430.514 293.828 584.393 769.677 586.899 368.791 655.031 329.015 332.152 446.469 532.937 387.998 686.482 445.522 515.491 341.842 794.310 461.733 575.320 940.977 531.761 332.087 501.334 214.630 1002.156 181.828 983.041 498.338 313.023 545.538 514.805 366.036 565.618 524.361 471.349 536.884 476.277 1015.426 232.946 388.900 196.851 638.744 321.633 379.652 642.791 496.697 542.084 0.000 365.867 375.580 499.213 245.499 318.204
202.131 90.555 1059.643 191.888 737.912 372.887 79.567 538.971 618.170 292.255 280.314 298.262 484.381 282.264 392.473 353.840 280.418 441.947 387.700 260.169 347.101 344.624 722.320 152.098 451.538 434.561 410.762 531.453 516.739 274.573 352.434 319.861 530.756 664.836 176.241 856.908 61.840 362.462 481.421 551.771 278.016 285.195 492.152 431.218 490.340 293.000 861.517 282.744 149.859 123.904 409.709 507.707 380.028 386.870 463.688 269.528 272.665 206.020 312.729 275.543 406.054 205.073 418.957 175.776 638.323 409.989 400.636 784.990 311.553 272.600 220.905 252.025 846.168 254.867 931.298 323.654 66.443 364.473 340.121 239.943 409.630 243.933 236.334 362.199 235.829 859.439 178.066 276.430 540.775 482.756 262.146 47.749 362.363 353.688 333.286 377.808 0.000 393.659 324.528 185.798 84.891
274.931 354.312 793.569 324.630 532.037 270.327 371.405 457.930 484.489 125.484 240.172 134.094 360.817 592.266 94.587 422.020 275.363 732.249 112.987 526.628 404.075 334.178 516.867 376.855 631.398 451.021 269.311 709.694 393.175 269.519 78.405 629.864 708.997 395.685 396.362 524.540 366.100 555.622 357.857 251.011 226.378 328.277 434.132 157.474 366.775 140.086 737.953 242.603 435.788 367.899 307.148 685.948 575.760 55.478 650.149 182.557 187.481 354.872 287.587 585.546 584.295 357.114 220.189 280.375 514.758 149.444 298.076 661.425 286.411 178.343 469.451 223.486 722.603 285.117 665.224 234.200 352.777 289.730 260.513 186.242 286.065 447.033 298.994 259.639 308.835 735.874 278.665 586.433 398.437 359.191 176.962 402.831 540.604 646.266 293.131 370.948 400.409 0.000 235.074 294.799 330.114
155.976 309.190 808.895 190.502 742.378 66.054 326.283 265.946 311.337 304.180 82.547 324.707 204.063 547.144 306.664 242.102 417.312 606.603 192.338 354.207 224.156 152.735 452.898 355.172 451.479 577.755 479.652 529.775 222.394 412.019 205.250 584.742 529.078 592.996 374.678 710.020 320.979 560.900 187.076 455.972 76.568 464.250 242.148 365.498 210.021 318.781 567.172 98.467 319.394 344.975 102.875 506.029 397.370 283.297 481.807 253.194 256.330 220.743 75.464 540.424 404.377 222.985 138.639 286.024 343.978 214.627 93.803 490.645 74.288 256.265 297.030 354.291 551.823 425.487 680.550 19.114 307.655 74.439 48.390 188.220 129.312 297.541 164.866 59.039 174.706 565.094 363.278 541.311 608.778 202.438 245.811 337.773 360.685 520.620 81.008 497.682 335.351 238.106 0.000 371.011 284.992
246.195 142.490 1012.347 250.283 616.335 416.952 159.584 597.366 662.235 194.867 324.378 196.323 528.446 380.445 295.085 433.049 132.549 533.556 340.405 339.378 426.310 403.018 713.130 158.473 530.747 321.549 289.185 610.662 560.804 126.705 289.894 418.043 609.965 543.258 153.820 742.173 154.279 359.119 525.486 427.013 322.080 113.776 561.087 287.375 534.404 195.612 905.582 326.808 229.295 149.517 453.773 586.916 459.237 289.482 542.897 200.233 203.370 264.415 371.124 373.725 485.263 263.468 416.452 139.914 682.387 362.694 444.700 829.054 369.948 203.305 300.114 104.157 890.232 106.998 884.003 367.718 140.956 414.918 384.185 237.254 453.694 323.142 292.183 406.264 294.223 903.503 21.984 374.612 404.443 526.820 192.851 194.213 441.572 447.573 391.681 241.477 191.791 296.271 368.593 0.000 118.293
158.492 24.198 996.617 162.580 678.109 329.249 50.147 509.662 574.532 228.647 236.675 234.655 440.742 271.008 328.866 341.063 213.421 430.691 324.675 247.393 334.324 315.315 678.681 96.932 438.762 374.759 350.960 518.676 473.100 207.577 289.409 308.605 517.979 605.033 116.439 793.301 44.842 302.660 437.782 488.164 234.377 218.198 473.384 367.610 446.701 229.393 817.879 239.105 137.309 68.838 366.070 494.930 367.251 323.263 450.912 206.503 209.639 176.712 283.421 264.287 393.277 175.765 375.319 112.169 594.684 346.964 356.997 741.351 282.245 209.575 208.129 185.029 802.529 187.870 868.272 280.015 31.518 327.215 296.482 176.918 365.991 231.157 204.480 318.561 206.520 815.800 111.069 265.174 480.973 439.117 199.121 98.147 349.586 342.432 303.978 318.006 84.362 330.052 280.890 118.802 0.000
NODE_COORD_SECTION
1 -2164.012052 1974.697434
2 -5556.079339 1891.390506
3 10370.772512 -4794.865172
4 -2800.124155 2954.627064
5 -6887.073050 -11717.627728
6 1059.686221 3303.175934
7 -6120.608800 1963.869761
8 1710.197853 7691.492738
9 4736.400244 6344.619715
10 -2958.570106 -1638.936721
11 -339.802688 2182.966347
12 -3240.527403 -1773.535103
13 4564.712457 2370.732994
14 -10523.810824 3145.107820
15 -1653.428735 -3148.119698
16 -2557.789534 6482.518098
17 -5889.563545 -2096.279654
18 -11440.243013 6779.957979
19 521.084562 -1124.115419
20 -5096.769337 6139.898083
21 -2283.882196 6307.890602
22 -1038.084760 5006.046241
23 8646.469062 -1476.308781
24 -6003.877506 1361.480081
25 -3998.768825 9401.679459
26 -9806.313828 -3496.674426
27 -4546.846414 -5443.513338
28 -3789.566371 11285.907663
29 4160.046915 3849.090205
30 -5841.762242 -2332.019026
31 -964.342211 -1064.374685
32 -11710.107948 3135.728816
33 -3637.938162 11401.259392
34 -3230.885317 -9621.996694
35 -6386.116720 847.222947
36 -1356.624577 -10556.988266
37 -5978.220995 2067.558679
38 -11884.259725 -979.353308
39 2728.977192 4178.378801
40 -2019.611491 -6641.317893
41 -386.011417 2080.070078
42 -6027.583941 -1564.379640
43 678.569381 6737.980527
44 -2579.281089 -4178.691623
45 4562.025593 2403.729163
46 -3109.131861 -1303.785782
47 9781.227489 10385.038635
48 -335.868452 2346.899834
49 -5469.445405 3959.443785
50 -6052.352382 1422.903389
51 1563.087857 3165.567931
52 -2937.202669 11730.879663
53 -4485.825308 8445.118844
54 -1163.449567 -2787.046823
55 -6165.611116 11077.623460
56 -2483.606277 -79.372970
57 -2517.276722 -182.427749
58 -2816.241316 3242.933806
59 -286.917493 3349.163138
60 -10315.839256 3392.767762
61 -2541.810083 9808.756705
62 -3017.512294 3439.831472
63 1667.520468 956.649738
64 -4237.895353 1023.120904
65 7273.714912 3181.886811
66 660.267673 -1282.302707
67 963.235283 3718.874777
68 8281.754199 7765.299423
69 -300.950770 3427.363678
70 -2404.658330 -161.289079
71 -4497.241981 6191.412210
72 -4629.807392 -1477.741793
73 9636.942448 10089.397618
74 -5815.294566 -1682.541419
75 10957.984839 -4712.733557
76 577.498245 2402.599761
77 -5912.813182 1994.929243
78 621.702344 3420.811871
79 295.361155 2793.064372
80 -1964.677153 767.624036
81 2567.159233 2139.514955
82 -4190.000535 5802.534773
83 -2034.611670 2718.243336
84 1279.971238 2559.228423
85 -2073.774140 3213.404597
86 9576.256473 8339.546193
87 -5179.592962 -350.501274
88 -10494.539259 2911.393864
89 -7973.125702 -6630.553137
90 4582.731584 2371.907273
91 -2549.836077 -70.311558
92 -6044.456532 2757.977956
93 -2422.062032 8552.408332
94 -9131.511511 4848.494781
95 -142.405068 3311.779394
96 -8279.887958 -3744.495920
97 -5912.213966 2541.906997
98 -1056.267264 -2199.033609
99 709.551186 2450.263812
100 -5377.475078 -414.902991
101 -5451.391305 1852.358892
DEMAND_SECTION
1 0
2 1
3 10
4 5
5 58
6 6
7 7
8 7
9 95
10 8
11 8
12 5
13 10
14 1
15 5
16 7
17 63
18 57
19 2
20 7
21 6
22 7
23 4
24 10
25 8
26 6
27 8
28 4
29 1
30 1
31 5
32 5
33 3
34 10
35 1
36 2
37 64
38 4
39 1
40 9
41 4
42 5
43 6
44 9
45 1
46 3
47 54
48 7
49 6
50 1
51 1
52 10
53 6
54 8
55 5
56 3
57 10
58 10
59 2
60 10
61 9
62 3
63 9
64 2
65 10
66 9
67 83
68 10
69 3
70 85
71 1
72 93
73 10
74 7
75 10
76 5
77 10
78 7
79 1
80 10
81 5
82 8
83 2
84 4
85 2
86 3
87 6
88 5
89 53
90 6
91 4
92 8
93 1
94 6
95 4
96 5
97 1
98 4
99 6
100 1
101 6
DEPOT_SECTION
1
-1
EOF
