NAME : mamut-paris-n50-hyb
COMMENT : Mamut2026 fastest metric; city paris; 3-decimal seconds/meters; ENU ref in mamut-paris-n50-hyb.vrp.json
TYPE : CVRP
DIMENSION : 51
EDGE_WEIGHT_TYPE : EXPLICIT
EDGE_WEIGHT_FORMAT : FULL_MATRIX
CAPACITY : 151
EDGE_WEIGHT_SECTION
0.000 173.565 321.437 102.699 244.692 245.242 39.598 221.889 228.689 280.725 194.228 133.941 265.742 364.970 478.531 344.267 326.973 145.049 213.963 311.437 186.533 199.820 404.911 132.208 154.060 316.971 374.361 474.834 412.245 504.620 576.081 191.236 424.862 460.929 228.321 520.784 242.195 326.229 308.885 384.300 530.677 256.990 302.727 127.447 258.052 413.216 578.336 335.866 468.600 288.128 122.316
174.508 0.000 399.127 233.059 322.382 322.933 150.721 142.628 347.782 333.811 308.604 187.026 380.118 442.661 531.304 421.958 379.746 222.739 267.048 389.128 264.224 314.196 457.684 209.899 231.751 394.662 332.586 352.965 362.776 557.394 454.213 158.381 324.284 438.316 281.406 598.475 348.809 403.920 255.735 461.991 608.367 177.730 380.418 180.533 279.197 465.989 550.571 388.952 521.373 161.616 175.401
319.012 414.738 0.000 275.972 172.200 210.248 344.494 384.419 340.863 160.407 254.243 265.016 325.757 210.987 650.917 22.831 471.844 310.558 245.189 150.366 253.267 259.835 577.297 293.954 235.017 124.958 613.639 720.650 665.860 677.006 821.898 348.003 678.476 700.207 181.433 306.864 377.986 172.246 409.657 120.637 367.643 411.813 240.987 283.043 383.210 585.602 817.614 294.227 640.985 506.690 298.623
140.670 221.397 292.752 0.000 205.194 195.415 180.268 342.104 144.138 299.330 130.263 221.091 188.680 325.472 418.661 315.582 251.503 214.448 301.113 271.939 136.707 122.758 345.041 174.778 106.980 277.473 356.671 481.752 408.892 444.750 583.000 305.688 421.509 443.240 253.244 481.286 157.645 286.731 441.266 344.802 491.178 377.205 263.229 259.829 390.433 353.346 560.646 415.690 408.729 378.754 254.697
310.456 418.306 139.662 258.159 0.000 164.082 348.062 402.917 294.698 236.774 208.078 283.515 279.591 249.212 604.752 162.493 425.679 302.002 263.687 153.963 207.101 213.670 531.132 280.514 188.852 124.383 579.729 719.518 645.355 630.841 820.766 366.502 659.274 666.297 199.931 405.026 331.821 210.470 477.808 258.245 414.918 438.018 194.822 301.542 436.313 539.436 783.704 362.378 594.820 532.869 317.121
334.629 442.479 263.834 254.469 196.311 0.000 372.235 433.787 224.769 355.111 189.894 312.774 216.905 189.254 510.853 286.665 313.140 326.175 372.781 263.057 191.127 195.486 430.655 304.688 170.669 268.591 513.901 673.023 579.527 537.255 774.270 397.372 606.011 595.834 309.025 393.335 209.280 198.780 532.950 256.851 403.228 468.889 87.934 351.512 482.117 438.959 717.876 455.875 500.922 557.043 346.381
142.000 210.088 378.346 197.271 301.601 302.151 0.000 278.798 311.995 337.635 287.823 190.850 357.972 421.879 511.940 401.177 360.382 201.958 270.872 368.346 243.443 292.051 438.320 189.118 210.969 373.880 407.770 508.243 445.654 538.029 609.490 248.146 458.271 494.338 285.230 577.694 313.022 383.138 365.794 441.210 587.586 313.900 359.637 184.357 314.961 446.625 611.745 392.776 502.009 344.505 179.225
253.471 150.561 404.527 312.022 379.825 388.395 229.685 0.000 426.745 285.153 374.067 194.300 445.580 500.104 626.691 427.357 475.133 301.703 250.891 403.228 329.686 379.659 553.071 288.863 297.213 433.841 392.008 412.387 422.198 652.780 513.635 92.131 383.706 497.738 251.291 605.190 427.772 461.362 146.519 436.864 665.810 88.187 437.861 129.750 182.964 561.376 609.993 333.189 616.759 183.064 163.399
218.753 282.275 354.892 177.416 267.334 232.223 252.150 412.599 0.000 416.814 114.385 338.575 165.039 373.729 380.002 377.722 182.288 323.830 418.597 334.079 216.928 101.249 299.803 284.159 196.470 339.613 376.833 516.622 442.459 406.404 617.870 381.946 456.379 463.402 370.728 543.426 80.266 348.871 517.725 406.942 553.318 447.700 272.409 340.000 466.892 308.108 580.808 533.175 370.070 439.633 334.868
316.651 367.906 151.953 273.611 249.926 287.973 342.133 295.236 399.601 0.000 323.633 238.043 395.147 301.211 674.124 174.784 506.966 308.197 134.547 228.091 279.253 329.225 600.504 291.594 246.780 253.841 611.278 645.297 655.108 700.213 746.545 273.844 616.616 697.846 113.350 387.907 413.107 262.470 284.605 212.119 453.602 286.761 318.713 208.884 258.158 608.808 815.253 169.175 664.192 381.638 240.685
204.242 267.765 264.458 137.622 176.900 141.789 237.640 369.154 86.620 326.381 0.000 248.142 71.514 297.178 396.674 287.288 217.601 261.542 328.164 243.645 126.494 5.592 323.054 240.055 106.036 249.179 371.651 511.440 437.277 422.763 612.688 332.739 451.196 458.219 280.294 452.992 123.743 258.437 468.317 316.508 462.885 404.256 222.979 286.880 417.484 331.358 575.626 442.741 386.742 425.122 281.748
255.818 274.562 265.540 218.940 274.721 283.291 254.386 216.915 344.930 242.288 268.963 0.000 340.476 395.000 619.453 288.371 452.296 253.527 175.525 273.679 224.582 274.555 545.833 236.923 192.109 304.293 547.384 567.763 577.574 645.543 669.011 180.500 539.082 640.655 156.715 517.987 358.437 356.258 316.078 337.284 560.706 252.016 332.757 134.640 265.245 554.138 758.061 297.429 609.522 346.894 129.509
249.083 312.605 309.298 182.462 221.740 162.088 282.480 413.995 131.460 371.221 68.792 292.982 0.000 342.019 441.514 332.129 262.442 306.383 373.004 288.486 171.334 50.433 367.894 284.895 150.877 294.020 416.491 556.281 482.118 467.604 657.528 377.580 496.037 503.060 325.135 497.833 168.583 303.277 513.158 361.349 507.725 449.096 242.364 331.720 462.325 376.199 620.466 487.582 431.583 469.963 326.589
389.351 497.202 211.128 337.055 216.886 225.477 426.958 488.509 366.676 305.397 280.057 367.497 351.570 0.000 649.768 229.036 452.054 380.897 393.356 283.631 279.080 285.649 569.825 359.410 260.831 263.964 651.707 791.497 717.334 676.170 892.744 452.094 731.253 737.631 329.600 302.008 341.071 116.030 515.467 192.845 311.900 517.624 167.296 406.235 489.020 578.130 855.682 391.869 639.837 611.765 401.103
415.108 471.966 640.217 414.264 552.659 517.548 448.505 611.041 368.295 656.173 399.710 542.848 452.496 646.703 0.000 663.047 262.832 553.956 622.870 619.404 502.253 386.574 152.119 521.008 479.226 624.938 439.743 608.807 505.369 268.857 710.054 580.388 531.852 405.325 610.086 828.751 300.821 634.196 716.167 692.267 838.644 646.142 545.384 536.354 665.334 138.983 585.985 744.773 155.119 597.057 531.223
320.581 416.307 59.504 277.541 219.652 257.700 346.063 363.372 388.315 137.576 301.695 266.586 373.209 242.091 678.054 0.000 510.896 312.127 224.143 197.818 283.183 307.287 604.434 295.524 250.710 179.399 615.208 714.221 667.429 704.143 815.468 326.957 680.046 701.777 160.387 337.967 417.038 203.350 412.242 151.740 398.746 398.474 288.440 261.997 385.795 612.739 819.183 296.812 668.122 493.351 293.799
269.870 326.728 468.318 269.027 380.760 345.650 303.267 465.803 193.201 510.935 227.812 397.610 280.597 471.610 284.349 491.149 0.000 408.718 477.632 447.505 330.354 214.676 188.439 375.770 309.896 453.039 294.824 463.888 360.450 302.691 565.136 435.150 386.934 372.586 464.849 656.853 134.936 462.297 570.929 520.369 666.745 500.904 370.291 391.117 520.096 196.744 496.435 599.536 275.104 451.819 385.985
140.165 256.140 281.269 126.050 204.524 205.074 179.763 303.894 252.040 261.404 190.746 182.881 262.260 324.803 526.563 304.100 359.405 0.000 262.903 271.269 146.366 196.338 452.943 92.041 113.892 276.803 463.717 562.053 515.938 552.652 663.300 267.479 528.555 550.286 215.318 480.617 265.547 286.061 391.460 344.133 490.509 338.995 262.560 210.023 340.628 461.248 667.692 377.765 516.631 370.704 204.891
279.145 295.126 209.046 236.105 239.020 277.068 281.814 237.479 362.095 139.479 286.128 165.263 357.641 362.197 636.618 231.877 469.460 270.691 0.000 217.186 241.747 291.719 562.998 254.088 209.274 247.800 567.948 588.327 598.138 662.707 689.575 201.063 559.646 660.341 41.775 461.493 375.602 323.456 310.050 280.790 522.273 272.580 307.808 136.103 268.555 571.303 777.747 194.620 626.687 367.457 167.905
281.042 376.768 158.288 238.002 134.230 172.278 306.524 346.449 302.893 189.549 216.273 227.046 287.787 257.407 612.947 181.119 433.875 272.588 207.219 0.000 215.297 221.865 539.327 255.985 197.048 143.010 575.669 682.680 627.890 639.036 783.928 310.034 640.506 662.237 143.463 413.221 340.016 218.666 421.340 276.737 423.114 381.550 203.018 245.074 379.845 547.632 779.644 305.910 603.016 476.427 260.653
187.839 295.690 209.651 107.679 122.092 91.839 225.446 286.997 164.130 244.223 77.511 165.985 149.024 242.371 474.184 232.481 295.112 179.385 246.007 188.838 0.000 83.102 400.564 157.898 23.879 194.372 442.456 567.538 494.677 500.274 668.785 250.582 507.294 529.025 198.137 398.185 201.253 203.630 386.160 261.701 408.077 322.099 173.029 204.723 335.327 408.869 646.431 360.584 464.253 410.253 199.591
198.650 262.173 273.803 146.366 186.245 151.135 232.048 378.500 81.028 335.726 33.296 257.487 86.082 306.523 391.082 296.634 212.009 270.888 337.509 252.990 135.839 0.000 317.462 249.400 115.381 258.524 366.059 505.848 431.685 417.171 607.096 342.084 445.604 452.627 289.639 462.337 118.151 267.782 477.662 325.854 472.230 413.601 227.846 296.225 426.829 325.767 570.034 452.086 381.150 419.530 291.093
352.510 409.368 577.619 351.667 490.061 454.951 385.907 548.443 305.697 593.575 337.113 480.250 389.898 584.106 186.367 600.450 200.234 491.358 560.272 556.806 439.655 323.977 0.000 458.410 416.629 562.340 364.719 534.267 413.511 154.453 635.514 517.790 439.994 289.977 547.489 766.154 238.223 571.598 653.569 629.670 776.046 583.544 482.786 473.757 602.736 30.381 470.638 682.176 159.178 534.459 468.625
174.227 282.078 270.465 104.833 193.720 194.270 211.834 293.374 230.823 250.600 179.942 172.361 251.456 313.999 505.346 293.296 338.188 165.774 252.383 260.465 135.562 185.534 431.726 0.000 103.088 265.999 442.500 567.581 494.721 531.435 668.829 256.959 507.337 529.068 204.514 469.813 244.329 275.257 392.537 333.329 479.705 328.476 251.756 211.099 341.704 440.030 646.475 366.961 495.414 396.641 205.968
177.400 285.250 211.422 125.104 123.863 114.085 215.006 276.558 186.377 233.784 99.757 155.545 171.270 244.142 496.431 234.252 317.358 168.946 235.567 190.609 55.377 105.349 422.811 147.459 0.000 196.143 462.771 587.852 514.992 522.520 689.100 240.143 527.608 549.339 187.698 399.956 223.500 205.401 375.721 263.472 409.848 311.659 181.899 194.283 324.888 431.115 666.746 350.145 486.499 399.814 189.152
353.537 449.263 108.620 310.497 194.368 240.134 379.019 418.944 370.749 205.732 284.130 299.542 355.643 262.296 680.803 131.450 501.731 345.083 279.714 184.891 283.153 289.722 607.183 328.480 264.904 0.000 648.164 755.175 700.385 706.893 856.423 382.529 713.001 734.733 215.958 415.484 407.872 223.555 480.398 204.719 428.003 454.045 270.874 317.569 452.340 615.488 852.139 364.968 670.872 548.922 333.148
329.100 331.970 601.814 340.041 522.827 490.163 362.498 417.429 366.707 581.949 372.325 456.840 425.110 643.105 485.396 624.645 333.838 467.948 536.862 589.572 454.340 359.189 403.949 446.784 424.613 595.106 0.000 182.508 73.147 373.458 283.755 460.166 99.630 173.978 535.863 798.919 346.500 604.364 445.189 662.435 808.812 375.995 569.723 450.347 498.155 412.253 244.821 658.766 475.464 290.974 445.216
440.369 359.147 714.180 452.407 635.193 613.284 473.767 422.667 489.828 660.869 495.446 518.533 548.232 755.471 604.007 737.011 452.449 554.246 598.555 701.938 566.706 482.310 475.001 541.406 536.979 707.472 154.678 0.000 97.268 470.702 101.248 465.403 58.776 263.386 612.913 911.285 468.710 716.730 450.426 774.802 921.178 381.232 692.844 503.022 503.393 483.306 290.034 686.138 594.076 296.212 506.908
376.584 355.563 649.298 387.525 570.310 537.646 409.981 441.023 414.190 629.433 419.808 504.324 472.594 690.589 522.039 672.128 370.481 515.432 584.346 637.055 501.823 406.672 393.033 494.268 472.097 642.589 79.040 153.739 0.000 388.734 254.986 483.759 38.646 181.418 583.346 846.403 386.742 651.847 468.782 709.919 856.295 399.588 617.207 497.831 521.749 401.338 208.066 704.494 512.108 314.568 492.699
483.713 540.571 708.822 482.870 621.264 586.154 517.110 679.646 436.900 724.778 468.315 611.453 521.101 715.309 320.691 731.653 333.879 622.561 691.475 688.009 570.858 455.180 169.437 589.613 547.832 693.543 375.301 544.365 433.293 0.000 645.613 648.993 459.776 309.758 678.692 897.356 369.426 702.801 731.097 760.873 907.249 652.892 613.989 604.960 733.939 177.742 490.419 813.379 306.538 567.872 599.828
527.183 458.418 800.994 539.221 722.007 700.098 560.581 523.915 576.642 762.116 582.260 619.781 635.045 842.285 690.821 823.825 539.263 655.494 699.803 788.752 653.520 569.124 561.815 642.654 623.793 794.286 241.491 101.248 184.081 557.515 0.000 566.651 145.589 350.200 714.161 998.099 555.524 803.544 551.674 861.615 1007.991 482.480 779.658 604.269 604.641 570.119 376.848 787.386 680.889 397.460 608.156
220.377 166.606 372.238 278.928 346.731 355.301 196.591 96.316 393.651 271.903 340.973 161.206 412.486 467.009 593.597 395.068 442.039 268.609 217.797 370.133 296.592 346.565 519.977 255.768 264.119 400.747 426.786 447.165 456.975 619.686 548.413 0.000 418.484 532.515 219.499 599.045 394.678 428.268 209.423 430.719 632.716 131.418 404.767 96.656 195.146 528.281 644.771 327.044 583.665 226.295 130.305
393.546 335.126 667.357 405.584 588.370 560.839 426.944 426.431 437.382 647.492 443.000 516.707 495.786 708.648 545.231 690.188 393.673 532.395 596.729 655.115 519.883 429.864 416.225 512.327 490.156 660.649 102.232 115.093 38.492 411.926 216.341 469.167 0.000 204.610 601.406 864.462 409.934 669.907 463.201 727.978 874.355 384.996 640.399 506.786 512.367 424.530 231.258 689.902 535.300 299.976 505.082
411.634 385.770 684.348 422.575 605.361 572.697 445.032 471.230 442.943 664.484 454.859 539.375 507.645 721.352 434.310 707.179 363.578 550.483 619.397 672.106 536.874 441.723 278.114 529.319 507.147 677.640 114.747 269.625 148.870 273.815 370.873 513.966 175.353 0.000 618.397 881.453 379.839 686.898 498.989 744.970 891.346 429.795 620.032 532.881 551.955 286.419 212.181 734.701 415.215 344.774 527.750
263.970 309.490 167.271 220.930 197.245 235.292 289.452 251.843 346.920 126.318 270.952 179.627 342.466 320.422 621.443 190.102 454.285 255.516 63.756 175.410 226.572 276.544 547.823 238.913 194.099 206.024 558.597 602.691 610.818 647.532 703.939 215.428 574.010 645.166 0.000 419.718 360.427 281.680 296.889 239.015 480.497 286.944 266.032 150.468 255.394 556.128 762.572 181.459 611.511 381.821 182.269
552.622 651.778 304.313 500.326 367.232 399.332 581.534 598.844 529.948 364.296 443.328 502.057 514.841 294.914 840.002 322.220 660.929 544.169 451.652 433.977 442.351 448.920 766.382 522.681 424.102 413.779 814.979 933.628 880.605 866.091 1034.876 562.429 894.524 901.547 395.858 0.000 559.521 248.981 572.936 310.823 217.646 575.092 374.425 497.469 546.489 774.686 1018.954 443.058 830.070 669.969 529.270
220.913 284.435 376.611 179.576 289.053 229.195 254.310 414.759 80.562 421.485 136.104 343.246 176.718 347.608 314.811 399.441 117.097 325.990 423.268 355.798 238.647 122.968 234.868 286.320 218.189 361.332 324.912 493.976 390.538 341.213 595.223 384.107 417.021 402.674 375.398 557.454 0.000 362.899 519.886 420.970 567.346 449.860 252.053 342.160 469.053 243.173 526.522 537.845 304.879 441.793 337.028
357.349 465.199 153.999 305.053 171.958 204.059 394.955 456.507 334.674 248.267 248.055 335.494 319.568 116.617 644.728 171.906 465.656 348.895 337.054 238.703 247.078 253.646 571.108 327.408 228.829 219.036 619.705 759.495 685.332 670.818 860.742 420.092 699.251 706.274 279.830 272.431 364.248 0.000 458.337 135.716 282.324 460.494 179.151 374.232 431.891 579.413 823.680 342.908 634.797 555.371 369.101
368.901 269.322 430.202 422.338 478.119 486.689 345.114 152.148 542.175 311.007 472.361 287.688 543.874 524.992 742.120 451.349 590.563 417.132 333.363 475.560 427.980 477.953 668.501 404.292 395.507 506.174 438.216 464.894 474.705 714.717 566.142 210.892 436.213 543.946 314.185 595.238 543.202 486.251 0.000 439.952 675.174 100.366 536.155 218.245 127.119 676.805 656.439 321.586 732.189 201.235 251.895
365.084 460.810 51.136 322.044 218.273 256.320 390.566 423.614 386.935 192.848 300.316 311.089 371.829 208.514 696.989 69.043 517.917 356.630 281.634 196.438 299.339 305.908 623.369 340.027 281.090 171.030 659.711 763.611 711.932 723.079 864.858 387.199 724.549 746.280 220.628 300.125 424.058 169.773 402.918 0.000 360.904 405.074 265.362 322.239 376.471 631.674 863.686 287.488 687.058 499.952 344.695
546.799 654.650 353.309 494.503 361.408 393.509 584.406 645.957 524.125 436.934 437.505 524.945 509.018 289.091 834.178 371.216 655.106 538.345 525.720 428.154 436.528 443.097 760.559 516.858 418.279 408.487 809.155 948.945 874.782 860.268 1050.192 609.542 888.701 895.724 468.496 205.250 553.698 243.158 647.004 337.368 0.000 649.160 368.602 563.683 620.557 768.863 1013.130 523.086 824.247 744.037 558.551
289.282 186.371 409.801 347.832 415.636 424.205 265.495 84.551 462.556 290.606 409.877 230.111 481.391 508.643 662.501 430.948 510.943 337.513 286.701 439.038 365.497 415.469 588.881 324.673 333.024 469.652 351.364 371.927 381.738 621.750 473.175 127.942 343.246 457.094 288.403 587.876 463.583 469.902 84.216 419.551 661.033 0.000 473.671 165.560 137.183 597.186 569.533 315.876 652.570 108.268 199.210
306.297 414.147 204.086 249.360 136.563 108.182 343.903 405.455 271.405 295.363 184.785 284.442 256.299 171.385 562.000 226.917 364.287 297.843 313.033 203.309 183.809 190.377 481.802 276.355 165.560 208.843 556.436 696.225 622.062 588.402 797.473 369.040 635.982 643.005 249.277 375.466 260.427 180.911 504.618 238.982 385.359 440.556 0.000 323.180 453.785 490.106 760.411 411.724 552.069 528.711 318.048
180.490 180.309 304.642 224.624 280.405 288.975 166.998 122.663 350.614 236.758 274.646 89.973 346.160 400.683 564.004 327.472 412.446 228.721 169.995 303.807 230.266 280.238 490.384 215.881 197.793 334.421 453.132 473.511 483.322 590.094 574.759 86.247 444.830 546.402 184.353 556.497 364.121 361.942 222.026 376.386 566.390 157.764 338.440 0.000 171.193 498.689 663.809 291.899 554.073 252.641 54.181
315.735 296.992 390.864 369.172 424.953 433.523 291.949 195.693 489.009 271.669 419.195 234.522 490.708 489.706 688.955 412.011 537.397 363.966 289.204 433.220 374.815 424.787 615.335 351.126 342.341 463.834 488.060 508.439 518.250 715.044 609.687 210.566 479.758 593.790 271.845 568.940 490.036 450.965 136.108 400.614 642.096 149.903 482.989 165.079 0.000 623.639 706.045 296.939 679.023 244.780 198.729
326.973 383.831 552.082 326.130 464.524 429.414 360.370 522.906 280.160 568.038 311.575 454.713 364.361 558.569 164.645 574.913 174.697 465.821 534.735 531.269 414.118 298.440 25.522 432.873 391.092 536.803 351.608 520.672 417.234 159.746 621.920 492.253 443.718 295.271 521.952 740.616 212.686 546.061 628.032 604.133 750.509 558.007 457.249 448.220 577.199 0.000 475.931 656.639 133.641 508.922 443.088
530.875 503.254 803.589 541.816 724.602 691.938 564.273 588.713 568.482 783.724 574.100 658.615 626.885 844.880 617.743 826.420 493.942 669.723 738.637 791.347 656.115 560.964 461.548 648.559 626.388 796.881 231.680 377.289 251.842 457.249 478.536 631.449 278.325 227.665 737.638 1000.694 510.203 806.139 616.473 864.210 1010.587 547.278 746.919 652.122 669.439 469.853 0.000 852.185 598.649 462.258 646.991
426.435 429.037 291.554 383.395 359.710 397.757 415.726 349.038 509.385 172.359 433.418 299.174 504.931 377.447 783.908 312.700 616.751 417.981 195.679 337.876 389.037 439.010 710.288 401.378 356.564 368.489 657.276 677.655 687.466 809.998 778.903 334.975 648.974 763.006 176.501 447.693 522.892 338.706 315.401 301.303 527.629 319.119 428.497 270.015 288.955 718.593 875.261 0.000 773.977 413.996 301.817
355.522 412.380 580.632 354.679 493.074 457.963 388.920 551.455 308.709 596.588 340.125 483.263 392.911 587.118 216.782 603.462 203.247 494.371 563.285 559.819 442.668 326.989 100.771 461.423 419.641 565.353 380.158 549.222 445.784 219.469 650.469 520.803 472.267 354.993 550.501 769.166 241.236 574.611 656.582 632.682 779.059 586.557 485.799 476.769 605.749 109.076 535.654 685.188 0.000 537.472 471.638
253.978 119.811 478.597 312.529 401.852 402.403 230.192 170.630 421.305 407.782 388.074 266.496 459.588 522.131 578.953 501.428 427.396 302.209 346.518 468.598 343.694 393.666 505.334 289.369 311.221 474.132 255.871 276.250 286.060 526.073 377.497 213.366 247.569 361.600 360.876 677.945 411.347 483.390 206.350 536.727 687.837 128.145 459.888 250.985 255.516 513.638 473.856 433.052 569.022 0.000 254.871
188.558 188.378 304.182 232.693 288.473 297.043 175.067 130.731 358.682 203.847 282.715 98.042 354.229 408.752 572.073 327.012 420.515 236.790 149.741 311.876 238.335 288.307 498.453 223.950 205.861 342.490 461.200 481.580 491.390 598.162 582.827 94.316 452.898 554.471 151.442 530.989 372.189 370.011 197.541 362.663 574.458 165.833 346.509 28.600 146.708 506.758 671.877 258.988 562.141 260.710 0.000
NODE_COORD_SECTION
1 -500.874011 70.822412
2 -1189.014212 -1927.237969
3 3333.246176 1819.115707
4 -803.370270 1460.969193
5 2190.388819 2312.433168
6 922.150963 3915.358487
7 -376.526573 -224.052693
8 743.499702 -3152.611082
9 -2545.282289 3149.197626
10 4207.559725 -344.418333
11 -1176.706175 2832.767241
12 1840.727049 -564.555606
13 -1077.797510 3368.678598
14 3443.146856 4632.544919
15 -8968.090380 3226.274443
16 3444.327764 1591.719711
17 -5010.715661 2937.292886
18 268.484075 759.311640
19 3064.581246 -792.192299
20 2296.553016 1598.613643
21 424.641228 2398.071733
22 -1303.178361 2852.012000
23 -7411.107998 2823.763996
24 362.282035 1038.546994
25 630.099890 2141.513455
26 2739.000085 2121.999273
27 -6283.792676 -2748.649065
28 -5920.487029 -4364.252606
29 -7232.659514 -3990.411437
30 -8823.241679 1359.069202
31 -6561.791978 -4644.265317
32 1134.854718 -2313.469860
33 -6554.773169 -4195.011301
34 -8453.910364 -2199.983596
35 3358.440333 -590.138268
36 8466.448362 3237.067402
37 -3329.075744 3668.916364
38 4000.085320 3276.905427
39 1876.709733 -4765.993148
40 3937.114845 1943.260589
41 6246.636345 4607.044519
42 953.341981 -4581.024254
43 1695.375491 3914.216512
44 1498.729844 -1475.742058
45 3444.398744 -4164.377231
46 -7472.188396 3107.091231
47 -8229.859927 -3229.057504
48 5805.192590 -1713.688370
49 -7373.447094 3284.313817
50 -1289.933912 -4013.437924
51 1628.021808 -1658.518605
DEMAND_SECTION
1 0
2 6
3 10
4 2
5 3
6 7
7 1
8 5
9 7
10 6
11 57
12 3
13 8
14 7
15 2
16 8
17 94
18 5
19 1
20 4
21 9
22 3
23 1
24 7
25 10
26 2
27 3
28 7
29 5
30 9
31 3
32 4
33 90
34 5
35 9
36 7
37 9
38 1
39 69
40 2
41 1
42 71
43 3
44 7
45 7
46 2
47 1
48 4
49 10
50 4
51 1
DEPOT_SECTION
1
-1
EOF
