NAME : mamut-paris-n50-poi
COMMENT : Mamut2026 shortest metric; city paris; 3-decimal seconds/meters; ENU ref in mamut-paris-n50-poi.vrp.json
TYPE : CVRP
DIMENSION : 51
EDGE_WEIGHT_TYPE : EXPLICIT
EDGE_WEIGHT_FORMAT : FULL_MATRIX
CAPACITY : 184
EDGE_WEIGHT_SECTION
0.000 2845.608 4033.309 1926.906 4887.327 1899.097 3760.365 8414.716 4329.121 4827.569 5597.399 10006.325 1853.913 6788.916 4046.001 1893.550 1323.021 1907.223 6048.804 10299.285 876.641 1720.566 7724.115 1676.795 2706.470 1611.814 3084.123 4537.174 3852.014 1335.027 8594.442 3303.120 8982.089 7899.635 2869.674 9001.489 4060.957 6236.960 5995.886 4996.666 2055.164 4390.318 5361.576 1795.432 1347.486 1457.257 1533.067 3366.705 2018.969 2977.501 4406.769
3076.790 0.000 6330.538 3204.249 3889.087 3861.107 2020.695 10711.945 5685.830 4501.205 3431.666 12787.523 3517.257 9515.194 3949.433 4118.415 4075.538 4373.503 7127.646 13080.483 3629.158 2558.114 5558.382 3815.675 3169.225 3617.487 4345.713 3636.974 2112.344 3291.022 11375.640 657.817 11763.287 5733.903 584.909 11782.687 1392.924 8970.114 8293.115 2598.147 1472.739 6687.547 6172.861 2950.097 4128.684 3162.655 4285.584 3682.003 4157.849 3689.443 2256.437
3745.992 5471.549 0.000 3143.231 6612.777 5287.123 7172.501 5072.347 2807.800 5242.707 8223.339 7774.813 2910.626 3696.985 7530.938 4661.883 4711.047 4533.027 4527.484 8111.416 4580.607 4270.724 10350.056 5064.820 3978.188 3241.704 2877.659 8104.033 7264.150 5038.993 8334.816 5929.060 8722.462 10525.576 5495.615 8741.863 6686.898 6411.560 2577.080 7892.120 5118.430 752.594 4393.625 3722.315 3902.680 4970.182 4921.092 6768.255 5164.004 6264.933 7032.710
2319.784 2543.909 3514.843 0.000 4024.741 3894.609 4244.861 7896.250 2902.677 2967.282 5295.699 10750.958 313.008 6797.814 5211.917 3837.993 3318.533 3851.666 4622.360 11087.561 2872.153 1665.310 7422.415 3672.307 867.036 1330.872 1657.678 5703.090 4336.509 2697.606 10070.501 3001.420 10458.147 7597.936 2567.975 10477.548 3759.258 8089.118 5477.420 4964.480 2457.556 3871.852 3870.016 1050.767 3291.929 2569.239 3528.579 4532.621 4014.480 4288.897 4105.069
5070.571 3348.485 6787.658 3932.116 0.000 6645.396 5095.607 10535.082 5111.914 2345.269 3321.579 14031.765 4245.124 10089.060 7024.345 6668.529 6069.320 6682.203 5426.263 14368.368 5622.940 3733.576 5447.287 6423.094 3203.716 4517.532 4035.746 6711.886 5187.256 5436.770 13111.173 3828.727 13498.819 5634.962 3418.721 13518.220 4448.279 11011.940 8605.572 5606.324 3740.936 7144.668 4532.440 3749.461 6122.466 5308.403 6279.366 6651.129 6765.267 6557.783 3636.021
1927.542 3559.275 5588.783 3854.448 6473.484 0.000 2978.645 9409.313 6256.663 6755.111 5866.810 10532.277 3781.454 7779.394 2482.459 1391.755 1395.696 1646.844 7976.346 10744.379 1050.900 3608.808 7993.527 1089.015 4634.011 3539.355 5011.664 3663.406 3070.294 1509.287 9039.536 3649.751 9427.183 8169.047 3276.672 9160.161 3828.069 6036.932 7484.342 4214.946 3164.209 5945.793 7289.117 3722.974 2043.927 1631.516 1605.742 1719.776 1231.720 1216.454 4899.156
3202.632 2267.621 6831.008 3973.659 5181.830 2945.277 0.000 11199.686 6812.591 5793.949 3941.736 12343.107 4222.922 9569.767 2304.318 3202.585 3172.276 3457.673 8321.121 12555.208 2827.480 3327.524 6068.453 2899.845 4008.597 4117.958 5357.529 1616.278 948.055 2375.191 10850.365 1868.994 11238.012 6243.973 1877.652 11177.513 1840.993 8054.283 8793.586 2092.708 2341.655 7188.018 7366.336 3719.507 3573.272 2246.825 3382.321 2507.326 3242.018 2667.782 2974.082
8061.676 10142.345 4839.083 7801.823 10644.344 9036.026 11436.096 0.000 6464.865 8952.814 12894.136 5747.251 7569.218 2187.985 11172.432 8342.922 8647.551 8103.693 6169.545 6083.854 8896.291 8945.674 15020.852 8813.724 8636.780 8048.533 7536.250 12212.905 11527.744 9354.677 8535.907 10599.856 8687.519 15196.372 10166.411 8942.954 11357.694 7247.022 2533.166 12562.916 9793.380 4677.250 6950.334 8393.111 8028.432 9476.907 8857.597 10409.748 8805.497 9906.427 11703.506
5403.482 6501.210 3451.383 4093.763 5679.632 7072.724 8202.162 6076.380 0.000 3988.101 8515.989 10241.930 3861.158 5737.781 8803.863 6447.484 6496.648 6332.787 1973.706 10578.533 6238.098 5453.990 10656.016 6850.422 4297.928 4794.585 3097.490 9295.035 8293.811 6289.551 11409.906 6958.721 11797.553 10843.691 6525.276 11816.953 7716.559 9428.524 4146.870 8921.781 6301.696 3738.170 2243.548 4900.050 5688.281 6161.185 6706.694 8124.567 6949.605 7880.842 7656.843
5138.866 4052.366 5483.859 3186.051 2329.695 6713.690 5799.488 8668.460 3375.556 0.000 5231.225 12863.088 3210.423 8610.924 7728.226 6682.989 6137.614 6696.663 3197.666 13199.691 5691.234 3801.870 7335.289 6491.388 2259.489 4272.083 2731.947 7415.767 5891.137 5505.064 12850.979 4532.608 13238.626 7522.964 4122.602 13258.026 5267.715 10869.596 6738.950 6472.937 4444.817 5840.869 2516.155 3331.224 6136.926 5376.698 6347.660 7340.080 6833.562 7096.355 5053.464
5861.385 3636.809 8743.015 5486.773 3075.432 6077.246 3537.196 13124.422 7331.220 4978.667 0.000 15475.075 5799.781 11969.896 5506.674 6334.553 6304.244 6589.642 8059.661 15687.177 5959.449 5261.125 2369.503 6031.813 4814.615 6072.189 5991.103 4305.416 3493.417 5507.160 13982.334 3270.733 14369.981 2545.023 3469.621 14309.481 2491.123 11186.252 10705.592 2416.342 4257.334 9100.024 7165.839 5304.118 6705.241 5378.794 6514.290 5709.682 6373.987 5875.348 1700.166
9819.940 12544.988 8121.858 11166.067 14448.842 10091.770 12684.203 5820.561 10929.659 13364.565 15296.778 0.000 10933.462 5313.452 11976.187 9567.620 9895.658 9157.649 11549.631 347.232 10194.675 11419.946 17423.494 10061.830 12033.103 10727.339 10991.891 13157.134 12775.851 10653.061 3328.799 13002.499 3446.786 17599.015 12569.054 4084.396 13533.626 5753.718 7312.024 13920.504 11754.543 7960.025 11875.323 11207.950 9335.455 10775.291 10105.704 11213.503 9691.957 10710.182 14106.148
2165.032 2890.974 3201.835 347.066 4371.807 3739.857 4591.927 7583.242 2589.669 3188.378 5642.765 10437.950 0.000 6484.806 5057.166 3524.985 3163.781 3538.658 4309.352 10774.553 2717.401 1707.293 7769.481 3517.555 1214.102 1079.216 1344.670 5548.338 4683.575 2542.854 9757.493 3348.486 10145.139 7945.001 2915.040 10164.540 4106.323 7776.110 5164.412 5311.546 2554.999 3558.844 3622.123 1153.353 2978.921 2414.488 3373.827 4377.869 3859.729 4134.145 4452.135
6663.988 9389.036 3976.444 7119.675 10589.221 7636.694 10038.408 2476.280 6730.462 9219.151 12140.827 5178.439 6887.070 0.000 9655.588 6945.234 7249.863 6683.162 7253.156 5515.042 7498.603 8247.169 14267.543 7416.036 7954.633 7218.148 6854.103 10815.217 10130.057 7956.989 7005.203 9846.547 7392.850 14443.063 9413.102 7412.250 10604.385 5695.558 2893.235 11274.709 8598.591 3814.611 7575.318 7698.759 6630.744 8079.219 7459.909 8892.904 7288.654 8389.583 10950.197
4270.358 4328.711 8040.235 5347.670 7242.920 3302.335 2503.735 11778.188 8089.625 7855.039 5504.807 12246.592 5499.956 10148.270 0.000 3721.907 3927.003 3976.996 9809.308 12458.693 3582.207 5034.160 7586.188 3624.999 6055.365 5394.991 6844.626 1537.893 3009.145 3442.917 10661.791 3930.084 11049.438 7578.634 3938.742 10633.343 3537.679 7510.114 9853.218 3367.104 4388.423 8397.244 9122.079 5216.195 4412.803 3314.550 4137.048 1303.817 3327.287 1991.223 5035.172
2372.061 4352.378 5215.693 4298.967 7259.388 850.161 3771.748 8722.481 6208.104 7199.630 6659.913 9806.722 4139.336 7092.562 2869.056 0.000 1151.234 921.288 7927.788 10018.823 1764.225 4092.627 8786.629 1149.376 5078.531 3933.213 5131.929 4050.003 3863.397 2222.611 8244.927 4442.854 8632.574 8962.149 4069.775 8216.479 4621.171 5093.250 6797.510 5008.049 3957.312 5401.469 7322.056 4167.493 1357.095 2344.841 1361.280 2106.372 502.121 1603.051 5692.259
1739.363 3535.660 5167.283 3666.269 6449.870 576.076 2971.024 8674.071 6068.484 6566.932 5859.189 9797.036 3593.276 7044.152 2920.485 656.513 0.000 911.602 7788.167 10009.137 862.722 3457.538 7985.905 353.774 4445.833 3351.177 4823.486 3747.832 3062.672 1321.108 8304.294 3642.129 8691.941 8161.425 3253.058 8631.442 3820.447 5508.212 6749.100 4207.325 3044.772 5353.059 7100.938 3534.795 1308.685 1443.338 210.046 2157.801 695.947 1654.479 4891.534
2484.330 4483.539 5327.963 4411.236 7371.658 1079.127 3902.910 8720.708 6320.374 7311.899 6791.074 9689.278 4251.606 7079.394 3098.021 409.971 1263.504 0.000 8040.057 9901.379 1876.494 4204.897 8917.791 1280.537 5190.800 4045.483 5244.198 4278.968 3994.558 2334.881 8104.477 4574.015 8492.124 9093.311 4200.936 8076.029 4752.333 4952.800 6905.382 5139.210 4088.473 5509.341 7434.326 4279.762 1469.365 2457.110 1473.549 2335.337 731.087 1832.016 5823.420
5861.999 6451.479 4412.133 4044.032 5400.816 7436.823 8152.431 6292.919 1514.060 3479.214 8265.672 11119.816 3811.427 6749.429 8754.132 6981.546 6860.747 6866.849 0.000 11456.419 6414.367 5404.259 9954.869 7214.521 4248.197 4873.087 3047.758 9245.304 8244.080 6239.820 12134.221 6908.990 12521.868 10142.544 6475.545 12541.268 7666.828 10152.838 4812.818 8872.050 6251.965 4749.818 1400.946 4850.319 6222.343 6111.454 7070.793 8074.836 7483.667 7831.111 7607.112
10128.374 12853.422 8430.293 11474.502 14757.277 10400.205 12992.638 6128.996 11238.094 13673.000 15605.213 319.063 11241.897 5621.886 12284.622 9876.055 10204.092 9466.084 11858.066 0.000 10503.110 11728.380 17731.929 10370.265 12341.538 11035.774 11300.325 13465.569 13084.286 10961.496 3407.313 13310.934 3525.300 17907.449 12877.488 4162.909 13842.061 6062.152 7620.458 14228.939 12062.978 8268.460 12183.758 11516.384 9643.890 11083.726 10414.138 11521.938 10000.392 11018.617 14414.583
876.641 2943.904 4567.675 2803.547 5761.577 1045.565 2888.367 8730.749 5205.762 5704.210 5695.695 10266.524 2730.554 7100.830 3174.003 1126.002 469.489 1381.091 6925.445 10478.626 0.000 2594.816 7822.411 823.262 3583.111 2488.455 3960.764 3665.175 2980.015 458.386 8773.783 3094.747 9161.430 7997.931 2661.301 9100.930 3683.950 5977.701 6530.253 4124.668 2275.991 4924.685 6238.217 2672.073 1104.336 580.616 679.534 2494.707 1165.436 2123.968 4505.065
1962.372 2103.289 4694.275 1877.934 3912.396 3537.197 3560.934 9075.682 4619.889 4079.990 4855.080 11272.696 2030.220 7878.931 4842.882 3560.330 2961.121 3574.004 6247.522 11609.299 2514.741 0.000 6981.796 3314.895 1934.998 1981.224 3283.930 5177.212 3652.582 2328.571 10261.223 2560.801 10648.870 7157.316 2127.355 10668.270 3318.638 7903.741 6656.852 4523.861 1536.477 5051.284 5292.737 1645.908 3014.266 2200.204 3171.167 4163.586 3657.068 3919.862 3664.450
7997.921 5773.345 10879.551 7623.309 5335.282 8213.782 5673.732 15260.958 9467.756 7238.516 2417.440 17611.612 7936.317 14106.432 7643.210 8471.089 8440.781 8726.178 10104.169 17823.713 8095.985 7397.661 0.000 8168.350 6951.151 8208.726 8127.639 6413.395 5629.953 7643.696 16118.870 5407.270 16506.517 1091.965 5606.157 16446.018 4627.659 13322.788 12842.129 4524.321 6393.870 11236.561 9425.688 7440.654 8841.777 7515.330 8650.826 7846.218 8510.523 8011.884 3836.702
2219.625 3851.358 5880.866 4146.531 6765.567 292.083 3270.728 9669.331 6548.746 7047.194 6158.893 10599.509 4073.537 8039.413 2636.491 1613.050 1687.779 1868.138 8268.429 10811.611 1342.983 3900.891 8285.610 0.000 4926.094 3831.438 5303.747 3817.438 3362.377 1801.370 9014.709 3941.834 9402.355 8461.130 3568.755 8986.261 4120.152 5863.031 7744.361 4507.029 3456.292 6237.876 7581.200 4015.057 2303.945 1923.599 1897.825 1873.808 1057.819 1370.486 5191.239
3001.330 2452.747 4264.005 1131.502 3459.391 4576.154 4153.699 8645.412 2999.964 2285.670 5081.415 11643.234 1308.970 7565.407 5881.840 4545.453 4000.078 4559.127 4453.202 11979.837 3553.698 1664.334 7208.131 4353.852 0.000 2182.841 1516.630 5769.978 4245.348 3367.528 10950.203 2910.258 11337.849 7383.651 2476.813 11357.249 3668.096 8888.864 6226.583 4873.318 2366.394 4621.015 3498.417 1193.688 3999.389 3239.162 4210.124 5202.544 4696.026 4958.819 4013.908
1809.877 3696.583 3888.234 1941.443 5188.242 3513.573 5397.536 8269.641 4184.046 4782.756 6448.374 10213.675 1708.838 6985.234 5757.389 2888.333 2937.497 2902.006 5903.729 10550.278 2644.493 2495.759 8575.090 3291.270 2808.479 0.000 2939.048 6290.048 5489.184 3102.879 9293.082 4154.095 9680.729 8750.610 3720.649 9700.129 4911.932 7231.743 5850.811 6117.155 3343.465 4245.243 5216.501 1947.349 2342.269 3195.217 3147.542 4994.705 3390.454 4491.383 5257.744
3483.038 4026.810 3176.085 1665.071 4275.366 5057.863 5727.762 7557.492 1905.767 2901.463 6136.891 10555.313 1432.466 6477.486 6375.171 4682.864 4481.787 4696.538 3625.450 10891.917 4035.406 3025.298 8263.607 4835.560 1860.281 2494.126 0.000 6866.344 5819.411 3860.859 10543.205 4484.321 10930.851 8439.127 4050.876 10950.252 5242.159 8561.822 5138.662 6447.381 3873.004 3533.094 2807.622 2471.358 4094.989 3732.493 4691.832 5695.875 5177.734 5452.150 5224.104
4383.869 3804.850 8012.245 5251.874 6719.059 3937.525 1731.049 12212.390 7993.829 7331.178 3966.914 13335.355 5404.160 10582.471 2498.845 4194.832 4194.097 4449.921 9713.512 13547.456 3849.301 4861.179 6048.295 3892.093 5542.253 5299.195 6748.830 0.000 2411.731 3556.429 11842.613 3406.223 12230.260 6040.741 3414.882 12169.761 2764.994 9046.531 9974.823 1829.210 3875.310 8369.255 8899.991 5120.399 4754.510 3428.062 4404.142 2701.853 4234.266 3644.348 4359.121
4026.708 2744.161 7655.084 4797.735 5488.801 3769.353 858.680 12023.761 7405.623 6220.950 3300.712 13167.182 5046.998 10393.843 2492.514 4026.660 3996.351 4281.749 8847.439 13379.284 3651.556 4151.599 5427.428 3723.920 4832.673 4942.033 6065.506 1738.885 0.000 3199.267 11674.441 2188.879 12062.088 5602.948 2354.193 12001.588 1270.105 8878.359 9617.661 1356.462 3165.730 8012.093 7892.654 4543.583 4397.348 3070.901 4206.397 2695.521 4066.094 3491.858 2864.233
1707.279 2729.094 5477.156 2996.314 5643.303 1869.715 2622.365 9704.332 5738.269 5896.977 5391.029 11256.216 3148.600 8074.413 3033.485 2127.022 1666.215 2382.110 7457.952 11468.318 1321.419 2682.804 7517.745 1824.282 3775.878 3043.636 4493.271 3524.657 2714.014 0.000 9763.475 2879.936 10151.122 7693.265 2446.491 10090.622 3352.287 6967.393 7439.733 3858.666 2238.206 5834.165 6770.724 2864.840 2077.919 122.230 1876.261 2354.189 2166.456 2110.464 4290.255
8951.519 11676.567 8744.578 10397.967 13680.742 9223.349 11815.782 8227.319 11193.701 13239.279 14428.357 3123.918 10165.362 6989.244 11022.798 8699.199 9027.237 8289.228 12913.384 3319.546 9326.254 10551.525 16555.074 9193.410 11265.003 9959.239 10864.411 12203.745 11907.430 9784.641 0.000 12134.078 860.936 16730.594 11700.633 929.321 12665.205 4146.722 8763.259 13052.083 10886.122 8582.745 12747.350 10439.849 8467.034 9906.870 9237.283 10345.083 8823.536 9841.761 13237.728
2990.581 888.668 6244.329 3118.040 3802.878 3774.899 1934.486 10625.736 5599.621 4414.996 3640.459 12701.314 3431.048 9428.985 3863.225 4032.206 3989.329 4287.294 7041.437 12994.274 3542.949 2471.905 5767.175 3729.466 3083.016 3531.278 4259.504 3550.765 2026.135 3204.813 11289.431 0.000 11677.078 5942.695 498.700 11696.478 1715.053 8883.905 8206.906 2920.275 1386.530 6601.338 6086.652 2863.889 4042.475 3076.446 4199.375 3595.795 4071.640 3603.234 2449.829
9119.789 11844.837 8912.848 10566.237 13849.012 9391.619 11984.052 8395.589 11361.971 13407.549 14596.627 3292.188 10333.632 7157.514 11276.036 8867.469 9195.507 8457.498 13081.654 3487.815 9494.524 10719.795 16723.343 9361.679 11433.273 10127.509 11032.681 12456.983 12075.700 9952.910 1005.594 12302.348 0.000 16898.864 11868.903 1761.190 12833.475 4644.855 8931.529 13220.353 11054.392 8751.015 12915.620 10608.119 8635.304 10075.140 9405.552 10513.352 8991.806 10010.031 13405.997
8227.313 6002.738 11108.943 7852.701 5564.674 8443.174 5903.125 15490.350 9697.148 7467.909 2646.833 17841.004 8165.709 14335.825 7738.113 8700.482 8670.173 8955.570 10333.562 18053.105 8325.377 7627.053 332.480 8397.742 7180.543 8438.118 8357.032 6292.768 5859.346 7873.089 16348.262 5636.662 16735.909 0.000 5835.549 16675.410 4857.051 13552.181 13071.521 4403.694 6623.262 11465.953 9655.080 7670.046 9071.170 7744.722 8880.219 8075.610 8739.916 8241.277 4066.095
2963.094 861.182 6216.842 3090.554 3775.391 3747.412 1907.000 10598.249 5572.134 4387.510 3338.367 12673.827 3403.562 9401.498 3835.738 4004.719 3961.843 4259.808 7013.951 12966.788 3515.463 2444.419 5465.083 3701.980 3055.530 3503.792 4232.018 3523.278 1998.648 3177.326 11261.945 564.518 11649.592 5640.603 0.000 11668.992 1299.625 8856.418 8179.420 2504.847 1359.043 6573.852 6059.166 2836.402 4014.988 3048.960 4171.889 3568.308 4044.153 3575.747 2163.138
9223.564 11948.612 9016.624 10670.012 13952.787 9263.015 11877.280 8499.364 11465.747 13511.325 14700.403 3395.963 10437.407 7261.289 10869.960 8738.865 9088.735 8328.894 13185.430 3591.591 9387.752 10823.570 16827.119 9254.907 11537.049 10231.284 11136.456 12050.907 11968.928 9846.138 788.523 12298.820 1132.981 17002.639 11865.374 0.000 12726.703 3993.885 9035.304 13113.581 11158.168 8854.791 13019.396 10711.895 8561.950 9968.368 9298.780 10384.748 8863.202 9699.786 13509.773
4367.201 2424.058 7779.718 4653.430 4929.041 4109.846 1388.950 12161.125 6723.785 5539.112 2864.200 13507.675 4966.438 10734.336 3470.183 4367.153 4336.844 4622.242 8165.602 13719.776 3992.049 4007.295 4990.917 4064.413 4207.180 5066.668 5383.669 2716.554 1201.075 3539.760 12014.934 1740.473 12402.580 5166.437 2034.089 12342.081 0.000 9218.852 9742.296 1239.446 2921.919 8136.728 7210.817 4399.278 4737.841 3411.394 4546.890 3673.190 4406.587 3832.351 2427.722
6138.665 8618.368 6257.785 7585.113 10867.888 5733.406 8347.671 6828.232 8688.670 10426.425 11235.836 6021.105 7352.508 5213.403 7340.351 5209.256 5559.126 4799.285 10408.353 6233.206 5858.143 7738.671 13362.552 5725.298 8452.149 7146.385 8078.590 8521.298 8439.319 6316.529 4052.053 8769.211 4439.699 13538.072 8335.765 3866.763 9197.094 0.000 6725.364 9583.972 8073.268 6095.951 10164.377 7626.995 5032.341 6438.759 5769.171 6855.139 5333.593 6170.177 10179.529
5955.380 7669.299 2499.907 5328.777 8798.323 7336.618 9370.252 2530.520 4722.176 7244.013 10421.090 6814.776 5096.172 2437.461 9502.306 6643.514 6920.435 6404.284 4931.596 7151.379 6789.995 6472.629 12547.806 7114.316 6163.734 5575.487 5063.205 10305.937 9461.900 7248.381 8768.374 8126.811 9156.021 12723.326 7693.365 9175.421 8884.648 7394.753 0.000 10089.870 7320.334 2338.074 5253.758 5920.065 6112.068 7172.087 7130.481 8739.622 7135.371 8236.301 9230.460
4720.678 3171.652 8349.054 5401.025 5458.627 4463.323 1742.427 12717.731 7471.380 6286.707 2383.194 13861.152 5714.033 11087.813 3548.307 4720.630 4690.321 4975.719 8913.196 14073.254 4345.526 4754.889 4464.575 4417.890 4954.775 5636.003 6131.264 2033.718 1554.552 3893.237 12368.411 2488.068 12756.058 4457.021 2781.684 12695.558 1280.825 9572.329 10311.631 0.000 3669.514 8706.064 7958.411 5146.873 5091.318 3764.871 4900.367 3751.314 4760.064 4185.828 2874.953
1795.917 1378.037 5049.665 1923.377 3806.594 3370.742 2692.317 9431.072 4817.601 4103.307 4129.828 11506.650 2236.385 8234.321 4502.693 3393.875 2794.666 3407.549 6270.839 11799.611 2348.286 1277.242 6256.544 3148.440 1958.315 2336.615 3307.247 4308.595 2783.965 2162.116 10094.768 1835.548 10482.415 6432.064 1402.103 10501.815 2593.386 7737.286 7012.243 3798.608 0.000 5406.675 5316.054 1669.225 2847.811 2033.749 3004.712 3997.131 3490.613 3753.407 2939.198
3907.825 5633.382 161.833 3305.064 6774.610 5389.412 7334.334 4842.011 2969.634 5404.540 8385.173 7544.477 3072.459 3466.650 7555.100 4696.308 4872.880 4457.079 4689.317 7881.080 4742.440 4432.558 10511.889 5167.110 4140.021 3403.537 3039.492 8265.866 7425.983 5200.826 8206.742 6090.893 8594.388 10687.409 5657.448 8613.789 6848.731 6329.461 2351.438 8053.953 5280.263 0.000 4555.458 3884.148 4064.513 5132.015 5082.926 6792.416 5188.165 6289.095 7194.543
6058.916 5605.952 5664.615 3983.972 4240.917 7633.741 7353.074 7846.939 2766.542 2319.315 7105.774 12372.298 4008.344 8001.911 8951.049 7533.329 7057.665 7547.003 2474.961 12708.902 6611.285 5030.786 8794.971 7411.439 3488.404 5070.004 3083.503 8969.352 7444.722 6436.738 13296.884 6086.193 13684.531 8982.646 5676.187 13703.931 6821.301 11315.501 6065.300 8026.523 5732.846 6002.300 0.000 4560.140 6970.981 6308.371 7267.711 8271.753 7753.612 8028.029 6623.417
2216.817 2168.272 4153.214 929.981 3659.931 3791.641 3869.225 8534.622 3832.658 3451.175 4920.063 11080.321 1242.990 7337.871 5097.327 3754.979 3215.565 3768.653 5496.447 11416.924 2769.185 1033.581 7046.779 3569.339 1330.076 1566.088 2476.137 5485.503 3960.873 2583.015 10159.729 2625.783 10547.375 7222.299 2192.338 10566.775 3383.621 8098.390 6115.792 4588.843 1944.682 4510.224 4541.662 0.000 3208.915 2454.649 3425.611 4418.031 3911.513 4174.306 3729.433
1258.902 4104.511 4102.535 3185.808 6146.230 1718.374 3983.474 7895.002 5094.946 6086.471 6817.799 9446.886 3026.178 6265.083 3894.326 1025.270 1144.464 868.165 6814.629 9658.988 1395.639 2979.469 8944.516 1496.072 3965.372 2820.055 4018.770 4760.283 4075.123 1854.025 7954.145 4306.707 8341.792 9120.036 3873.261 8281.292 4779.058 5158.063 5970.031 5219.775 3314.066 4459.544 6208.898 3054.334 0.000 1976.255 1354.510 3131.642 1527.391 2628.321 5665.671
1585.049 2606.864 5354.926 2874.084 5521.073 1747.485 2500.135 9582.102 5616.039 5774.747 5268.799 11133.987 3026.371 7952.184 2911.255 2004.792 1543.985 2259.881 7335.723 11346.088 1199.189 2560.574 7395.515 1702.052 3653.648 2921.406 4371.041 3402.427 2591.784 757.608 9641.245 2757.706 10028.892 7571.035 2324.261 9968.393 3230.057 6845.163 7317.503 3736.436 2115.976 5711.936 6648.494 2742.610 1955.689 0.000 1754.031 2231.959 2044.226 1988.234 4168.025
1529.317 3325.615 5190.559 3456.223 6239.824 624.542 2760.978 8899.406 5858.438 6356.886 5649.143 10022.371 3383.230 7269.488 2963.521 881.849 396.593 1136.938 7578.121 10234.472 652.676 3247.492 7775.859 579.109 4235.787 3141.131 4613.440 3537.787 2852.626 1111.062 8529.630 3432.083 8917.276 7951.379 3043.012 8856.777 3610.401 5733.548 6974.436 3997.279 2834.726 5547.569 6890.893 3324.749 1534.021 1233.292 0.000 2200.837 921.283 1697.516 4681.489
3634.026 3972.418 7403.904 4711.339 6886.628 2666.004 2668.791 11302.468 7453.294 7498.746 5733.342 12232.646 4863.625 9672.550 762.684 3246.187 3290.672 3501.275 9172.977 12444.748 2945.876 4397.829 7860.058 2988.667 5490.902 4758.660 6208.295 1943.631 2893.564 2806.586 10647.846 3814.503 11035.492 7984.372 3689.815 10619.398 3702.735 7496.168 9366.481 3772.841 3944.591 7760.913 8485.748 4579.864 3937.082 2678.219 3500.717 0.000 2690.956 1874.486 4919.591
2613.109 4244.842 5763.184 4540.015 7159.052 685.567 3664.213 9269.971 6755.595 7440.678 6552.378 10279.705 4467.022 7640.053 2563.201 1252.414 1488.346 1507.502 8475.278 10491.806 1736.468 4294.375 8679.094 1416.894 5319.579 4224.923 5679.419 3744.148 3755.861 2194.854 8694.904 4335.318 9082.551 8854.614 3962.239 8666.456 4513.636 5543.227 7345.001 4900.514 3849.776 5948.959 7869.547 4408.541 1904.585 2317.084 1698.391 1800.517 0.000 1297.196 5584.723
2760.043 3674.645 6280.178 4413.566 6588.855 1444.144 2961.346 9786.966 7089.164 7200.974 5925.108 10717.144 4565.852 8157.047 1833.156 1730.684 2215.719 1985.773 8808.847 10929.245 1883.402 4100.056 8051.824 1921.517 5193.129 4371.857 5844.166 3014.103 3052.994 2341.788 9132.343 3708.048 9519.990 8227.344 3392.043 9103.895 3886.366 5980.666 7861.995 4197.647 3646.818 6465.953 8121.618 4282.091 2421.580 2380.446 2425.765 1070.472 1450.093 0.000 4957.454
4245.102 2020.527 7126.733 3870.490 2701.021 4993.534 2684.459 11508.140 5714.937 4528.431 1617.141 13955.836 4183.499 10353.614 4667.354 5250.841 5220.532 5505.930 7156.754 14248.796 4797.471 3644.843 3743.858 4948.101 3198.332 4455.907 4374.821 4300.737 2776.107 4423.448 12543.953 2068.991 12931.600 3919.378 2090.763 12951.000 1756.623 10102.540 9089.310 2949.755 2641.052 7483.742 6201.969 3687.836 5296.997 4295.082 5430.578 4784.197 5290.275 4791.636 0.000
NODE_COORD_SECTION
1 -500.874011 70.822412
2 1840.727049 -564.555606
3 -2871.560687 -1432.868439
4 -187.564215 -1367.702498
5 2541.333576 -3146.477655
6 3.726492 1686.028259
7 2122.519408 944.757438
8 -6791.041533 -2753.649051
9 -1572.130856 -3470.222776
10 826.488729 -3965.251059
11 4338.617676 -1397.413845
12 -8748.499584 1220.187001
13 -469.528837 -1257.802496
14 -6048.031162 -892.746428
15 1921.861176 2762.123850
16 -660.847098 1656.030294
17 -299.326661 1333.687192
18 -919.685697 1611.339375
19 -1525.415911 -4671.419178
20 -8851.407038 1094.017710
21 -199.462030 883.949715
22 264.572874 -465.155772
23 6439.454661 -1386.956907
24 -225.923465 1656.485053
25 303.920118 -1921.395598
26 -271.932180 -592.187072
27 -605.226304 -2388.616812
28 2616.651799 1793.067066
29 2519.635205 861.639522
30 150.169477 790.000373
31 -7532.555394 3604.470873
32 1969.753388 -376.015835
33 -7988.463014 3618.861438
34 6582.319889 -1248.882718
35 1769.616483 -472.610476
36 -7424.593878 3832.980366
37 2872.083219 62.519852
38 -4594.203123 3268.566484
39 -4835.309061 -2297.624564
40 3608.378135 682.159408
41 1025.893993 -274.792714
42 -3020.111183 -1368.679369
43 -693.315235 -4379.012035
44 118.037925 -1115.754310
45 -1061.537452 950.115268
46 268.484075 759.311640
47 -96.807854 1277.965184
48 1250.406537 2473.238437
49 -375.123833 1758.092073
50 424.641228 2398.071733
51 2960.877499 -1252.533360
DEMAND_SECTION
1 0
2 1
3 7
4 8
5 2
6 10
7 4
8 3
9 7
10 8
11 4
12 6
13 4
14 2
15 9
16 9
17 97
18 4
19 1
20 9
21 10
22 10
23 64
24 10
25 3
26 5
27 5
28 2
29 10
30 8
31 8
32 80
33 10
34 7
35 2
36 67
37 5
38 5
39 1
40 6
41 8
42 5
43 8
44 87
45 4
46 9
47 6
48 9
49 5
50 1
51 1
DEPOT_SECTION
1
-1
EOF
