NAME : poryos-lyon-n50-poi
COMMENT : Poryos2026 euclidean metric; city lyon; 3-decimal seconds/meters; ENU ref in poryos-lyon-n50-poi.vrp.json
TYPE : CVRP
DIMENSION : 51
EDGE_WEIGHT_TYPE : EXPLICIT
EDGE_WEIGHT_FORMAT : FULL_MATRIX
CAPACITY : 157
EDGE_WEIGHT_SECTION
0.000 2131.297 5402.352 2310.438 528.726 6133.200 248.449 714.949 406.774 4001.075 4388.305 2291.892 3315.527 2044.564 1832.592 2653.331 1639.417 1338.321 3666.519 3302.636 4864.781 433.184 871.881 4542.562 1110.152 1542.508 116.837 594.402 2578.016 1665.464 5027.237 4286.429 624.881 3751.768 1708.438 1680.093 2500.812 688.789 3854.706 1046.142 2807.640 1204.001 3872.481 5635.509 2332.798 1596.679 2008.994 5132.106 2401.806 1393.912 3087.763
2131.297 0.000 3395.780 4404.405 2006.300 6086.963 2301.668 2294.575 1730.816 6061.758 6176.422 3420.733 3857.170 3041.402 3673.247 4088.867 3709.284 3118.107 3825.727 3956.720 5057.033 2029.641 2233.729 6304.578 2968.127 2665.937 2035.288 2724.986 1913.065 3414.754 4321.011 4980.791 2119.282 4214.001 3411.806 3638.991 378.300 2501.987 5935.646 2341.149 4934.073 2343.928 5123.740 3578.727 2732.698 3577.495 1573.074 7105.488 4496.381 3335.426 1602.742
5402.352 3395.780 0.000 7488.115 5379.719 6084.077 5610.867 5306.709 5035.116 9008.211 8683.264 5712.084 6935.509 5364.922 7063.145 6478.653 6792.791 6508.021 6689.490 7077.935 5703.498 5390.491 5628.536 8764.198 6346.939 5251.802 5326.868 5984.511 4779.141 6227.641 6291.640 6317.876 5169.526 5511.791 6187.847 6603.408 3108.578 5558.916 9257.055 5185.636 8091.246 5096.106 8412.173 402.812 4688.797 6570.697 3775.420 10487.015 7577.149 6705.940 2508.246
2310.438 4404.405 7488.115 0.000 2653.163 6416.244 2212.699 2186.642 2715.443 1700.263 2494.343 2434.449 4577.051 2558.163 2087.146 2047.455 701.400 2203.608 5151.730 4466.348 5102.872 2578.878 2730.779 2675.369 2097.987 2386.126 2421.236 1754.996 4701.113 1413.279 6883.476 4082.916 2336.666 3983.726 1489.352 929.619 4780.996 1941.585 2199.103 2314.148 659.088 2426.452 4182.991 7766.461 3277.039 936.058 3754.640 3719.538 91.979 1858.325 5015.095
528.726 2006.300 5379.719 2653.163 0.000 6587.689 465.155 1230.752 480.975 4353.162 4855.925 2814.780 2817.543 2554.362 1691.920 3179.388 2029.318 1141.481 3144.299 2817.532 5337.383 96.246 391.023 5015.139 967.266 2049.474 438.828 906.733 2099.494 2176.525 4508.647 4799.604 1113.942 4240.946 2224.585 2137.136 2347.867 1216.655 3937.689 1547.410 3075.111 1694.353 3516.410 5580.340 2780.860 2046.968 2274.668 5107.463 2741.669 1329.695 3207.321
6133.200 6086.963 6084.077 6416.244 6587.689 0.000 6350.321 5446.657 6131.197 6901.302 5574.151 4110.837 9385.202 4188.296 7714.410 4370.984 6077.888 7366.378 9605.197 9400.310 1323.546 6509.878 6975.084 5518.255 7127.525 4642.272 6178.985 6307.751 7913.345 5194.824 10405.761 2401.024 5508.634 2477.833 5104.231 5673.918 6239.953 5593.084 8590.415 5103.478 7012.663 4936.593 9947.116 6483.331 3807.003 5736.420 4611.867 10117.249 6454.470 7255.551 4759.531
248.449 2301.668 5610.867 2212.699 465.155 6350.321 0.000 908.058 577.737 3912.225 4390.997 2452.163 3140.207 2228.921 1585.152 2756.362 1571.809 1090.797 3523.621 3116.620 5073.562 377.451 720.798 4550.584 861.754 1733.761 287.275 457.774 2564.648 1731.619 4957.126 4460.018 846.950 3950.953 1785.176 1672.221 2663.847 821.946 3650.244 1249.262 2670.017 1413.990 3635.491 5835.698 2557.989 1581.841 2256.745 4903.951 2302.575 1150.449 3322.236
714.949 2294.575 5306.709 2186.642 1230.752 5446.657 908.058 0.000 898.932 3788.428 3926.623 1585.280 4030.321 1329.659 2358.956 2014.868 1487.569 1938.815 4375.051 4015.508 4165.990 1138.492 1586.786 4066.840 1699.395 828.692 791.980 923.326 3164.070 1142.300 5671.751 3571.986 181.323 3043.515 1156.230 1351.874 2671.787 257.930 4058.831 343.273 2785.332 512.858 4516.331 5580.432 1671.052 1298.668 1636.864 5444.254 2276.913 1894.269 2859.324
406.774 1730.816 5035.116 2715.443 480.975 6131.197 577.737 898.932 0.000 4403.096 4742.200 2462.963 3257.134 2169.614 2100.806 2911.570 2039.280 1567.487 3538.019 3269.178 4894.355 430.727 868.941 4891.889 1363.993 1666.668 304.625 995.655 2269.700 1981.707 4773.549 4409.439 742.881 3815.788 2012.847 2054.047 2097.731 976.891 4227.900 1168.240 3213.570 1294.267 3996.573 5258.091 2328.724 1975.373 1797.812 5468.717 2806.955 1694.409 2779.098
4001.075 6061.758 9008.211 1700.263 4353.162 6901.302 3912.225 3788.428 4403.096 0.000 1619.046 3495.745 6040.517 3758.339 3551.314 2821.097 2364.535 3802.812 6664.360 5902.512 5679.555 4279.141 4416.777 1777.795 3737.602 3766.480 4113.754 3454.728 6386.664 2780.578 8480.966 4506.168 3954.626 4713.039 2822.292 2438.238 6439.942 3563.795 2289.300 3841.364 1418.943 3916.322 5283.750 9311.105 4502.309 2490.259 5233.302 3620.971 1611.494 3444.921 6503.366
4388.305 6176.422 8683.264 2494.343 4855.925 5574.151 4390.997 3926.623 4742.200 1619.046 0.000 2973.612 7066.598 3333.638 4581.370 2207.836 2888.170 4664.488 7626.030 6959.441 4462.595 4765.627 5040.210 183.942 4526.857 3558.323 4504.504 3974.965 6954.730 2784.372 9290.292 3261.291 4107.947 3687.455 2774.416 2718.792 6544.573 3775.544 3863.487 3835.475 2626.633 3840.060 6600.652 9028.145 3995.801 2809.681 4999.963 5238.744 2442.529 4333.072 6207.183
2291.892 3420.733 5712.084 2434.449 2814.780 4110.837 2452.163 1585.280 2462.963 3495.745 2973.612 0.000 5592.212 384.035 3631.884 766.602 1985.481 3342.544 5958.139 5564.440 2789.001 2721.475 3159.810 3062.730 3110.899 813.217 2376.067 2285.446 4682.002 1092.352 7222.763 2015.541 1722.061 1633.017 1002.349 1589.398 3759.897 1631.267 4629.408 1296.009 3083.004 1191.484 5894.427 6054.725 1037.660 1641.065 2057.863 6140.822 2493.407 3183.864 3234.919
3315.527 3857.170 6935.509 4577.051 2817.543 9385.202 3140.207 4030.321 3257.134 6040.517 7066.598 5592.212 0.000 5359.967 2505.937 5836.355 4245.650 2428.601 686.640 202.732 8150.500 2903.147 2444.491 7245.627 2608.207 4857.858 3247.385 3363.188 2157.555 4775.551 2648.976 7598.896 3928.500 7058.433 4845.759 4538.727 3986.779 3961.117 4489.787 4359.030 4626.280 4510.411 1744.028 6988.102 5585.840 4440.544 4890.876 4865.557 4636.198 2739.253 5442.470
2044.564 3041.402 5364.922 2558.163 2554.362 4188.296 2228.921 1329.659 2169.614 3758.339 3333.638 384.035 5359.967 0.000 3526.599 1128.467 2025.466 3188.836 5695.236 5343.632 2881.671 2464.135 2916.273 3428.966 2951.794 505.332 2117.416 2126.275 4350.686 1151.267 6901.200 2245.509 1442.604 1736.318 1070.389 1656.235 3378.038 1426.721 4725.882 1008.140 3216.433 876.175 5764.197 5701.580 746.123 1687.276 1679.089 6218.556 2626.601 3067.256 2875.090
1832.592 3673.247 7063.145 2087.146 1691.920 7714.410 1585.152 2358.956 2100.806 3551.314 4581.370 3631.884 2505.937 3526.599 0.000 3645.132 1877.185 555.253 3114.172 2384.913 6402.776 1695.775 1444.939 4762.514 736.817 3093.483 1860.155 1438.856 3135.708 2613.268 4949.950 5610.530 2365.955 5248.951 2699.144 2240.678 3993.140 2159.783 2414.692 2687.830 2132.463 2860.305 2273.342 7251.561 4015.624 2149.879 3841.576 3435.605 2140.370 465.894 4879.670
2653.331 4088.867 6478.653 2047.455 3179.388 4370.984 2756.362 2014.868 2911.570 2821.097 2207.836 766.602 5836.355 1128.467 3645.132 0.000 1809.025 3464.830 6269.719 5783.084 3063.042 3083.158 3476.326 2300.572 3253.284 1422.930 2755.953 2473.634 5178.937 1063.095 7675.616 2046.208 2183.295 1972.330 990.620 1414.603 4442.105 1965.086 4222.575 1810.985 2644.998 1762.339 5913.207 6821.094 1798.571 1499.835 2804.491 5749.311 2083.649 3236.824 3999.453
1639.417 3709.284 6792.791 701.400 2029.318 6077.888 1571.809 1487.569 2039.280 2364.535 2888.170 1985.481 4245.650 2025.466 1877.185 1809.025 0.000 1817.178 4767.169 4160.364 4754.468 1947.354 2165.347 3058.338 1653.824 1769.399 1753.481 1123.162 4115.843 893.994 6402.382 3836.142 1635.511 3605.702 983.420 405.329 4086.596 1240.619 2716.108 1634.497 1307.957 1758.977 4122.552 7067.993 2701.716 344.472 3076.127 4194.924 792.694 1521.413 4328.933
1338.321 3118.107 6508.021 2203.608 1141.481 7366.378 1090.797 1938.815 1567.487 3802.812 4664.488 3342.544 2428.601 3188.836 555.253 3464.830 1817.178 0.000 2961.934 2347.673 6068.743 1151.664 893.020 4840.680 239.646 2724.172 1348.703 1062.922 2683.747 2404.231 4687.892 5351.462 1916.538 4924.843 2482.587 2118.609 3439.526 1773.517 2919.131 2279.197 2401.735 2450.841 2581.775 6696.563 3609.866 2021.151 3337.378 3989.324 2273.699 358.355 4341.071
3666.519 3825.727 6689.490 5151.730 3144.299 9605.197 3523.621 4375.051 3538.019 6664.360 7626.030 5958.139 686.640 5695.236 3114.172 6269.719 4767.169 2961.934 0.000 879.531 8408.341 3236.927 2804.521 7802.528 3113.495 5189.905 3583.087 3807.050 1965.412 5220.499 1962.590 7940.504 4252.636 7350.888 5284.344 5030.861 3891.108 4341.159 5171.448 4687.097 5246.029 4826.228 2361.354 6704.842 5841.434 4932.441 5032.060 5541.516 5216.061 3295.439 5428.464
3302.636 3956.720 7077.935 4466.348 2817.532 9400.310 3116.620 4015.508 3269.178 5902.512 6959.441 5564.440 202.732 5343.632 2384.913 5783.084 4160.364 2347.673 879.531 0.000 8154.908 2899.804 2436.543 7139.442 2538.803 4844.180 3240.487 3314.512 2306.800 4720.420 2841.399 7576.000 3921.461 7053.054 4792.908 4465.174 4101.586 3933.825 4311.459 4348.614 4492.189 4503.629 1544.893 7138.476 5595.699 4367.391 4938.431 4665.763 4522.839 2644.650 5531.694
4864.781 5057.033 5703.498 5102.872 5337.383 1323.546 5073.562 4165.990 4894.355 5679.555 4462.595 2789.001 8150.500 2881.671 6402.776 3063.042 4754.468 6068.743 8408.341 8154.908 0.000 5255.660 5720.125 4433.298 5830.862 3349.457 4918.090 5007.080 6800.868 3871.420 9335.211 1201.614 4240.449 1156.539 3780.828 4350.646 5260.940 4298.716 7285.616 3824.326 5707.994 3661.511 8645.835 6105.158 2568.653 4412.892 3511.863 8812.319 5143.605 5946.291 3924.362
433.184 2029.641 5390.491 2578.878 96.246 6509.878 377.451 1138.492 430.727 4279.141 4765.627 2721.475 2903.147 2464.135 1695.775 3083.158 1947.354 1151.664 3236.927 2899.804 5255.660 0.000 465.238 4924.226 963.145 1959.626 346.846 827.095 2189.144 2080.962 4604.443 4708.945 1025.815 4155.559 2128.674 2047.036 2377.788 1120.641 3907.212 1458.223 3012.825 1607.347 3569.674 5597.146 2702.903 1957.552 2228.347 5097.359 2667.939 1315.493 3189.621
871.881 2233.729 5628.536 2730.779 391.023 6975.084 720.798 1586.786 868.941 4416.777 5040.210 3159.810 2444.491 2916.273 1444.939 3476.326 2165.347 893.020 2804.521 2436.543 5720.125 465.238 0.000 5205.339 785.614 2413.512 804.072 1069.330 1970.764 2443.847 4264.775 5158.174 1485.324 4616.902 2500.797 2335.291 2548.449 1536.782 3790.846 1914.641 3080.644 2067.556 3136.995 5809.551 3168.093 2240.102 2652.218 4880.526 2814.910 1161.901 3535.778
4542.562 6304.578 8764.198 2675.369 5015.139 5518.255 4550.584 4066.840 4891.889 1777.795 183.942 3062.730 7245.627 3428.966 4762.514 2300.572 3058.338 4840.680 7802.528 7139.442 4433.298 4924.226 5205.339 0.000 4700.692 3672.972 4658.460 4138.577 7112.833 2925.662 9459.093 3234.675 4248.084 3697.849 2911.922 2878.747 6670.849 3921.968 4035.079 3965.276 2810.175 3963.968 6784.581 9112.863 4075.439 2970.787 5101.876 5398.736 2624.447 4510.776 6297.542
1110.152 2968.127 6346.939 2097.987 967.266 7127.525 861.754 1699.395 1363.993 3737.602 4526.857 3110.899 2608.207 2951.794 736.817 3253.284 1653.824 239.646 3113.495 2538.803 5830.862 963.145 785.614 4700.692 0.000 2485.255 1128.476 827.380 2682.273 2190.626 4786.818 5122.166 1679.345 4688.033 2266.827 1930.630 3300.885 1534.479 3007.313 2039.602 2358.255 2211.293 2821.177 6545.324 3370.424 1832.398 3115.768 4140.484 2173.624 376.949 4142.937
1542.508 2665.937 5251.802 2386.126 2049.474 4642.272 1733.761 828.692 1666.668 3766.480 3558.323 813.217 4857.858 505.332 3093.483 1422.930 1769.399 2724.172 5189.905 4844.180 3349.457 1959.626 2413.512 3672.972 2485.255 0.000 1613.087 1668.089 3869.145 1001.207 6412.603 2750.786 937.273 2218.052 947.752 1456.516 3020.197 950.830 4483.165 502.808 3040.390 379.153 5305.448 5567.313 955.523 1459.121 1481.448 5944.449 2464.963 2629.241 2743.599
116.837 2035.288 5326.868 2421.236 438.828 6178.985 287.275 791.980 304.625 4113.754 4504.504 2376.067 3247.385 2117.416 1860.155 2755.953 1753.481 1348.703 3583.087 3240.487 4918.090 346.846 804.072 4658.460 1128.476 1613.087 0.000 691.286 2464.275 1776.690 4921.444 4362.112 681.324 3812.831 1817.899 1796.913 2402.329 791.124 3931.785 1112.206 2910.663 1263.530 3854.244 5554.787 2373.740 1713.505 1988.744 5191.226 2512.429 1433.391 3036.264
594.402 2724.986 5984.511 1754.996 906.733 6307.751 457.774 923.326 995.655 3454.728 3974.965 2285.446 3363.188 2126.275 1438.856 2473.634 1123.162 1062.922 3807.050 3314.512 5007.080 827.095 1069.330 4138.577 827.380 1668.089 691.286 0.000 2995.386 1415.649 5333.576 4298.899 952.533 3862.036 1483.383 1265.967 3093.247 722.964 3276.555 1248.986 2221.139 1421.449 3639.622 6223.495 2577.726 1170.848 2486.336 4591.526 1844.815 973.139 3631.915
2578.016 1913.065 4779.141 4701.113 2099.494 7913.345 2564.648 3164.070 2269.700 6386.664 6954.730 4682.002 2157.555 4350.686 3135.708 5178.937 4115.843 2683.747 1965.412 2306.800 6800.868 2189.144 1970.764 7112.833 2682.273 3869.145 2464.275 2995.386 0.000 4238.795 2560.574 6526.897 2997.532 5837.764 4275.876 4236.175 1934.394 3239.510 5544.945 3396.784 5034.966 3490.519 3730.897 4831.938 4298.693 4146.406 3303.945 6378.469 4785.561 3027.147 3503.129
1665.464 3414.754 6227.641 1413.279 2176.525 5194.824 1731.619 1142.300 1981.707 2780.578 2784.372 1092.352 4775.551 1151.267 2613.268 1063.095 893.994 2404.231 5220.499 4720.420 3871.420 2080.962 2443.847 2925.662 2190.626 1001.207 1776.690 1415.649 4238.795 0.000 6684.914 3001.798 1323.619 2718.740 90.593 506.810 3788.602 1004.920 3575.226 1090.147 2072.353 1142.225 4886.601 6532.421 1863.795 549.595 2452.874 5072.708 1485.929 2189.086 3723.345
5027.237 4321.011 6291.640 6883.476 4508.647 10405.761 4957.126 5671.751 4773.549 8480.966 9290.292 7222.763 2648.976 6901.200 4949.950 7675.616 6402.382 4687.892 1962.590 2841.399 9335.211 4604.443 4264.775 9459.093 4786.818 6412.603 4921.444 5333.576 2560.574 6684.914 0.000 9087.415 5514.895 8394.421 6733.038 6599.254 4207.703 5712.382 7119.336 5929.160 7066.532 6033.467 4257.310 6188.786 6856.323 6503.467 5824.295 7491.140 6957.068 5042.764 5793.088
4286.429 4980.791 6317.876 4082.916 4799.604 2401.024 4460.018 3571.986 4409.439 4506.168 3261.291 2015.541 7598.896 2245.509 5610.530 2046.208 3836.142 5351.462 7940.504 7576.000 1201.614 4708.945 5158.174 3234.675 5122.166 2750.786 4362.112 4298.899 6526.897 3001.798 9087.415 0.000 3688.013 827.276 2914.084 3433.041 5253.111 3642.556 6223.996 3253.553 4650.903 3115.939 7882.626 6708.857 2257.455 3509.286 3415.567 7748.243 4112.032 5174.452 4186.539
624.881 2119.282 5169.526 2336.666 1113.942 5508.634 846.950 181.323 742.881 3954.626 4107.947 1722.061 3928.500 1442.604 2365.955 2183.295 1635.511 1916.538 4252.636 3921.461 4240.449 1025.815 1485.324 4248.084 1679.345 937.273 681.324 952.533 2997.532 1323.619 5514.895 3688.013 0.000 3131.640 1337.162 1521.704 2496.988 395.288 4158.258 434.468 2922.836 582.233 4480.288 5436.876 1711.318 1464.532 1547.002 5521.514 2427.625 1905.827 2741.993
3751.768 4214.001 5511.791 3983.726 4240.946 2477.833 3950.953 3043.515 3815.788 4713.039 3687.455 1633.017 7058.433 1736.318 5248.951 1972.330 3605.702 4924.843 7350.888 7053.054 1156.539 4155.559 4616.902 3697.849 4688.033 2218.052 3812.831 3862.036 5837.764 2718.740 8394.421 827.276 3131.640 0.000 2628.174 3203.380 4469.747 3161.082 6178.153 2705.883 4604.866 2549.434 7497.617 5899.752 1539.341 3262.863 2641.206 7702.270 4029.857 4794.019 3360.365
1708.438 3411.806 6187.847 1489.352 2224.585 5104.231 1785.176 1156.230 2012.847 2822.292 2774.416 1002.349 4845.759 1070.389 2699.144 990.620 983.420 2482.587 5284.344 4792.908 3780.828 2128.674 2500.797 2911.922 2266.827 947.752 1817.899 1483.383 4275.876 90.593 6733.038 2914.084 1337.162 2628.174 0.000 592.805 3784.079 1036.940 3658.422 1076.726 2148.284 1115.503 4972.456 6496.006 1789.788 638.948 2412.437 5158.150 1560.038 2272.451 3681.534
1680.093 3638.991 6603.408 929.619 2137.136 5673.918 1672.221 1351.874 2054.047 2438.238 2718.792 1589.398 4538.727 1656.235 2240.678 1414.603 405.329 2118.609 5030.861 4465.174 4350.646 2047.036 2335.291 2878.747 1930.630 1456.516 1796.913 1265.967 4236.175 506.810 6599.254 3433.041 1521.704 3203.380 592.805 0.000 4017.107 1137.896 3069.658 1417.907 1584.929 1514.465 4502.009 6893.802 2357.827 98.456 2846.378 4565.906 1009.279 1853.715 4113.907
2500.812 378.300 3108.578 4780.996 2347.867 6239.953 2663.847 2671.787 2097.731 6439.942 6544.573 3759.897 3986.779 3378.038 3993.140 4442.105 4086.596 3439.526 3891.108 4101.586 5260.940 2377.788 2548.449 6670.849 3300.885 3020.197 2402.329 3093.247 1934.394 3788.602 4207.703 5253.111 2496.988 4469.747 3784.079 4017.107 0.000 2880.235 6284.542 2710.953 5306.488 2707.404 5338.768 3266.325 3023.408 3955.773 1838.405 7428.673 4872.975 3672.173 1598.953
688.789 2501.987 5558.916 1941.585 1216.655 5593.084 821.946 257.930 976.891 3563.795 3775.544 1631.267 3961.117 1426.721 2159.783 1965.086 1240.619 1773.517 4341.159 3933.825 4298.716 1120.641 1536.782 3921.968 1534.479 950.830 791.124 722.964 3239.510 1004.920 5712.382 3642.556 395.288 3161.082 1036.940 1137.896 2880.235 0.000 3802.050 534.198 2532.330 704.753 4355.100 5829.398 1855.846 1075.678 1893.973 5193.330 2032.470 1693.908 3116.590
3854.706 5935.646 9257.055 2199.103 3937.689 8590.415 3650.244 4058.831 4227.900 2289.300 3863.487 4629.408 4489.787 4725.882 2414.692 4222.575 2716.108 2919.131 5171.448 4311.459 7285.616 3907.212 3790.846 4035.079 3007.313 4483.165 3931.785 3276.555 5544.945 3575.226 7119.336 6223.996 4158.258 6178.153 3658.422 3069.658 6284.542 3802.050 0.000 4287.613 1577.887 4432.905 3293.973 9485.937 5417.229 3043.144 5695.677 1526.903 2148.769 2630.385 6894.954
1046.142 2341.149 5185.636 2314.148 1547.410 5103.478 1249.262 343.273 1168.240 3841.364 3835.475 1296.009 4359.030 1008.140 2687.830 1810.985 1634.497 2279.197 4687.097 4348.614 3824.326 1458.223 1914.641 3965.276 2039.602 502.808 1112.206 1248.986 3396.784 1090.147 5929.160 3253.553 434.468 2705.883 1076.726 1417.907 2710.953 534.198 4287.613 0.000 2942.167 172.617 4858.290 5476.652 1331.956 1386.482 1441.996 5703.382 2401.092 2222.118 2701.442
2807.640 4934.073 8091.246 659.088 3075.111 7012.663 2670.017 2785.332 3213.570 1418.943 2626.633 3083.004 4626.280 3216.433 2132.463 2644.998 1307.957 2401.735 5246.029 4492.189 5707.994 3012.825 3080.644 2810.175 2358.255 3040.390 2910.663 2221.139 5034.966 2072.353 7066.532 4650.903 2922.836 4604.866 2148.284 1584.929 5306.488 2532.330 1577.887 2942.167 0.000 3063.286 3980.882 8359.240 3936.080 1583.519 4383.999 3104.789 590.908 2043.521 5635.871
1204.001 2343.928 5096.106 2426.452 1694.353 4936.593 1413.990 512.858 1294.267 3916.322 3840.060 1191.484 4510.411 876.175 2860.305 1762.339 1758.977 2450.841 4826.228 4503.629 3661.511 1607.347 2067.556 3963.968 2211.293 379.153 1263.530 1421.449 3490.519 1142.225 6033.467 3115.939 582.233 2549.434 1115.503 1514.465 2707.404 704.753 4432.905 172.617 3063.286 0.000 5029.145 5394.900 1159.637 1492.164 1331.914 5858.149 2511.627 2394.557 2600.297
3872.481 5123.740 8412.173 4182.991 3516.410 9947.116 3635.491 4516.331 3996.573 5283.750 6600.652 5894.427 1744.028 5764.197 2273.342 5913.207 4122.552 2581.775 2361.354 1544.893 8645.835 3569.674 3136.995 6784.581 2821.177 5305.448 3854.244 3639.622 3730.897 4886.601 4257.310 7882.626 4480.288 7497.617 4972.456 4502.009 5338.768 4355.100 3293.973 4858.290 3980.882 5029.145 0.000 8510.624 6185.948 4414.088 5789.039 3277.215 4211.094 2710.926 6605.910
5635.509 3578.727 402.812 7766.461 5580.340 6483.331 5835.698 5580.432 5258.091 9311.105 9028.145 6054.725 6988.102 5701.580 7251.561 6821.094 7067.993 6696.563 6704.842 7138.476 6105.158 5597.146 5809.551 9112.863 6545.324 5567.313 5554.787 6223.495 4831.938 6532.421 6188.786 6708.857 5436.876 5899.752 6496.006 6893.802 3266.325 5829.398 9485.937 5476.652 8359.240 5394.900 8510.624 0.000 5038.811 6857.241 4086.436 10684.131 7856.306 6909.880 2830.515
2332.798 2732.698 4688.797 3277.039 2780.860 3807.003 2557.989 1671.052 2328.724 4502.309 3995.801 1037.660 5585.840 746.123 4015.624 1798.571 2701.716 3609.866 5841.434 5595.699 2568.653 2702.903 3168.093 4075.439 3370.424 955.523 2373.740 2577.726 4298.693 1863.795 6856.323 2257.455 1711.318 1539.341 1789.788 2357.827 3023.408 1855.846 5417.229 1331.956 3936.080 1159.637 6185.948 5038.811 0.000 2375.897 1194.534 6890.975 3349.364 3549.741 2241.486
1596.679 3577.495 6570.697 936.058 2046.968 5736.420 1581.841 1298.668 1975.373 2490.259 2809.681 1641.065 4440.544 1687.276 2149.879 1499.835 344.472 2021.151 4932.441 4367.391 4412.892 1957.552 2240.102 2970.787 1832.398 1459.121 1713.505 1170.848 4146.406 549.595 6503.467 3509.286 1464.532 3262.863 638.948 98.456 3955.773 1075.678 3043.144 1386.482 1583.519 1492.164 4414.088 6857.241 2375.897 0.000 2822.687 4531.280 1019.943 1758.778 4087.129
2008.994 1573.074 3775.420 3754.640 2274.668 4611.867 2256.745 1636.864 1797.812 5233.302 4999.963 2057.863 4890.876 1679.089 3841.576 2804.491 3076.127 3337.378 5032.060 4938.431 3511.863 2228.347 2652.218 5101.876 3115.768 1481.448 1988.744 2486.336 3303.945 2452.874 5824.295 3415.567 1547.002 2641.206 2412.437 2846.378 1838.405 1893.973 5695.677 1441.996 4383.999 1331.914 5789.039 4086.436 1194.534 2822.687 0.000 7068.410 3840.822 3398.576 1270.927
5132.106 7105.488 10487.015 3719.538 5107.463 10117.249 4903.951 5444.254 5468.717 3620.971 5238.744 6140.822 4865.557 6218.556 3435.605 5749.311 4194.924 3989.324 5541.516 4665.763 8812.319 5097.359 4880.526 5398.736 4140.484 5944.449 5191.226 4591.526 6378.469 5072.708 7491.140 7748.243 5521.514 7702.270 5158.150 4565.906 7428.673 5193.330 1526.903 5703.382 3104.789 5858.149 3277.215 10684.131 6890.975 4531.280 7068.410 0.000 3672.492 3782.099 8217.719
2401.806 4496.381 7577.149 91.979 2741.669 6454.470 2302.575 2276.913 2806.955 1611.494 2442.529 2493.407 4636.198 2626.601 2140.370 2083.649 792.694 2273.699 5216.061 4522.839 5143.605 2667.939 2814.910 2624.447 2173.624 2464.963 2512.429 1844.815 4785.561 1485.929 6957.068 4112.032 2427.625 4029.857 1560.038 1009.279 4872.975 2032.470 2148.769 2401.092 590.908 2511.627 4211.094 7856.306 3349.364 1019.943 3840.822 3672.492 0.000 1925.722 5102.383
1393.912 3335.426 6705.940 1858.325 1329.695 7255.551 1150.449 1894.269 1694.409 3444.921 4333.072 3183.864 2739.253 3067.256 465.894 3236.824 1521.413 358.355 3295.439 2644.650 5946.291 1315.493 1161.901 4510.776 376.949 2629.241 1433.391 973.139 3027.147 2189.086 5042.764 5174.452 1905.827 4794.019 2272.451 1853.715 3672.173 1693.908 2630.385 2222.118 2043.521 2394.557 2710.926 6909.880 3549.741 1758.778 3398.576 3782.099 1925.722 0.000 4468.131
3087.763 1602.742 2508.246 5015.095 3207.321 4759.531 3322.236 2859.324 2779.098 6503.366 6207.183 3234.919 5442.470 2875.090 4879.670 3999.453 4328.933 4341.071 5428.464 5531.694 3924.362 3189.621 3535.778 6297.542 4142.937 2743.599 3036.264 3631.915 3503.129 3723.345 5793.088 4186.539 2741.993 3360.365 3681.534 4113.907 1598.953 3116.590 6894.954 2701.442 5635.871 2600.297 6605.910 2830.515 2241.486 4087.129 1270.927 8217.719 5102.383 4468.131 0.000
NODE_COORD_SECTION
1 135.757630 21.597263
2 -1204.859930 -1635.258778
3 -2021.314548 -4931.426335
4 2001.538258 1384.309677
5 -366.301272 187.392840
6 4058.105162 -4693.413840
7 92.131381 266.185699
8 721.423571 -388.459841
9 -166.822797 -250.266483
10 3501.261943 2185.386360
11 4441.758408 867.518115
12 2164.506745 -1044.678501
13 -2535.928796 1984.964514
14 1800.109435 -1165.910798
15 -33.829315 1846.325402
16 2731.409381 -528.635912
17 1553.680396 844.508492
18 -201.036898 1316.847140
19 -3142.625500 1663.415544
20 -2401.046089 2136.315364
21 3498.122079 -3494.167434
22 -272.158515 167.381619
23 -585.825173 510.979759
24 4611.649023 797.007960
25 -78.552876 1110.867142
26 1361.783948 -914.453373
27 24.137676 -12.926301
28 483.479718 503.679743
29 -2435.111645 -170.233540
30 1800.826777 -14.644165
31 -4846.838953 690.063500
32 3729.329545 -2315.006685
33 549.657665 -446.551437
34 2921.168488 -2491.816267
35 1840.124737 -96.269832
36 1749.367633 489.546739
37 -1504.565529 -1866.099936
38 804.293681 -144.205158
39 1669.216711 3558.158350
40 925.524907 -664.465151
41 2090.053894 2037.426795
42 993.827510 -822.993924
43 -1623.612128 3471.340320
44 -2417.870859 -5002.140366
45 1518.828426 -1856.982479
46 1654.272696 515.051121
47 330.434530 -1977.941645
48 1259.696068 5029.118899
49 2068.939970 1446.896284
50 143.474388 1415.488353
51 -397.461906 -3019.777174
DEMAND_SECTION
1 0
2 2
3 4
4 3
5 7
6 2
7 6
8 2
9 3
10 7
11 9
12 10
13 3
14 2
15 6
16 8
17 3
18 8
19 73
20 7
21 2
22 79
23 10
24 4
25 7
26 9
27 3
28 7
29 55
30 70
31 7
32 4
33 87
34 3
35 4
36 3
37 4
38 2
39 8
40 5
41 9
42 9
43 5
44 8
45 1
46 8
47 7
48 4
49 4
50 8
51 8
DEPOT_SECTION
1
-1
EOF
