NAME : mamut-paris-n10-poi
COMMENT : Mamut2026 fastest metric; city paris; 3-decimal seconds/meters; ENU ref in mamut-paris-n10-poi.vrp.json
TYPE : CVRP
DIMENSION : 11
EDGE_WEIGHT_TYPE : EXPLICIT
EDGE_WEIGHT_FORMAT : FULL_MATRIX
CAPACITY : 196
EDGE_WEIGHT_SECTION
0.000 348.015 194.177 243.567 149.208 132.720 89.289 288.131 311.341 181.252 63.044
406.228 0.000 227.339 333.690 491.557 377.587 434.031 515.656 389.698 363.549 399.346
195.471 258.120 0.000 296.334 309.202 166.830 251.676 325.416 256.814 152.792 188.588
289.186 315.259 302.195 0.000 267.435 325.088 273.163 509.422 465.053 342.984 336.211
126.889 429.828 300.595 278.399 0.000 239.138 140.661 342.712 417.759 287.670 189.934
137.478 406.317 178.152 321.646 269.648 0.000 212.122 335.625 295.316 165.227 130.595
113.706 424.455 295.223 299.918 154.323 233.765 0.000 330.663 412.386 277.995 176.751
273.353 520.420 330.585 507.008 300.906 365.079 342.379 0.000 253.103 242.081 263.939
295.437 380.719 215.404 428.440 392.077 278.920 363.767 286.932 0.000 169.190 276.906
262.082 374.483 198.163 395.085 345.455 245.566 330.412 240.310 163.155 0.000 230.284
145.215 374.774 146.610 330.623 216.371 161.115 234.504 235.381 263.774 133.685 0.000
NODE_COORD_SECTION
1 -500.874011 70.822412
2 6467.771607 -63.205621
3 2343.367099 521.424603
4 1784.925457 -3600.025640
5 -1537.540196 -1013.967562
6 345.005668 310.016937
7 -607.864337 -389.597205
8 -2479.027745 4473.094962
9 1621.133720 3580.582641
10 827.041372 2512.805079
11 -222.563016 1122.734638
DEMAND_SECTION
1 0
2 4
3 10
4 2
5 2
6 5
7 9
8 2
9 8
10 7
11 82
DEPOT_SECTION
1
-1
EOF
