NAME : poryos-san_francisco-n10-hyb
COMMENT : Poryos2026 euclidean metric; city san_francisco; 3-decimal seconds/meters; ENU ref in poryos-san_francisco-n10-hyb.vrp.json
TYPE : CVRP
DIMENSION : 11
EDGE_WEIGHT_TYPE : EXPLICIT
EDGE_WEIGHT_FORMAT : FULL_MATRIX
CAPACITY : 116
EDGE_WEIGHT_SECTION
0.000 16020.593 1446.916 1000.473 4289.377 2359.748 4917.273 15898.786 5866.438 7961.281 1888.449
16020.593 0.000 14575.863 16816.421 14862.396 17061.539 11130.658 25799.979 10746.514 9274.261 15215.122
1446.916 14575.863 0.000 2294.992 3874.141 3151.965 3490.444 16329.682 4581.453 6696.895 1822.378
1000.473 16816.421 2294.992 0.000 4141.849 1564.255 5779.319 15077.375 6827.410 8931.707 2835.157
4289.377 14862.396 3874.141 4141.849 0.000 3133.346 5423.912 12974.625 7126.994 9058.645 5660.223
2359.748 17061.539 3151.965 1564.255 3133.346 0.000 6360.559 13547.917 7680.599 9794.311 4242.643
4917.273 11130.658 3490.444 5779.319 5423.912 6360.559 0.000 18378.564 1761.205 3643.255 4186.707
15898.786 25799.979 16329.682 15077.375 12974.625 13547.917 18378.564 0.000 20099.546 21982.690 17759.025
5866.438 10746.514 4581.453 6827.410 7126.994 7680.599 1761.205 20099.546 0.000 2116.525 4603.808
7961.281 9274.261 6696.895 8931.707 9058.645 9794.311 3643.255 21982.690 2116.525 0.000 6581.978
1888.449 15215.122 1822.378 2835.157 5660.223 4242.643 4186.707 17759.025 4603.808 6581.978 0.000
NODE_COORD_SECTION
1 27567.380647 -311.862562
2 20831.002691 -14847.357619
3 26891.010382 -1590.959804
4 27333.686637 660.934190
5 23279.790117 -188.085604
6 25967.423830 1422.654733
7 25899.240267 -4937.538420
8 15887.273135 10474.539508
9 27162.886353 -6164.339083
10 27370.074981 -8270.698289
11 28698.407123 -1824.151764
DEMAND_SECTION
1 0
2 1
3 50
4 6
5 5
6 84
7 1
8 7
9 98
10 73
11 1
DEPOT_SECTION
1
-1
EOF
