NAME : poryos-tokyo-n25-poi
COMMENT : Poryos2026 fastest metric; city tokyo; 3-decimal seconds/meters; ENU ref in poryos-tokyo-n25-poi.vrp.json
TYPE : CVRP
DIMENSION : 26
EDGE_WEIGHT_TYPE : EXPLICIT
EDGE_WEIGHT_FORMAT : FULL_MATRIX
CAPACITY : 125
EDGE_WEIGHT_SECTION
0.000 439.368 205.590 162.705 538.983 449.679 378.776 252.977 199.745 390.214 419.436 223.010 401.662 201.788 556.411 122.868 640.783 188.034 200.746 657.298 569.862 62.465 188.987 284.495 583.863 213.247
439.073 0.000 474.014 376.067 861.743 368.252 362.088 511.634 405.566 622.218 337.994 437.017 320.220 609.384 932.142 531.676 365.882 595.629 373.217 1046.197 958.761 478.924 328.382 682.110 693.339 620.843
183.551 476.783 0.000 158.527 419.918 591.400 520.498 342.952 183.843 419.221 561.157 114.429 543.383 176.601 510.975 120.970 587.331 162.847 185.293 604.372 516.936 181.042 327.441 240.284 673.839 188.060
196.130 378.767 196.981 0.000 584.711 518.187 447.285 415.671 59.685 531.060 487.945 141.211 470.170 331.917 675.768 252.997 536.648 318.163 49.050 769.165 681.729 235.982 254.228 405.077 752.122 343.377
539.533 862.242 427.394 543.986 0.000 958.661 887.758 690.342 569.302 741.088 928.418 487.754 910.644 490.232 501.555 464.522 951.555 482.080 570.752 527.113 466.029 528.431 697.969 484.615 1021.228 480.204
452.878 378.659 592.585 493.507 961.596 0.000 248.220 483.303 530.547 584.944 136.646 590.857 160.531 619.649 864.962 545.481 596.125 610.646 531.548 1079.911 992.475 492.729 359.979 703.604 495.278 635.860
378.299 364.367 518.006 418.928 887.017 245.414 0.000 388.698 455.968 490.339 184.850 516.278 167.076 537.024 770.357 470.902 609.300 536.067 456.969 1005.332 913.029 412.477 285.400 620.979 506.068 556.279
254.699 515.450 368.862 382.450 690.257 485.749 391.374 0.000 415.914 160.373 422.800 408.089 400.635 270.011 489.527 288.301 747.009 290.273 416.915 767.971 632.199 216.916 269.647 346.554 382.913 289.265
190.447 400.704 173.812 47.737 561.541 516.359 445.457 408.856 0.000 518.680 486.116 111.518 468.342 309.182 652.599 240.618 528.947 295.428 26.466 745.996 658.559 230.298 252.400 381.908 739.743 320.641
367.460 601.035 417.389 468.497 722.976 556.962 462.587 132.505 501.960 0.000 494.013 456.615 471.848 309.181 358.748 334.667 832.594 329.443 502.961 637.192 501.420 329.677 355.232 267.588 426.088 327.288
421.178 346.900 560.885 461.807 929.896 134.095 187.294 422.545 498.847 524.186 0.000 559.157 36.096 570.871 804.204 513.781 564.366 578.946 499.848 1048.211 946.876 446.324 328.279 654.826 460.942 590.126
205.372 419.279 112.755 112.890 499.780 569.814 498.911 386.827 102.002 463.096 539.571 0.000 521.797 248.126 591.542 183.534 495.196 234.371 103.452 684.939 597.503 224.916 305.854 320.851 717.713 259.585
401.527 327.249 541.234 442.156 910.245 158.223 167.644 397.961 479.196 499.602 24.976 539.507 0.000 546.288 779.620 494.130 544.716 559.296 480.197 1028.560 922.292 421.740 308.628 630.243 436.358 565.542
198.564 606.656 198.838 288.400 492.454 617.692 541.157 274.267 313.715 330.409 572.583 252.282 550.418 0.000 395.292 113.171 717.203 32.208 315.165 537.611 450.174 176.757 357.001 123.376 621.742 41.000
532.958 931.662 513.776 622.793 511.587 858.844 764.469 480.261 648.109 374.581 795.895 574.124 773.730 368.047 0.000 447.565 1036.975 383.787 649.559 323.153 179.193 523.058 691.394 287.948 727.970 342.623
110.365 519.182 146.812 200.364 465.150 529.493 458.591 275.124 233.828 345.550 499.251 188.483 481.476 120.063 474.687 0.000 645.544 106.309 234.829 575.573 488.137 114.736 268.802 202.771 616.016 131.523
664.634 394.824 608.369 564.162 970.241 615.557 633.997 766.787 536.535 877.371 585.299 527.207 567.524 743.739 1069.297 679.147 0.000 729.985 543.941 1177.171 1089.735 706.481 582.487 812.512 940.643 755.198
193.425 601.516 193.699 283.260 487.314 612.553 541.650 286.786 308.576 342.927 582.310 247.142 562.937 33.504 407.810 108.031 712.063 0.000 310.025 550.129 462.693 189.275 351.861 135.894 634.260 53.519
200.425 374.238 183.790 57.714 571.519 526.337 455.434 418.834 32.350 528.658 496.094 121.496 478.320 319.160 662.577 250.596 527.958 305.406 0.000 755.973 668.537 240.276 262.377 391.886 749.720 330.619
664.483 1054.080 632.712 735.825 533.519 1083.611 1012.708 770.880 761.140 665.199 1053.368 695.645 1035.594 540.505 341.727 579.089 1162.374 549.109 762.590 0.000 204.558 668.853 822.919 460.407 965.805 515.081
578.061 967.658 546.290 649.402 473.146 995.154 900.779 616.572 674.718 510.891 932.205 609.222 910.040 445.618 180.857 492.667 1075.952 461.358 676.168 200.883 0.000 582.431 736.497 365.520 864.280 420.194
62.630 480.601 206.802 203.939 528.197 490.912 412.591 213.813 240.979 351.050 444.017 246.029 421.852 172.140 545.686 127.257 682.016 185.945 241.980 661.688 574.251 0.000 230.221 256.096 544.700 191.395
164.364 314.551 304.071 204.993 673.082 329.778 258.875 241.208 242.034 351.792 299.535 302.344 281.761 335.887 680.946 256.967 540.968 322.133 243.034 791.397 703.961 204.216 0.000 418.595 588.919 347.347
288.184 696.275 269.002 378.019 486.009 699.557 619.663 343.761 403.335 286.361 651.089 329.350 628.924 123.273 312.088 202.791 792.201 139.013 404.785 454.407 366.971 255.262 446.620 0.000 652.459 97.849
584.027 730.661 698.190 711.778 1019.585 493.031 536.607 378.653 745.241 452.180 490.840 737.417 468.675 616.664 732.197 626.685 948.127 636.926 746.242 959.063 874.870 546.243 615.000 657.956 0.000 635.918
204.263 612.354 204.537 294.098 470.822 623.391 546.416 279.526 319.414 335.667 577.842 257.981 555.677 27.004 371.382 118.869 722.902 42.418 320.863 513.701 426.265 182.015 362.699 99.466 627.000 0.000
NODE_COORD_SECTION
1 -2164.012052 1974.697434
2 -8708.413453 -1913.724102
3 145.521853 320.855216
4 -2549.836077 -70.311558
5 8622.843196 -866.323896
6 -11620.308060 3134.634601
7 -8924.304114 3170.919249
8 -4167.809643 5991.723045
9 -2319.323552 -510.114592
10 -2384.197296 8168.451755
11 -10498.444188 3145.133306
12 -1035.962287 -927.872429
13 -10276.754181 3150.288826
14 489.515740 3424.398505
15 4815.586488 8874.085730
16 -152.434563 2110.963517
17 -8675.802706 -7750.442605
18 635.963845 3175.660997
19 -2613.650680 -653.827968
20 9588.576464 10010.867079
21 6747.086473 7913.490335
22 -1959.248072 2728.434128
23 -5194.258738 1572.247549
24 1449.630687 4884.420784
25 -10098.574996 11508.566481
26 848.103618 3512.822201
DEMAND_SECTION
1 0
2 8
3 82
4 3
5 53
6 3
7 10
8 67
9 7
10 3
11 4
12 9
13 4
14 5
15 80
16 3
17 5
18 1
19 8
20 5
21 7
22 6
23 79
24 3
25 6
26 5
DEPOT_SECTION
1
-1
EOF
