NAME : mamut-san_francisco-n10-hyb
COMMENT : Mamut2026 fastest metric; city san_francisco; 3-decimal seconds/meters; ENU ref in mamut-san_francisco-n10-hyb.vrp.json
TYPE : CVRP
DIMENSION : 11
EDGE_WEIGHT_TYPE : EXPLICIT
EDGE_WEIGHT_FORMAT : FULL_MATRIX
CAPACITY : 116
EDGE_WEIGHT_SECTION
0.000 763.489 105.339 89.388 223.842 170.729 338.598 855.878 336.174 457.325 145.250
772.351 0.000 699.087 821.958 713.060 882.436 603.936 1326.025 544.774 549.435 728.871
86.901 672.475 0.000 136.508 247.804 196.987 254.544 882.136 305.370 426.812 125.121
75.633 784.258 126.108 0.000 211.168 124.455 359.367 809.605 392.164 513.315 203.657
213.986 684.757 243.773 229.874 0.000 244.794 355.932 709.984 514.001 592.175 334.497
161.616 854.135 195.985 129.049 244.794 0.000 429.244 728.555 462.041 583.192 282.127
320.264 541.893 253.237 369.871 355.952 430.349 0.000 1033.326 186.118 316.685 331.364
847.230 1295.409 881.600 814.664 708.129 727.883 1030.630 0.000 1147.656 1202.827 967.741
327.971 519.439 289.759 387.170 511.352 459.964 189.294 1145.113 0.000 239.312 256.687
455.225 523.785 417.013 514.424 593.555 587.218 331.598 1206.520 239.312 0.000 383.941
147.243 731.405 126.479 206.633 334.459 281.346 350.981 966.495 291.664 412.298 0.000
NODE_COORD_SECTION
1 27567.380647 -311.862562
2 20831.002691 -14847.357619
3 26891.010382 -1590.959804
4 27333.686637 660.934190
5 23279.790117 -188.085604
6 25967.423830 1422.654733
7 25899.240267 -4937.538420
8 15887.273135 10474.539508
9 27162.886353 -6164.339083
10 27370.074981 -8270.698289
11 28698.407123 -1824.151764
DEMAND_SECTION
1 0
2 1
3 50
4 6
5 5
6 84
7 1
8 7
9 98
10 73
11 1
DEPOT_SECTION
1
-1
EOF
