NAME : poryos-san_francisco-n50-hyb
COMMENT : Poryos2026 fastest metric; city san_francisco; 3-decimal seconds/meters; ENU ref in poryos-san_francisco-n50-hyb.vrp.json
TYPE : CVRP
DIMENSION : 51
EDGE_WEIGHT_TYPE : EXPLICIT
EDGE_WEIGHT_FORMAT : FULL_MATRIX
CAPACITY : 217
EDGE_WEIGHT_SECTION
0.000 45.138 143.253 207.230 525.415 734.162 117.371 201.682 690.830 148.396 246.554 48.958 897.971 268.057 216.270 87.091 416.351 106.016 266.108 195.790 157.853 438.769 119.581 144.201 688.851 542.337 132.901 623.525 716.599 159.200 737.354 87.994 170.497 48.996 355.986 123.395 552.371 685.960 165.569 291.596 693.645 576.002 150.377 598.425 719.302 261.376 644.165 648.741 162.818 713.475 179.573
43.228 0.000 163.062 208.822 527.007 758.683 109.345 188.125 715.351 116.545 248.147 63.328 866.120 236.206 184.419 78.973 417.943 116.682 234.257 197.383 138.048 440.361 111.463 164.201 690.443 566.858 152.901 648.046 718.192 193.785 738.946 106.573 138.646 33.052 324.135 121.007 576.892 687.552 145.065 326.181 718.166 577.595 170.186 600.018 753.887 294.514 645.757 650.333 182.967 737.996 214.158
144.448 116.392 0.000 285.096 622.435 654.298 35.196 141.444 610.966 189.116 338.167 153.649 938.691 352.598 300.811 77.663 514.234 44.923 350.649 273.656 97.615 530.382 54.715 86.242 738.917 462.473 81.922 543.661 766.666 187.427 787.420 148.629 255.038 149.445 440.527 237.399 472.507 736.026 124.370 323.018 613.781 626.068 60.614 649.308 757.676 299.750 694.231 698.807 145.579 633.611 209.491
192.394 226.200 294.810 0.000 478.132 860.603 282.720 351.726 817.271 280.147 104.711 183.160 1029.722 386.460 334.673 267.975 389.355 269.676 384.511 23.630 301.649 386.079 286.235 268.735 522.544 668.778 259.703 749.965 550.293 234.898 571.048 155.417 271.709 180.746 474.389 227.988 678.812 519.654 308.667 267.075 820.086 409.696 294.885 432.936 653.194 156.688 477.858 482.434 259.886 839.916 239.135
511.066 544.872 642.203 486.778 0.000 1203.893 618.010 670.398 1160.562 576.869 388.866 501.832 1031.347 344.650 383.865 593.691 141.383 604.966 347.784 492.240 620.321 220.619 621.423 612.025 490.539 1012.069 602.994 1093.256 585.737 597.847 442.577 503.250 420.943 499.418 401.818 446.664 1022.102 487.648 627.338 630.441 1163.376 401.870 638.176 375.433 859.451 541.895 459.221 450.429 630.302 1183.206 618.221
733.719 742.200 635.194 836.161 1182.925 0.000 670.390 776.638 142.252 824.310 898.658 742.894 1573.885 973.734 921.947 703.893 1089.473 657.917 971.785 824.721 732.809 1090.872 689.910 671.492 1283.527 306.264 667.172 387.451 1311.276 752.718 1332.031 716.257 876.174 754.674 1061.663 829.073 372.639 1280.636 759.564 885.115 146.747 1170.679 634.217 1193.919 1302.286 844.360 1238.841 1243.417 728.285 147.887 773.092
124.019 89.409 64.966 277.720 615.058 666.492 0.000 125.494 623.161 173.166 330.791 144.936 922.741 325.615 273.828 50.680 506.858 42.450 323.666 266.280 81.665 523.005 38.766 98.436 739.585 474.668 90.537 555.855 767.334 199.621 788.088 148.613 228.055 122.461 413.544 210.416 484.701 736.694 108.420 335.213 625.975 626.737 72.809 649.976 758.344 300.418 694.899 699.475 157.774 645.805 221.685
178.113 146.105 127.472 314.373 632.558 740.557 84.255 0.000 697.226 131.660 353.698 168.878 881.235 341.756 289.969 115.289 523.494 114.013 339.807 302.933 26.078 545.912 68.670 159.096 795.994 548.733 155.147 629.920 823.743 243.429 844.497 212.124 244.196 138.603 429.685 226.557 558.766 793.103 55.891 379.020 700.040 683.145 125.592 705.568 822.953 365.027 751.308 755.884 201.581 719.871 265.492
716.818 725.300 618.294 819.260 1166.025 136.642 653.489 759.738 0.000 807.410 881.758 725.993 1556.985 956.834 905.047 686.992 1072.573 641.017 954.885 807.820 715.909 1073.972 673.009 654.591 1266.627 289.363 650.271 370.550 1294.376 735.818 1315.130 699.357 859.274 737.773 1044.763 812.173 355.738 1263.736 742.664 868.215 98.640 1153.778 617.317 1177.018 1285.386 827.460 1221.941 1226.517 711.385 22.645 756.192
124.318 124.405 193.852 260.578 578.763 806.937 150.635 150.951 763.606 0.000 299.903 115.084 778.998 287.962 236.175 162.165 469.699 180.393 286.013 249.139 98.611 492.117 135.050 225.476 742.199 615.113 221.527 696.300 769.948 283.518 790.702 158.329 190.402 84.808 375.891 172.763 625.146 739.308 108.080 415.914 766.420 629.351 191.972 651.774 807.871 346.270 697.513 702.089 267.961 786.250 303.891
228.782 262.587 352.328 103.405 378.913 909.406 332.053 388.114 866.074 316.534 0.000 219.547 1016.036 365.654 313.867 311.406 290.136 319.009 363.705 108.866 338.037 286.860 335.568 317.538 541.165 717.582 308.506 798.769 568.913 275.228 589.668 212.935 250.903 217.134 453.583 216.948 727.615 538.274 345.054 296.384 868.889 428.316 343.688 446.516 682.503 185.997 496.478 501.055 320.520 888.719 295.602
37.237 47.907 180.491 186.275 504.460 771.399 127.097 199.021 728.068 127.442 225.600 0.000 877.017 247.102 195.315 96.725 395.396 134.434 245.153 174.835 148.944 417.814 129.184 181.438 667.896 579.575 170.138 660.762 695.645 196.437 716.399 76.809 149.542 28.041 335.031 102.441 589.608 665.005 155.961 328.834 730.882 555.047 187.614 577.471 726.351 268.425 623.210 627.786 200.056 750.712 216.811
890.777 890.864 960.311 1027.038 1032.496 1573.396 917.094 917.410 1530.065 775.280 1017.083 881.543 0.000 735.677 763.197 928.624 923.432 946.852 733.728 1015.598 865.070 994.397 901.509 991.935 1264.318 1381.572 987.986 1462.759 1359.515 1049.977 1312.821 924.788 813.177 851.267 793.245 837.081 1391.605 1261.427 874.539 1182.373 1532.879 1175.648 958.431 1169.499 1574.330 1112.729 1233.000 1224.208 1034.420 1552.709 1070.350
261.780 261.867 392.233 390.453 342.285 990.396 337.458 387.393 947.064 288.082 368.760 252.545 742.560 0.000 95.078 310.686 233.221 348.395 13.201 382.678 337.316 304.186 338.418 395.914 574.107 798.571 384.614 879.758 669.304 420.979 622.610 295.791 142.726 222.270 87.929 189.479 808.605 571.216 344.333 553.376 949.878 485.437 400.076 479.288 943.019 483.732 542.789 533.997 414.680 969.709 441.353
206.417 206.504 336.870 335.090 385.870 935.033 282.095 332.030 891.701 248.706 313.397 197.182 763.598 89.051 0.000 255.323 276.806 293.032 87.101 327.315 281.953 347.771 283.055 340.551 617.691 743.208 329.251 824.395 712.889 365.616 666.195 240.428 87.363 166.907 176.980 134.116 753.242 614.800 288.970 498.013 894.516 529.022 344.713 522.872 889.559 428.369 586.373 577.581 359.317 914.346 385.990
73.339 38.729 121.886 247.551 565.736 722.004 67.111 150.173 678.673 155.274 286.876 94.256 904.849 274.935 223.148 0.000 456.672 76.941 272.986 236.112 106.343 479.090 68.071 127.523 727.507 530.180 116.223 611.367 755.256 188.136 776.010 128.979 177.375 71.781 362.864 159.736 540.213 724.616 114.060 323.728 681.487 614.658 129.729 637.898 746.266 288.340 682.821 687.397 146.289 701.317 210.200
396.089 429.895 527.227 378.509 143.981 1088.917 503.033 555.421 1045.585 461.893 280.598 386.855 916.371 229.674 268.889 478.714 0.000 489.989 232.808 383.971 505.344 112.350 506.447 497.049 382.270 897.092 488.017 978.279 477.468 489.578 430.774 388.274 305.966 384.441 286.841 331.688 907.125 379.379 512.361 522.172 1048.399 293.601 523.199 287.451 751.182 433.626 350.952 342.160 515.325 1068.230 509.952
127.212 103.342 60.022 260.919 605.199 655.642 45.443 164.973 612.311 212.646 320.931 136.412 962.221 339.547 287.760 64.613 496.998 0.000 337.598 249.479 121.144 513.145 82.872 69.581 714.279 463.818 65.232 545.005 742.028 170.766 762.782 123.307 241.987 136.394 427.476 222.566 473.851 711.388 147.899 306.357 615.125 601.431 67.145 624.671 733.038 275.112 669.593 674.169 128.919 634.955 192.830
248.579 248.666 379.032 377.252 348.844 977.195 324.257 374.192 933.863 274.881 355.559 239.345 729.360 11.987 81.877 297.485 239.780 335.194 0.000 369.477 324.115 310.745 325.217 382.713 580.666 785.370 371.413 866.558 675.863 407.779 629.169 282.590 129.525 209.069 99.916 176.278 795.404 577.775 331.132 540.175 936.678 491.996 386.875 485.847 931.721 470.531 549.348 540.556 401.479 956.508 428.152
172.460 206.266 274.875 15.135 484.202 840.668 262.785 331.792 797.337 260.212 110.781 163.226 1009.787 373.796 322.009 248.041 395.425 249.741 371.847 0.000 281.715 392.149 266.300 248.800 528.614 648.844 239.768 730.031 556.363 214.964 577.118 135.482 259.045 160.812 461.725 215.324 658.877 525.724 288.732 262.644 800.151 415.766 274.950 439.006 648.763 152.257 483.928 488.504 239.952 819.981 219.200
174.812 142.804 130.679 311.073 629.257 743.764 87.462 68.086 700.433 114.966 350.397 165.578 860.363 338.456 286.669 115.103 520.193 117.220 336.507 299.633 0.000 542.611 71.877 162.303 792.693 551.940 158.354 633.127 820.442 246.635 841.197 208.823 240.896 135.302 426.385 223.257 561.973 789.802 29.813 382.227 703.247 679.845 128.799 702.268 826.160 368.234 748.007 752.583 204.788 723.077 268.699
426.366 460.172 549.913 388.100 216.530 1106.990 529.637 585.698 1063.659 514.118 290.188 417.132 1001.275 314.577 353.792 508.990 127.753 516.593 317.712 393.562 535.621 0.000 533.152 515.122 269.920 915.166 506.091 996.353 365.118 475.812 318.424 410.519 390.870 414.718 371.745 414.532 925.199 267.030 542.638 508.406 1066.473 181.251 541.273 175.101 648.232 425.828 238.603 229.810 526.471 1086.303 496.186
134.899 100.289 86.137 289.435 622.691 687.663 31.361 102.530 644.332 150.202 342.506 155.816 899.777 331.889 280.102 62.396 513.627 61.119 329.940 277.995 58.700 534.720 0.000 119.607 751.300 495.839 102.253 577.026 779.049 211.930 799.804 160.328 234.329 128.736 419.818 216.690 505.872 748.410 85.455 347.521 647.146 638.452 93.980 661.692 770.059 312.133 706.614 711.190 170.082 666.977 233.994
165.059 142.000 78.180 263.011 611.834 640.548 105.072 187.654 597.216 244.347 327.566 172.439 993.922 378.206 326.419 103.271 518.381 69.581 376.257 251.571 152.846 519.780 121.531 0.000 709.238 448.723 55.441 529.910 736.986 117.306 757.741 145.166 280.646 175.052 466.135 260.414 458.756 706.347 179.601 252.897 600.030 596.389 56.347 619.629 714.699 273.268 664.552 669.128 75.458 619.861 139.369
675.336 709.141 746.362 525.316 486.358 1299.999 761.674 834.668 1256.667 763.088 544.916 666.101 1271.103 584.405 623.620 746.930 397.581 733.760 587.540 530.777 784.590 326.461 765.189 708.131 0.000 1108.174 699.099 1189.361 157.975 612.381 192.919 644.122 660.698 663.688 641.573 669.260 1118.208 30.907 791.608 644.975 1259.482 119.101 734.281 252.029 441.089 562.397 66.954 40.019 663.040 1279.312 632.755
556.060 564.542 457.536 658.502 1005.267 314.554 492.731 598.980 271.223 646.652 721.000 565.235 1396.227 796.076 744.289 526.234 911.814 480.259 794.127 647.062 555.151 913.214 512.251 493.833 1105.869 0.000 489.513 101.336 1133.618 575.060 1154.372 538.599 698.516 577.015 884.005 651.415 143.242 1102.978 581.906 707.457 274.037 993.020 456.559 1016.260 1124.628 666.702 1061.183 1065.759 550.627 293.867 595.434
128.895 105.786 66.661 262.400 606.802 662.282 81.802 167.418 618.950 215.090 322.534 138.074 964.665 341.992 290.205 67.057 498.601 53.888 340.043 250.961 123.589 514.749 85.317 76.112 714.426 470.457 0.000 551.644 742.175 175.055 762.929 124.789 244.432 138.839 429.921 224.249 480.491 711.535 150.344 310.647 621.764 601.578 73.785 624.818 733.185 275.259 669.740 674.316 133.208 641.595 197.119
638.761 647.243 540.236 741.203 1087.968 397.255 575.432 681.681 353.924 729.353 803.700 647.936 1478.928 878.777 826.990 608.935 994.515 562.959 876.827 729.763 637.851 995.914 594.952 576.534 1188.569 98.162 572.214 0.000 1216.318 657.761 1237.073 621.299 781.217 659.716 966.705 734.115 225.943 1185.679 664.606 790.157 356.738 1075.721 539.259 1098.961 1207.328 749.402 1143.883 1148.460 633.327 376.568 678.134
675.833 709.639 746.859 525.813 534.888 1300.496 762.172 835.165 1257.165 763.585 546.905 666.599 1319.632 632.935 672.150 747.427 446.111 734.258 636.070 531.275 785.088 374.991 765.687 708.628 139.285 1108.672 699.597 1189.859 0.000 612.879 285.551 644.620 709.228 664.185 690.103 710.375 1118.705 143.401 792.105 645.473 1259.979 176.442 734.779 293.509 380.260 562.894 115.664 134.086 663.538 1279.809 633.253
181.784 190.266 173.172 225.706 587.844 739.558 188.484 270.584 696.227 302.139 267.171 184.016 1051.714 421.800 370.013 173.740 499.067 160.571 419.850 214.964 230.272 475.971 192.000 115.131 611.302 547.734 125.910 628.921 639.051 0.000 659.806 162.628 324.240 202.739 509.729 277.138 557.767 608.411 257.027 160.069 699.041 498.454 139.276 521.694 616.763 191.741 566.616 571.192 58.263 718.872 37.150
736.236 770.042 807.262 586.216 451.822 1360.899 822.574 895.568 1317.568 823.988 606.465 727.002 1332.652 645.955 685.169 807.830 459.130 794.661 649.089 591.677 845.491 388.011 826.090 769.031 192.246 1169.075 760.000 1250.262 308.535 673.282 0.000 705.023 722.247 724.588 703.122 730.809 1179.108 189.355 852.508 705.876 1320.382 184.320 795.182 254.875 591.649 623.297 182.020 155.085 723.940 1340.212 693.655
111.441 150.113 164.690 164.905 515.605 718.327 180.002 265.619 674.996 219.032 231.338 102.207 968.607 338.692 286.905 165.258 426.828 152.089 336.743 153.465 221.790 423.552 183.518 126.459 630.783 526.503 117.428 607.690 658.532 142.213 679.286 0.000 241.132 119.631 426.621 194.031 536.536 627.892 247.551 261.600 677.810 517.935 152.610 541.175 649.542 191.616 586.097 590.673 144.735 697.640 146.449
163.117 163.205 293.571 292.512 442.152 891.733 238.795 288.731 848.402 211.076 270.818 153.883 851.971 178.244 126.457 212.023 333.088 249.732 176.294 284.736 238.654 404.053 239.756 297.252 673.973 699.909 285.952 781.096 769.171 322.317 722.477 197.128 0.000 123.608 266.173 90.816 709.942 671.083 245.671 454.714 851.216 585.304 301.414 579.154 846.670 385.069 642.656 633.863 316.018 871.047 342.691
39.510 57.420 182.763 175.770 493.955 773.672 133.011 182.947 730.340 111.367 215.095 30.276 860.942 229.184 177.397 106.239 384.891 143.948 227.235 164.330 132.870 407.309 133.972 183.710 657.391 581.847 172.410 663.034 685.140 198.709 705.894 73.521 131.624 0.000 317.113 91.936 591.880 654.500 139.887 331.106 733.154 544.542 189.887 566.966 723.063 261.462 612.705 617.281 202.328 752.985 219.083
345.631 345.719 476.085 474.305 403.993 1074.247 421.309 471.245 1030.916 367.784 452.612 336.397 808.633 93.918 178.930 394.537 294.929 432.246 97.053 466.529 421.168 365.895 422.270 479.766 635.815 882.423 468.466 963.610 731.012 504.831 684.318 379.642 226.578 306.122 0.000 273.330 892.456 632.924 428.185 637.228 1033.730 547.146 483.928 540.996 1004.727 567.583 604.497 595.705 498.532 1053.561 525.205
119.916 141.073 263.169 231.923 440.053 854.078 216.664 266.599 810.747 194.372 213.402 110.682 835.267 184.886 133.099 189.892 330.989 225.932 182.937 224.147 216.522 401.954 217.624 264.117 660.092 662.254 252.817 743.441 737.338 279.116 708.595 153.927 78.208 101.476 272.815 0.000 672.287 657.201 223.539 398.449 813.561 571.423 270.293 565.273 786.392 328.466 628.774 619.982 282.734 833.391 299.489
569.168 577.650 470.644 671.610 1018.375 382.366 505.839 612.088 339.035 659.760 734.107 578.343 1409.335 809.184 757.397 539.342 924.922 493.367 807.235 660.170 568.258 926.322 525.359 506.941 1118.977 142.969 502.621 224.157 1146.726 588.168 1167.480 551.707 711.624 590.123 897.113 664.523 0.000 1116.086 595.014 720.564 341.849 1006.128 469.667 1029.368 1137.736 679.810 1074.291 1078.867 563.735 361.680 608.542
668.733 702.539 739.759 518.713 479.755 1293.396 755.072 828.065 1250.065 756.485 538.313 659.499 1264.500 577.803 617.018 740.327 390.979 727.158 580.937 524.174 777.988 319.859 758.587 701.528 50.348 1101.572 692.497 1182.759 184.571 605.779 186.316 637.520 654.096 657.085 634.970 662.657 1111.605 0.000 785.005 638.373 1252.879 112.499 727.679 245.427 467.685 555.794 60.352 33.417 656.438 1272.709 626.153
170.026 138.018 133.531 306.286 624.471 746.617 90.315 70.939 703.285 123.573 345.611 160.792 873.148 333.670 281.883 117.956 515.407 120.072 331.721 294.847 18.599 537.825 74.729 165.155 787.907 554.793 161.206 635.980 815.656 249.488 836.410 204.037 236.110 130.516 421.599 218.471 564.826 785.016 0.000 385.079 706.100 675.059 131.652 697.482 829.013 371.087 743.221 747.797 207.641 725.930 271.552
308.823 317.305 307.503 255.828 632.439 873.890 322.816 404.915 830.558 429.179 297.293 311.327 1178.754 548.156 496.369 308.071 543.662 294.902 546.206 263.035 364.603 520.566 326.331 249.463 655.897 682.065 260.241 763.252 683.646 160.785 704.401 284.053 433.405 329.778 636.085 389.683 692.099 653.006 391.358 0.000 833.373 543.049 273.607 566.289 643.890 221.863 611.211 615.787 192.594 853.203 188.647
771.156 779.638 672.632 873.598 1220.363 129.195 707.827 814.076 102.455 861.748 936.096 780.331 1611.323 1011.172 959.385 741.331 1126.911 695.355 1009.223 862.159 770.247 1128.310 727.347 708.930 1320.965 343.701 704.610 424.888 1348.714 790.156 1369.468 753.695 913.612 792.111 1099.101 866.511 410.076 1318.074 797.002 922.553 0.000 1208.117 671.655 1231.357 1339.724 881.798 1276.279 1280.855 765.723 108.090 810.530
557.967 591.772 628.993 407.947 374.521 1182.630 644.305 717.299 1139.298 645.719 429.038 548.732 1159.265 472.568 511.783 629.561 285.744 616.391 475.702 413.408 667.221 214.624 647.821 590.762 117.024 990.805 581.730 1071.992 211.620 495.013 164.862 526.753 548.861 546.319 529.736 557.422 1000.839 114.133 674.239 527.606 1142.113 0.000 616.912 132.928 494.733 445.028 85.706 76.914 545.671 1161.943 515.386
171.398 148.333 40.905 271.408 618.173 633.732 76.101 152.714 590.401 209.407 333.905 178.778 958.982 384.539 332.752 109.604 524.720 63.628 382.590 259.968 117.905 526.120 95.621 52.463 718.775 441.908 61.780 523.095 746.524 136.795 767.278 151.505 286.979 181.385 472.468 266.753 451.941 715.884 144.660 272.387 593.215 605.926 0.000 629.166 734.188 279.608 674.089 678.665 94.948 613.046 158.859
579.556 613.362 650.582 429.536 387.700 1204.219 665.895 738.888 1160.888 667.309 449.786 570.322 1175.972 489.275 528.490 651.151 302.451 637.981 492.409 434.998 688.811 231.331 669.410 612.352 249.952 1012.395 603.320 1093.582 314.460 516.602 261.837 548.343 565.568 567.908 546.443 574.129 1022.428 247.061 695.829 549.196 1163.702 132.928 638.502 0.000 597.574 466.618 218.634 209.842 567.261 1183.533 536.976
700.451 726.778 743.674 631.138 833.576 1297.311 758.986 844.603 1253.979 810.112 672.603 691.217 1559.687 928.046 876.259 744.242 744.800 731.073 926.097 638.345 800.773 677.318 762.502 697.677 441.612 1105.486 696.411 1186.674 366.539 599.190 587.877 663.944 813.295 710.711 988.791 769.574 1115.520 445.727 827.528 619.915 1256.794 478.769 721.822 595.836 0.000 555.886 417.991 436.412 644.051 1276.624 619.564
253.807 280.134 297.030 144.959 532.502 850.667 312.342 397.959 807.335 363.468 186.424 244.573 1113.043 481.402 429.615 297.598 443.725 284.428 479.453 152.166 354.129 420.630 315.858 258.799 555.961 658.842 249.767 740.029 583.710 190.085 604.464 217.300 366.651 264.067 569.331 322.930 668.876 553.070 380.884 211.241 810.150 443.112 284.949 466.352 577.399 0.000 511.275 515.851 235.377 829.980 210.459
626.171 659.977 697.197 476.151 437.839 1250.834 712.509 785.503 1207.502 713.923 496.397 616.937 1222.584 535.887 575.102 697.765 349.063 684.596 539.021 481.612 735.426 277.943 716.025 658.966 68.336 1059.010 649.934 1140.197 139.538 563.217 179.691 594.958 612.180 614.523 593.054 620.741 1069.043 65.445 742.443 595.810 1210.317 70.583 685.116 203.511 422.652 513.232 0.000 28.226 613.875 1230.147 583.590
638.265 672.071 709.291 488.245 449.288 1262.928 724.604 797.597 1219.597 726.018 507.846 629.031 1234.032 547.335 586.550 709.860 360.511 696.690 550.469 493.707 747.520 289.391 728.119 671.061 40.110 1071.104 662.029 1152.291 156.399 575.311 152.899 607.052 623.628 626.617 604.503 632.189 1081.137 37.219 754.537 607.905 1222.411 82.031 697.211 214.959 439.513 525.326 29.884 0.000 625.970 1242.241 595.685
190.963 167.904 128.607 251.956 637.738 694.993 143.920 226.019 651.662 277.208 318.571 198.343 1026.783 404.110 352.323 129.175 544.285 116.006 402.161 240.516 185.707 527.372 147.435 70.567 662.703 503.169 81.345 584.356 690.451 59.005 711.206 171.070 306.550 200.957 492.039 286.318 513.202 659.812 212.462 194.596 654.476 549.854 94.711 573.094 667.284 243.141 618.017 622.593 0.000 674.307 81.068
738.309 746.791 639.784 840.751 1187.516 146.495 674.980 781.229 28.739 828.901 903.248 747.484 1578.476 978.325 926.538 708.483 1094.063 662.507 976.375 829.311 737.399 1095.462 694.500 676.082 1288.118 310.854 671.762 392.041 1315.866 757.309 1336.621 720.847 880.765 759.264 1066.254 833.663 377.229 1285.227 764.154 889.705 108.493 1175.269 638.807 1198.509 1306.876 848.950 1243.431 1248.008 732.875 0.000 777.682
187.455 204.552 193.733 228.960 609.921 760.119 209.045 291.144 716.788 307.811 289.248 186.572 1057.386 427.471 375.684 194.301 521.144 181.131 425.522 217.520 250.832 498.048 212.560 135.692 633.379 568.295 146.470 649.482 661.128 37.150 681.883 165.184 329.911 208.410 515.400 282.810 578.328 630.488 277.587 196.936 719.602 520.531 159.837 543.771 638.840 213.818 588.693 593.269 78.823 739.432 0.000
NODE_COORD_SECTION
1 27567.380647 -311.862562
2 27443.153503 198.501384
3 29194.524315 615.108414
4 27016.614788 -3298.735731
5 20153.498359 -4712.093979
6 36792.916186 10358.908771
7 28801.944746 667.602397
8 28243.596457 1635.927498
9 38367.228602 9256.426147
10 26633.842747 1818.864431
11 25953.591451 -3692.035034
12 27343.250560 -307.104312
13 15961.901141 13455.540048
14 21723.849186 -488.686418
15 23468.702881 -176.727762
16 28186.067540 321.248818
17 21978.666303 -4642.509811
18 29002.944747 337.869916
19 21934.281840 -489.982384
20 27013.995501 -3117.893236
21 28043.763183 1677.377682
22 22242.849753 -7023.118427
23 28560.084004 893.141950
24 29638.440600 -215.111101
25 22837.315674 -13447.502388
26 38642.248746 3417.829940
27 29070.868021 -129.171645
28 38587.437261 2309.552161
29 24601.518827 -13155.176432
30 29676.324229 -2207.819183
31 21121.054520 -12214.376386
32 27739.749211 -1308.677174
33 24745.340040 -366.474471
34 26999.771572 -86.539905
35 20939.392912 7.051344
36 25566.262359 -479.588873
37 37076.151115 4042.052529
38 22907.030945 -13216.027499
39 27980.109649 1595.914068
40 30578.788136 -3836.144458
41 37438.038037 9502.350802
42 22659.557167 -11123.662188
43 29744.342570 373.012583
44 21873.178522 -9919.458678
45 28837.186312 -15834.650504
46 28185.702723 -4473.192705
47 23263.749201 -12559.464442
48 22818.167135 -12819.760602
49 29859.285812 -1277.904008
50 38553.302338 9411.512487
51 29560.604201 -2113.769234
DEMAND_SECTION
1 0
2 1
3 2
4 6
5 5
6 10
7 3
8 10
9 79
10 9
11 3
12 8
13 10
14 10
15 91
16 5
17 9
18 8
19 9
20 9
21 10
22 3
23 9
24 6
25 10
26 10
27 1
28 4
29 5
30 99
31 8
32 10
33 6
34 3
35 5
36 5
37 3
38 8
39 9
40 8
41 10
42 7
43 7
44 10
45 2
46 9
47 10
48 8
49 99
50 9
51 2
DEPOT_SECTION
1
-1
EOF
