NAME : poryos-tokyo-n100-poi
COMMENT : Poryos2026 euclidean metric; city tokyo; 3-decimal seconds/meters; ENU ref in poryos-tokyo-n100-poi.vrp.json
TYPE : CVRP
DIMENSION : 101
EDGE_WEIGHT_TYPE : EXPLICIT
EDGE_WEIGHT_FORMAT : FULL_MATRIX
CAPACITY : 177
EDGE_WEIGHT_SECTION
0.000 3393.090 14245.975 1168.290 14484.028 3486.701 3956.612 6905.885 8167.736 3699.956 1836.060 3899.761 6740.369 8441.333 5148.199 4524.987 5518.386 10446.961 4100.291 5094.110 4334.851 3233.696 11347.949 3888.522 7650.255 9398.973 7791.518 9452.040 6595.989 5663.361 3267.287 9616.441 9541.097 11645.666 4370.053 12557.668 3815.339 10159.214 5366.335 8617.225 1781.120 5239.490 5546.993 6167.386 6739.707 3411.994 14608.990 1865.648 3855.530 3927.298 3912.729 9786.772 6874.385 4865.731 9943.644 2078.785 2185.860 1426.123 2326.508 8274.250 7843.164 1695.606 3964.475 2281.773 9514.620 4310.987 3580.758 11943.413 2362.464 2149.500 4819.196 4242.580 14321.693 5167.907 14727.815 2774.703 3748.856 3138.702 2591.957 1223.422 4734.041 4330.932 754.722 3493.236 1241.990 13354.595 3807.923 8383.024 10382.492 6758.426 2081.087 3958.709 6582.771 7536.893 2423.775 8373.357 3790.876 4318.232 2912.650 4004.564 3289.655
3393.090 0.000 17273.408 2953.940 13673.950 6764.724 569.163 9297.310 11214.561 4382.952 5224.419 4335.142 10132.137 5123.491 6373.958 5483.447 4001.590 7649.933 6784.187 4273.264 5496.612 5487.564 14596.362 693.778 7670.049 6862.633 7404.010 9559.159 9911.392 4233.061 5460.824 6278.570 9701.385 11745.834 1333.885 13137.639 457.426 6948.887 8594.910 9236.543 5173.510 3487.788 7896.853 6760.712 10131.068 4024.513 17532.115 5240.047 2069.867 682.471 7232.294 10182.046 6640.542 6417.396 9206.433 3650.205 3679.000 3055.058 5467.099 4990.937 8471.748 2973.549 7283.827 1578.449 12894.534 6979.635 6770.610 15032.912 5474.997 3760.977 4428.467 3494.143 17263.697 3583.320 17785.634 6154.844 371.456 6364.284 5920.504 3763.113 8127.027 4142.852 3617.239 6868.595 3724.805 16448.900 2273.284 5042.697 8858.083 10150.191 3589.676 994.729 7361.469 4639.847 5596.908 6259.581 741.622 6081.108 6290.506 2313.199 111.728
14245.975 17273.408 0.000 15281.595 18594.566 12339.959 17822.630 15195.877 12483.360 13697.856 12783.057 13942.594 9222.588 22352.333 12136.440 17155.964 16482.745 24692.042 10511.458 18942.384 16834.829 15040.608 3739.791 17493.706 20199.644 20218.806 14931.715 21426.770 10643.828 16398.533 11933.205 23461.876 21413.977 14432.820 17681.247 13066.518 17730.833 22579.738 11786.269 12527.211 12766.093 16713.531 15064.705 12964.704 9249.935 13924.635 15191.348 12870.003 18098.354 17560.743 11871.976 21217.975 19900.143 11707.673 22921.341 13692.002 13688.550 15443.560 13413.111 22247.994 19493.603 15718.028 10431.995 15724.571 8556.888 10326.277 12688.007 12732.703 13471.849 13589.763 18486.648 15362.965 14902.342 16482.576 592.928 12153.671 17642.462 12749.185 12613.112 13531.615 10439.445 18008.914 14503.115 11692.962 14798.619 13158.420 16173.010 22242.924 18435.519 9212.168 13757.308 18069.454 18488.005 21756.228 13275.714 18680.214 17859.560 11718.173 12076.054 16345.989 17161.773
1168.290 2953.940 15281.595 0.000 15230.831 3875.516 3465.143 6540.711 8263.852 4596.296 2578.496 4748.628 7387.946 7726.035 6209.543 3536.204 5920.836 9449.064 5259.902 3926.898 3392.769 2704.275 12274.269 3578.010 6557.533 9523.969 8577.867 8389.829 7017.410 6099.196 4418.424 8911.824 8488.082 12583.999 4159.386 13588.504 3299.574 9899.380 5662.908 9627.635 2567.643 5553.190 5139.560 7136.736 7382.732 4269.610 14611.688 2538.088 2852.180 3594.881 4368.308 8777.323 5743.439 5970.387 8792.586 3050.466 3149.780 288.757 2543.986 7528.475 6858.996 531.677 4894.054 2407.883 10076.402 5470.456 3840.176 12081.001 2543.491 3140.912 3654.721 4795.168 14338.256 5531.237 15750.365 3422.436 3257.277 3453.437 3099.699 2341.144 5428.825 3168.964 801.178 4099.209 771.071 13497.116 4072.560 7694.537 10891.998 7405.817 3035.276 3250.287 5610.533 6608.570 2681.609 8654.829 3139.338 5440.704 3545.730 4242.225 2871.274
14484.028 13673.950 18594.566 15230.831 0.000 16993.397 13702.950 21227.977 21479.058 10817.262 15365.327 10591.613 18155.586 15301.202 10041.290 18707.966 9672.919 19049.725 12926.844 17947.045 18603.996 17716.996 18605.793 13108.894 21315.896 8723.878 6696.355 23211.144 19088.257 9443.639 12188.952 15616.782 23346.088 4214.188 12574.833 5650.924 13815.114 11844.088 18578.252 7032.859 15252.550 10189.562 19946.138 8682.893 18179.510 11077.949 27683.210 15515.451 15741.037 13167.016 17114.752 23778.856 20305.229 10607.315 22806.665 12443.452 12335.151 15504.518 16449.019 15494.531 21960.568 15643.595 15291.121 13013.255 20555.375 12878.601 17317.995 24691.654 16515.077 12395.201 18067.789 10485.729 27360.363 10092.159 19170.671 15971.871 13747.123 16898.345 16190.971 13420.562 16775.068 17726.542 15229.601 16447.773 15687.689 25948.631 11494.653 15067.252 5201.715 18167.868 12428.660 14500.109 20755.980 16717.473 16473.422 8093.872 14292.819 11162.523 16076.002 11403.090 13645.722
3486.701 6764.724 12339.959 3875.516 16993.397 0.000 7304.134 4436.270 4771.646 6369.526 1792.607 6653.182 3626.935 11584.575 6998.586 4816.051 8800.352 12974.446 4459.933 6778.565 4495.304 2701.927 8966.758 7325.580 7923.365 12818.265 10389.311 9340.196 3148.056 8909.849 4813.750 12770.892 9361.978 13618.704 7840.388 14069.211 7145.550 13633.994 1884.811 10410.333 1893.681 8597.819 3455.884 8319.881 3615.990 6213.143 11234.681 1691.756 6562.031 7356.393 521.871 9327.449 7562.557 6483.297 10613.527 4898.628 4994.407 3876.396 1347.389 11375.878 7435.950 4079.488 2423.974 5767.410 6215.212 4602.841 426.742 8489.335 1366.293 4899.408 6262.696 7431.522 10937.190 8492.511 12736.998 1021.539 7094.171 453.506 918.916 3946.618 1904.359 5814.293 3149.099 775.876 3134.746 9894.291 7230.350 11560.866 13426.491 3644.051 4940.554 7125.032 6298.969 10307.692 1202.122 11700.313 7013.339 5895.046 921.984 7433.785 6670.757
3956.612 569.163 17822.630 3465.143 13702.950 7304.134 0.000 9701.917 11707.503 4793.611 5784.957 4718.375 10693.064 4558.894 6788.824 5754.291 4066.718 7175.877 7324.462 4299.705 5795.773 5923.419 15162.500 613.596 7734.547 6588.017 7572.718 9609.066 10452.078 4304.929 5979.745 5711.020 9758.482 11940.804 1147.778 13396.546 176.141 6471.648 9122.457 9532.441 5735.775 3529.476 8307.885 7090.279 10691.686 4443.711 17994.012 5797.407 2099.126 545.255 7777.099 10272.709 6684.243 6866.195 9113.865 4171.646 4194.114 3543.282 5995.915 4431.897 8622.648 3436.229 7852.990 2104.666 13449.590 7517.840 7298.006 15526.901 6000.853 4280.723 4528.514 3750.624 17729.203 3659.171 18337.268 6712.460 210.104 6897.930 6469.330 4324.670 8689.543 4296.812 4155.051 7424.489 4235.352 16942.279 2498.364 4475.385 8791.810 10711.115 4109.539 797.751 7555.666 4169.724 6128.277 6103.108 614.455 6555.709 6847.457 2492.149 678.444
6905.885 9297.310 15195.877 6540.711 21227.977 4436.270 9701.917 0.000 3312.396 10433.327 5877.616 10681.593 6038.107 13051.459 11349.501 4435.914 12391.806 13181.995 8895.445 6981.565 4226.941 3842.484 11496.106 9978.778 5959.617 16056.311 14549.192 6570.177 4556.953 12550.016 9155.238 14172.494 6508.835 18004.755 10601.620 18504.390 9525.777 16124.294 3657.852 14810.163 5990.172 12064.180 1404.793 12621.446 6007.775 10204.949 8508.626 5722.854 8091.691 9977.595 4528.315 6157.514 6241.687 10865.433 8572.879 8830.308 8937.011 6346.521 4779.571 12771.241 4749.987 6358.291 6734.978 8935.715 7161.653 9035.007 4042.233 6571.971 4714.607 8865.564 6386.122 11147.669 8281.499 12021.046 15472.117 5408.826 9516.361 4407.214 5098.663 7838.665 5617.726 6195.200 6225.497 5150.265 5862.740 7892.709 10589.754 13107.439 17288.370 6045.613 8854.010 9190.986 4220.989 11208.269 4755.421 15184.981 9198.880 10270.143 5335.895 10767.951 9240.338
8167.736 11214.561 12483.360 8263.852 21479.058 4771.646 11707.503 3312.396 0.000 11088.270 6564.084 11381.380 3977.594 15592.015 11442.990 7295.493 13570.552 16182.500 8576.182 9835.300 7020.379 5927.601 8743.887 11839.985 9254.663 17559.658 15004.624 9854.361 2561.221 13681.432 9348.351 16756.629 9782.594 17844.060 12406.924 17966.338 11536.740 18162.789 2953.362 14638.247 6665.245 13357.231 4076.852 12816.367 3944.746 10956.755 6463.379 6458.303 10480.856 11858.350 4491.802 9375.285 9458.411 10871.778 11885.082 9664.170 9757.980 8164.732 5848.631 15338.949 8060.558 8280.154 6200.665 10433.424 4054.731 8647.821 4596.880 3819.406 5821.107 9660.309 9234.913 12203.081 6167.550 13257.963 12687.520 5730.269 11503.284 5047.711 5686.508 8718.218 4731.650 8942.846 7680.964 5126.021 7495.531 5234.877 11964.596 15613.089 18162.796 3975.683 9707.759 11361.816 7491.189 13948.382 5744.638 16468.577 11307.237 10322.258 5601.921 12164.770 11134.249
3699.956 4382.952 13697.856 4596.296 10817.262 6369.526 4793.611 10433.327 11088.270 0.000 4633.021 312.437 8525.094 8950.975 1995.251 8131.338 2966.460 11950.588 3517.533 8067.352 7975.416 6916.940 11606.179 4275.090 11089.509 7095.265 4122.793 12951.531 8988.501 2965.326 2075.347 9969.295 13057.881 7987.703 4234.273 9060.788 4780.837 8950.027 8135.684 5089.741 4522.065 3069.919 9132.444 2567.920 8538.296 367.417 17517.946 4771.316 6135.663 4352.741 6597.625 13369.833 10199.053 2130.872 13114.725 1630.285 1521.893 4883.945 5658.522 8913.330 11455.277 5079.110 5304.506 2953.510 11311.056 3636.368 6639.782 14655.530 5721.044 1578.056 7980.092 1678.993 17210.484 2857.057 14251.973 5370.083 4683.218 6198.339 5498.245 2603.720 6694.056 7542.673 4454.067 5965.721 4932.350 16021.610 2567.685 8803.201 7075.451 8541.551 1621.002 5371.737 10205.457 8954.997 5695.645 5722.744 5118.932 1983.044 5493.330 2710.970 4289.907
1836.060 5224.419 12783.057 2578.496 15365.327 1792.607 5784.957 5877.616 6564.084 4633.021 0.000 4905.926 4908.108 10229.357 5490.546 4837.935 7007.981 12014.662 3417.297 6187.571 4560.093 2908.157 9702.751 5723.337 8093.074 11039.617 8709.903 9734.701 4798.397 7117.349 3306.852 11410.153 9790.537 12153.827 6192.102 12780.468 5639.599 11969.743 3660.475 8982.747 112.796 6811.274 4667.466 6744.328 4906.797 4452.710 13027.250 163.981 5428.546 5762.892 2141.611 9894.905 7510.263 5037.800 10632.731 3116.741 3215.040 2693.748 1167.395 10049.126 7937.349 2958.013 2352.275 4066.985 7678.769 3606.692 2014.180 10271.012 1245.004 3123.966 5775.114 5639.585 12729.772 6702.474 13235.962 943.228 5576.182 1567.403 880.711 2154.858 2907.287 5284.439 1777.329 1662.901 2017.042 11671.834 5462.786 10180.829 11659.577 4926.159 3156.186 5733.560 6701.164 9186.903 1145.943 9908.570 5583.960 4440.185 1082.863 5668.074 5122.269
3899.761 4335.142 13942.594 4748.628 10591.613 6653.182 4718.375 10681.593 11381.380 312.437 4905.926 0.000 8837.235 8788.587 2099.611 8284.235 2668.624 11848.948 3817.260 8128.226 8137.851 7128.357 11890.712 4179.046 11200.908 6788.134 3895.537 13070.979 9294.214 2660.513 2384.099 9789.518 13180.787 7848.468 4094.277 8983.214 4716.881 8680.140 8429.725 5018.560 4795.679 2794.894 9370.444 2494.399 8850.388 487.780 17815.640 5041.332 6151.026 4257.180 6889.808 13507.821 10294.254 2311.160 13179.848 1855.563 1747.774 5034.380 5913.193 8760.749 11603.348 5218.134 5616.302 2969.180 11623.489 3931.604 6916.516 14958.353 5974.149 1816.044 8063.480 1420.420 17508.809 2576.375 14499.539 5658.394 4619.787 6472.871 5775.495 2843.463 7002.941 7635.335 4650.839 6261.609 5121.609 16326.186 2405.203 8635.349 6781.453 8853.704 1837.940 5328.849 10358.330 8863.124 5954.728 5411.085 5075.525 2225.318 5783.044 2532.277 4246.767
6740.369 10132.137 9222.588 7387.946 18155.586 3626.935 10693.064 6038.107 3977.594 8525.094 4908.108 8837.235 0.000 15108.381 8314.025 8224.160 11368.645 16601.201 5344.613 10370.672 7899.649 6191.624 5608.963 10616.670 11080.046 15522.657 12003.456 12217.787 1532.741 11419.746 6509.256 16292.790 12199.749 14303.738 11056.299 14219.290 10547.292 16786.654 2576.336 11161.110 4959.249 11299.640 5845.935 9691.832 33.105 8508.230 9562.485 4900.639 10159.150 10659.289 3105.079 11995.461 10900.018 7708.082 13818.458 7462.025 7528.160 7432.309 4949.307 14915.608 10287.218 7657.226 3223.872 8905.165 2827.837 5346.902 3845.533 6551.164 4979.071 7415.070 9834.460 9967.445 9236.087 11143.320 9541.983 3987.342 10484.263 4080.440 4290.189 6723.309 2010.891 9403.311 6608.467 3290.145 6691.756 7793.735 10117.144 15068.954 15434.395 18.057 7521.669 10616.234 9328.887 13918.544 4800.263 14226.025 10478.325 7244.182 3855.982 10325.060 10029.509
8441.333 5123.491 22352.333 7726.035 15301.202 11584.575 4558.894 13051.459 15592.015 8950.975 10229.357 8788.587 15108.381 0.000 10876.047 8636.886 6996.313 3748.598 11841.283 6198.512 8826.076 9666.545 19719.460 4859.128 9039.959 6680.425 10463.676 10565.163 14700.723 7205.588 10445.247 1186.334 10750.780 14703.255 4732.947 16485.895 4671.563 4343.041 13293.007 12965.166 10193.590 6511.170 11764.440 10805.258 15104.043 8646.972 21557.161 10219.164 5119.546 4791.652 12086.916 11457.404 8034.139 11081.824 9050.895 8662.688 8670.472 7708.190 10238.927 323.400 10397.911 7512.082 12386.198 6634.422 17797.564 12028.532 11501.367 19364.799 10226.756 8766.578 6752.740 7490.662 21323.206 6743.613 22873.854 11126.113 4752.285 11148.923 10824.898 8883.198 13129.536 6868.702 8499.924 11818.313 8450.313 20760.417 6385.918 235.540 10102.947 15126.317 8597.860 4496.052 9740.494 2200.006 10382.744 7245.815 4650.879 10871.717 11254.831 6257.671 5234.562
5148.199 6373.958 12136.440 6209.543 10041.290 6998.586 6788.824 11349.501 11442.990 1995.251 5490.546 2099.611 8314.025 10876.047 0.000 9673.006 4364.769 13940.892 2970.707 9905.749 9477.004 8177.351 10434.694 6266.011 12767.070 8160.332 3693.332 14591.238 9097.112 4267.102 2194.729 11858.480 14684.097 6663.291 6193.634 7414.811 6775.480 10458.176 8537.158 3512.339 5379.620 4652.039 10157.421 1385.381 8333.961 2349.604 17717.159 5650.770 8067.183 6343.877 7085.805 14934.279 11934.222 608.649 14924.194 3179.057 3088.942 6495.976 6639.430 10854.518 12987.296 6727.691 5279.947 4907.007 10943.623 2972.283 7348.642 14758.407 6713.135 3079.854 9762.896 3413.062 17398.401 4412.374 12708.099 5982.267 6677.822 6951.768 6252.635 3928.094 6765.533 9303.140 5878.734 6417.060 6375.397 16064.629 4501.167 10718.346 7215.671 8328.289 3205.690 7359.559 11725.747 10948.405 6634.266 6653.242 7107.296 1121.323 6076.642 4619.415 6279.276
4524.987 5483.447 17155.964 3536.204 18707.966 4816.051 5754.291 4435.914 7295.493 8131.338 4837.935 8284.235 8224.160 8636.886 9673.006 0.000 9203.070 8887.432 8206.116 2561.993 324.838 2118.837 13743.301 6172.565 3255.445 12333.912 12090.764 4958.813 7215.557 9406.410 7713.278 9745.046 5035.944 16118.575 6812.682 17081.791 5584.910 11944.144 5767.058 13134.866 4908.989 8763.107 3246.426 10661.231 8205.382 7805.800 12941.445 4694.707 3852.745 6149.119 5289.971 5262.058 2751.204 9373.848 5842.206 6562.310 6665.069 3249.877 3869.725 8350.682 3326.277 3077.221 6956.182 5712.073 10370.759 8405.256 4476.085 10915.184 3798.327 6645.572 1961.178 8225.509 12716.960 8790.878 17550.208 5145.460 5603.092 4413.979 4663.962 5745.589 6717.647 1768.188 3800.458 5488.225 3304.750 12275.326 7318.744 8703.156 14187.266 8239.185 6552.834 5101.867 2074.335 6773.762 3985.934 11718.969 5174.996 8810.443 5189.855 7451.513 5459.973
5518.386 4001.590 16482.745 5920.836 9672.919 8800.352 4066.718 12391.806 13570.552 2966.460 7007.981 2668.624 11368.645 6996.313 4364.769 9203.070 0.000 10468.889 6483.943 8274.246 9144.999 8601.156 14549.248 3459.649 11652.389 4159.572 3606.503 13545.956 11676.562 240.537 5032.160 7826.407 13684.056 7981.540 2985.092 9598.496 4164.782 6097.861 10660.703 5969.414 6908.761 549.515 11008.384 3910.807 11379.183 2891.167 20033.896 7112.339 6070.279 3522.946 9122.996 14138.839 10634.452 4776.328 13176.795 3958.340 3877.518 6160.561 7812.969 7051.352 12366.784 6236.762 8150.454 3529.684 14182.064 6600.216 8987.595 17264.906 7857.686 3986.070 8403.832 1403.415 19737.353 420.351 17049.508 7877.995 4091.275 8534.335 7884.097 4858.670 9458.230 8079.591 6167.681 8548.449 6538.577 18657.386 1884.622 6803.131 4990.077 11385.678 3906.191 4856.728 11199.023 7664.210 7891.574 2903.492 4638.242 4834.388 8013.699 1757.630 3972.876
10446.961 7649.933 24692.042 9449.064 19049.725 12974.446 7175.877 13181.995 16182.500 11950.588 12014.662 11848.948 16601.201 3748.598 13940.892 8887.432 10468.889 0.000 14336.936 6375.683 9168.522 10552.330 21717.319 7675.544 7889.801 10405.715 14033.252 8878.988 15873.217 10694.443 13087.324 3654.208 9068.208 18341.692 7793.686 20056.148 7213.903 7772.005 14406.076 16397.529 12011.868 9946.097 12118.885 14092.858 16589.876 11608.373 21525.506 11956.552 6603.463 7597.855 13496.312 9839.376 7150.992 14040.658 6803.798 11281.479 11317.868 9321.156 11669.063 3568.941 9399.773 9060.841 14343.095 9220.357 19056.714 14540.372 12775.621 19746.596 11632.872 11393.977 6967.901 10703.814 21335.420 10161.395 25174.641 12790.128 7310.881 12520.958 12394.342 11222.055 14756.051 7315.830 10245.166 13402.179 10022.527 21074.287 9488.898 3982.480 13851.452 16618.262 11223.437 6729.847 9190.711 3010.115 11818.181 10988.720 6965.643 13727.682 12898.207 9408.676 7755.487
4100.291 6784.187 10511.458 5259.902 12926.844 4459.933 7324.462 8895.445 8576.182 3517.533 3417.297 3817.260 5344.613 11841.283 2970.707 8206.116 6483.943 14336.936 0.000 9182.928 7943.711 6325.337 8133.014 6982.357 11455.192 10596.424 6658.913 13137.366 6162.371 6476.484 1486.628 12951.770 13197.821 9289.309 7183.008 9617.946 7240.701 12406.189 5743.800 6074.097 3330.109 6563.451 7863.673 4352.322 5364.223 3634.660 14771.962 3575.236 7856.782 7049.637 4414.426 13312.049 10799.972 2367.065 13913.818 3181.140 3180.946 5496.259 4545.667 11740.577 11353.811 5775.057 2375.689 5220.969 8008.725 210.702 4863.132 11800.411 4625.117 3080.098 8871.333 5163.017 14451.358 6360.939 11036.624 3527.166 7150.069 4546.041 3923.678 3123.730 3851.974 8376.921 4614.684 3760.709 5054.441 13097.978 5752.930 11731.552 10122.868 5359.025 3246.699 7627.383 10114.209 11350.977 4485.240 9182.783 7404.529 1908.792 3579.344 5941.043 6673.070
5094.110 4273.264 18942.384 3926.898 17947.045 6778.565 4299.705 6981.565 9835.300 8067.352 6187.571 8128.226 10370.672 6198.512 9905.749 2561.993 8274.246 6375.683 9182.928 0.000 2817.899 4214.088 15712.518 4863.756 3441.631 10725.826 11596.458 5309.444 9536.060 8504.610 8305.330 7263.696 5459.864 15871.952 5447.461 17110.660 4166.642 9836.349 8067.829 13146.421 6218.798 7760.304 5806.224 10621.254 10356.219 7704.488 15471.781 6087.119 2212.073 4812.814 7293.856 5993.563 2384.805 9755.068 5052.084 6745.958 6828.293 3686.897 5560.834 5897.916 4470.832 3407.883 8521.835 5188.359 12719.226 9393.218 6525.719 13476.900 5509.784 6852.184 601.736 7631.939 15253.879 7855.370 19378.719 6794.462 4224.535 6332.010 6346.366 6218.628 8645.164 967.493 4591.789 7313.277 4207.477 14836.985 6490.928 6289.607 13090.372 10387.035 6712.196 3512.192 3601.981 4236.374 5704.733 10384.290 3689.240 9266.253 6879.445 6560.809 4302.180
4334.851 5496.612 16834.829 3392.769 18603.996 4495.304 5795.773 4226.941 7020.379 7975.416 4560.093 8137.851 7899.649 8826.076 9477.004 324.838 9144.999 9168.522 7943.711 2817.899 0.000 1801.891 13418.880 6189.131 3537.282 12357.851 11967.310 5200.744 6897.095 9343.797 7489.425 9945.670 5270.282 15958.011 6829.877 16890.351 5623.927 12052.849 5446.428 12951.905 4634.262 8717.106 2993.509 10490.742 7880.922 7656.282 12735.384 4414.092 3957.653 6169.641 4967.230 5462.201 3068.599 9163.692 6149.648 6390.385 6494.513 3110.847 3569.585 8544.605 3510.355 2960.401 6652.019 5634.444 10055.822 8141.195 4152.924 10665.679 3497.063 6470.307 2216.423 8131.386 12506.233 8736.010 17227.919 4841.363 5636.557 4096.052 4359.644 5549.455 6395.933 1971.972 3598.292 5172.380 3101.611 12032.893 7260.807 8885.442 14134.030 7914.692 6383.745 5171.441 2248.767 7001.419 3682.744 11704.809 5229.476 8595.045 4882.820 7400.424 5466.706
3233.696 5487.564 15040.608 2704.275 17716.996 2701.927 5923.419 3842.484 5927.601 6916.940 2908.157 7128.357 6191.624 9666.545 8177.351 2118.837 8601.156 10552.330 6325.337 4214.088 1801.891 0.000 11653.820 6159.705 5299.740 12213.849 11022.917 6856.188 5325.328 8770.548 6070.869 10834.674 6903.477 14791.485 6774.751 15566.294 5748.013 12388.080 3856.914 11688.648 2997.755 8250.188 2438.544 9313.146 6175.216 6641.025 12082.677 2750.303 4553.277 6162.937 3186.449 6987.849 4869.716 7794.101 7947.048 5286.873 5395.208 2504.078 1819.207 9416.974 5032.615 2524.116 4870.104 5109.059 8509.616 6513.657 2379.515 9719.716 1742.299 5344.986 3656.619 7412.151 11823.564 8219.424 15438.924 3063.991 5729.730 2295.182 2583.673 4338.525 4605.951 3250.995 2495.417 3370.505 2070.318 11125.487 6770.871 9685.665 13546.411 6207.436 5296.678 5487.948 3806.846 8094.960 1916.450 11358.508 5461.604 7205.103 3096.168 6943.846 5424.299
11347.949 14596.362 3739.791 12274.269 18605.793 8966.758 15162.500 11496.106 8743.887 11606.179 9702.751 11890.712 5608.963 19719.460 10434.694 13743.301 14549.248 21717.319 8133.014 15712.518 13418.880 11653.820 0.000 14922.657 16680.308 18563.057 13776.875 17819.348 6963.322 14513.479 9619.635 20872.497 17797.146 14402.214 15211.096 13510.019 15047.942 20536.742 8184.876 11850.848 9707.396 14674.317 11443.862 11546.443 5633.593 11756.867 11915.504 9762.137 15126.349 14982.015 8468.843 17567.336 16458.793 9897.097 19416.460 11217.398 11238.476 12396.168 10153.353 19577.463 15891.202 12657.681 7390.873 13124.557 4856.258 7988.558 9274.805 9248.802 10203.055 11129.092 15216.803 13276.277 11608.040 14463.234 3977.128 8952.889 14967.371 9400.993 9379.155 10845.813 7073.344 14756.575 11475.180 8399.455 11701.155 9859.793 13871.822 19637.468 17400.493 5596.671 11284.240 15288.966 14936.116 18869.545 10008.501 17077.653 15103.023 9729.616 8855.091 14064.053 14485.499
3888.522 693.778 17493.706 3578.010 13108.894 7325.580 613.596 9978.778 11839.985 4275.090 5723.337 4179.046 10616.670 4859.128 6266.011 6172.565 3459.649 7675.544 6982.357 4863.756 6189.131 6159.705 14922.657 0.000 8286.451 6169.294 6959.229 10168.453 10463.917 3697.055 5593.003 5975.703 10314.787 11328.118 640.755 12792.453 706.545 6329.170 9175.929 8939.751 5663.638 2925.956 8576.821 6513.168 10617.184 3934.869 18182.248 5753.032 2652.364 78.247 7779.055 10813.369 7244.475 6374.952 9717.489 3803.731 3813.140 3701.472 6052.645 4766.460 9129.206 3638.395 7682.072 1798.105 13401.804 7169.409 7355.132 15655.292 6065.579 3908.095 5059.466 3154.243 17911.220 3049.857 18016.682 6663.215 639.961 6938.239 6459.864 4082.622 8606.277 4797.199 4194.744 7381.670 4344.576 17071.438 1900.086 4750.608 8231.071 10634.719 3739.041 1397.087 8033.608 4684.161 6177.421 5590.279 1183.981 6095.581 6801.145 1883.591 739.055
7650.255 7670.049 20199.644 6557.533 21315.896 7923.365 7734.547 5959.617 9254.663 11089.509 8093.074 11200.908 11080.046 9039.959 12767.070 3255.445 11652.389 7889.801 11455.192 3441.631 3537.282 5299.740 16680.308 8286.451 0.000 14145.498 14855.307 1895.806 9869.018 11877.555 10897.065 9936.141 2031.876 19039.168 8881.338 20132.793 7596.549 13036.365 8517.361 16164.617 8164.434 11152.154 5382.637 13654.356 11057.057 10742.367 13815.039 7949.010 5637.448 8238.815 8356.036 2559.706 1073.421 12514.155 2739.342 9601.358 9697.934 6271.245 7100.056 8718.509 1512.759 6042.061 10169.826 8381.970 12874.576 11655.647 7544.253 12389.067 7026.116 9694.924 3248.737 10897.707 13653.043 11232.084 20565.046 8362.376 7650.066 7557.746 7881.202 8870.425 9790.324 3604.221 6966.077 8642.004 6480.768 13616.513 9823.410 9182.529 16517.506 11093.234 9582.172 6951.518 1790.884 6861.234 7208.219 13825.697 7121.640 11968.077 8395.860 9912.927 7687.805
9398.973 6862.633 20218.806 9523.969 8723.878 12818.265 6588.017 16056.311 17559.658 7095.265 11039.617 6788.134 15522.657 6680.425 8160.332 12333.912 4159.572 10405.715 10596.424 10725.826 12357.851 12213.849 18563.057 6169.294 14145.498 0.000 5608.224 15960.137 15780.351 4132.081 9170.417 6900.232 16124.431 8986.425 5528.760 11011.143 6753.887 3264.164 14698.298 8397.709 10947.245 4244.121 14651.994 7259.142 15532.673 7047.057 24007.785 11128.194 8625.667 6188.253 13177.586 16705.182 13073.409 8671.948 15022.146 8080.841 8007.140 9709.966 11725.374 6908.258 15159.403 9705.820 12307.761 7171.878 18339.317 10698.260 12963.307 21307.517 11759.857 8118.454 11047.410 5556.285 23719.645 4383.984 20799.877 11942.570 6731.795 12513.798 11899.775 8926.114 13596.671 10863.621 9951.108 12632.485 10238.034 22710.794 5595.083 6444.920 3630.671 15539.784 8024.739 7298.784 14131.793 8372.407 11821.429 1546.412 7185.296 8845.744 12080.956 5395.547 6897.645
7791.518 7404.010 14931.715 8577.867 6696.355 10389.311 7572.718 14549.192 15004.624 4122.793 8709.903 3895.537 12003.456 10463.676 3693.332 12090.764 3606.503 14033.252 6658.913 11596.458 11967.310 11022.917 13776.875 6959.229 14855.307 5608.224 0.000 16746.552 12734.303 3370.193 5657.843 11176.570 16869.276 4380.808 6554.104 6027.034 7646.243 8588.734 12063.101 2796.722 8597.491 4152.139 13254.952 2339.036 12022.927 4382.279 21350.334 8855.669 9448.110 7029.525 10556.873 17249.659 13888.766 4301.650 16600.252 5747.257 5638.987 8857.164 9770.269 10552.779 15383.495 9014.027 8920.787 6474.010 14632.949 6665.562 10691.602 18413.194 9834.637 5700.076 11635.031 3966.639 21034.524 3969.115 15522.043 9371.254 7562.823 10261.099 9554.485 6726.502 10397.663 11251.708 8539.648 9899.277 9003.239 19734.102 5132.167 10255.707 3626.080 12017.903 5732.307 8337.104 14156.289 11266.969 9800.727 4101.495 8101.306 4765.584 9483.746 5096.751 7351.731
9452.040 9559.159 21426.770 8389.829 23211.144 9340.196 9609.066 6570.177 9854.361 12951.531 9734.701 13070.979 12217.787 10565.163 14591.238 4958.813 13545.956 8878.988 13137.366 5309.444 5200.744 6856.188 17819.348 10168.453 1895.806 15960.137 16746.552 0.000 10885.890 13771.690 12669.308 11364.875 190.518 20915.367 10756.775 21977.973 9474.606 14695.601 9644.085 18014.387 9814.868 13043.719 6375.569 15511.886 12191.890 12608.068 13600.662 9583.000 7516.586 10119.242 9725.781 961.522 2924.869 14315.884 2385.156 11440.067 11538.693 8101.654 8675.279 10241.772 1933.616 7883.970 11682.182 10272.575 13713.911 13332.702 8935.833 12574.238 8598.090 11530.667 5143.412 12791.276 13479.717 13125.709 21758.832 9898.708 9530.501 9017.706 9424.172 10675.416 11138.423 5497.975 8745.555 10092.331 8252.833 13686.719 11719.138 10727.961 18398.417 12229.259 11423.688 8821.004 3056.483 8365.205 8768.609 15686.810 8997.954 13759.163 9915.173 11808.066 9578.805
6595.989 9911.392 10643.828 7017.410 19088.257 3148.056 10452.078 4556.953 2561.221 8988.501 4798.397 9294.214 1532.741 14700.723 9097.112 7215.557 11676.562 15873.217 6162.371 9536.060 6897.095 5325.328 6963.322 10463.917 9869.018 15780.351 12734.303 10885.890 0.000 11757.648 7099.401 15886.180 10855.590 15365.418 10965.071 15426.236 10293.606 16755.108 1468.466 12175.255 4878.122 11536.615 4523.978 10481.594 1500.218 8910.280 8620.690 4740.235 9630.125 10496.641 2685.405 10606.298 9791.557 8507.522 12604.400 7718.222 7799.986 7002.573 4474.977 14483.077 8968.417 7189.218 3818.233 8860.674 3184.351 6211.252 3199.463 5685.522 4480.888 7692.756 8968.563 10277.971 8302.880 11406.419 10932.373 3863.546 10242.091 3564.170 4006.368 6856.215 2336.651 8575.502 6297.032 3155.722 6266.149 7035.590 10240.383 14684.556 16032.367 1536.467 7770.730 10262.671 8089.831 13329.079 4335.873 14574.448 10156.730 7986.848 3723.256 10447.295 9816.653
5663.361 4233.061 16398.533 6099.196 9443.639 8909.849 4304.929 12550.016 13681.432 2965.326 7117.349 2660.513 11419.746 7205.588 4267.102 9406.410 240.537 10694.443 6476.484 8504.610 9343.797 8770.548 14513.479 3697.055 11877.555 4132.081 3370.193 13771.690 11757.648 0.000 5039.459 8020.832 13908.982 7743.414 3225.508 9368.382 4401.693 6192.050 10763.032 5760.112 7016.534 789.810 11170.480 3748.864 11430.928 2919.680 20144.512 7225.451 6302.470 3760.823 9222.541 14359.721 10862.102 4700.389 13413.552 4043.714 3958.907 6343.018 7945.573 7265.710 12581.261 6425.780 8197.845 3718.784 14227.400 6586.220 9106.114 17361.727 7991.938 4065.188 8628.825 1482.776 19846.458 650.017 16967.596 7976.435 4327.532 8652.828 7995.672 4963.827 9523.895 8300.559 6324.519 8639.641 6704.436 18750.936 2089.230 7010.115 4797.927 11436.651 3994.008 5094.031 11408.992 7898.242 8020.918 2817.720 4874.435 4787.342 8111.100 1972.536 4202.548
3267.287 5460.824 11933.205 4418.424 12188.952 4813.750 5979.745 9155.238 9348.351 2075.347 3306.852 2384.099 6509.256 10445.247 2194.729 7713.278 5032.160 13087.324 1486.628 8305.330 7489.425 6070.869 9619.635 5593.003 10897.065 9170.417 5657.843 12669.308 7099.401 5039.459 0.000 11537.433 12749.123 8852.690 5748.899 9500.716 5911.682 10920.248 6413.039 5675.904 3197.186 5087.870 7973.450 3508.133 6524.453 2158.110 15702.112 3468.685 6747.941 5663.426 4927.506 12946.456 10140.577 1734.140 13209.138 1810.633 1785.899 4688.543 4465.223 10359.373 10986.965 4950.089 3318.319 3882.498 9268.027 1639.161 5157.037 12784.891 4540.463 1700.022 8070.181 3688.700 15388.108 4890.181 12468.055 3794.362 5817.792 4757.356 4057.917 2087.316 4768.271 7586.786 3931.116 4262.328 4419.303 14125.790 4275.272 10326.248 8950.161 6525.187 1871.350 6357.511 9726.637 10082.890 4452.674 7791.037 6122.639 1138.377 3892.891 4460.668 5351.723
9616.441 6278.570 23461.876 8911.824 15616.782 12770.892 5711.020 14172.494 16756.629 9969.295 11410.153 9789.518 16292.790 1186.334 11858.480 9745.046 7826.407 3654.208 12951.770 7263.696 9945.670 10834.674 20872.497 5975.703 9936.141 6900.232 11176.570 11364.875 15886.180 8020.832 11537.433 0.000 11553.308 15318.511 5795.010 17166.395 5830.567 4118.766 14476.681 13765.768 11373.196 7374.422 12901.765 11699.263 16288.590 9679.157 22681.049 11401.560 6294.790 5911.342 13273.229 12281.713 8965.483 12095.920 9685.821 9770.630 9773.347 8894.513 11425.184 1417.764 11339.620 8697.913 13553.941 7765.119 18983.879 13135.646 12686.752 20520.903 11412.884 9872.270 7833.431 8450.726 22451.059 7613.446 23988.347 12309.458 5908.473 12335.105 12010.358 10029.025 14311.981 7978.964 9684.499 13002.865 9636.647 21913.216 7402.799 1236.096 10456.830 16310.734 9705.116 5678.231 10752.126 3095.598 11569.042 7687.906 5828.224 11914.865 12438.561 7260.112 6388.941
9541.097 9701.385 21413.977 8488.082 23346.088 9361.978 9758.482 6508.835 9782.594 13057.881 9790.537 13180.787 12199.749 10750.780 14684.097 5035.944 13684.056 9068.208 13197.821 5459.864 5270.282 6903.477 17797.146 10314.787 2031.876 16124.431 16869.276 190.518 10855.590 13908.982 12749.123 11553.308 0.000 21027.196 10905.969 22076.436 9622.624 14875.530 9628.479 18115.010 9872.163 13184.013 6354.401 15615.877 12173.535 12716.045 13457.589 9637.691 7663.879 10266.303 9740.497 774.390 3075.334 14402.469 2548.307 11538.518 11637.770 8199.601 8721.559 10427.382 1933.277 7985.566 11714.852 10395.466 13660.976 13392.062 8954.877 12461.913 8643.986 11628.134 5280.238 12917.139 13339.544 13263.737 21741.705 9937.091 9677.505 9046.109 9464.241 10764.479 11148.235 5625.877 8829.803 10117.675 8335.921 13564.256 11852.450 10912.873 18545.623 12211.004 11523.060 8972.048 3097.468 8550.911 8812.403 15841.136 9146.609 13843.157 9950.929 11943.521 9719.574
11645.666 11745.834 14432.820 12583.999 4214.188 13618.704 11940.804 18004.755 17844.060 7987.703 12153.827 7848.468 14303.738 14703.255 6663.291 16118.575 7981.540 18341.692 9289.309 15871.952 15958.011 14791.485 14402.214 11328.118 19039.168 8986.425 4380.808 20915.367 15365.418 7743.414 8852.690 15318.511 21027.196 0.000 10934.352 2094.532 12008.062 12230.134 15032.309 3217.395 12042.910 8529.169 16820.603 5482.167 14329.953 8319.102 23866.222 12314.041 13764.689 11399.583 13656.646 21354.896 18110.647 7140.786 20906.623 9571.839 9466.504 12871.611 13301.050 14818.254 19442.968 13063.571 11657.707 10692.642 16561.584 9202.802 13984.617 20853.272 13374.241 9496.717 15864.034 8263.527 23539.755 8349.498 15014.157 12613.275 11922.487 13599.900 12906.129 10466.494 13112.989 15454.322 12398.088 12989.614 12887.453 22059.916 9474.075 14486.081 5606.922 14314.550 9575.934 12695.667 18192.394 15627.300 13297.416 7748.383 12455.925 7734.943 12699.075 9454.016 11687.236
4370.053 1333.885 17681.247 4159.386 12574.833 7840.388 1147.778 10601.620 12406.924 4234.273 6192.102 4094.277 11056.299 4732.947 6193.634 6812.682 2985.092 7793.686 7183.008 5447.461 6829.877 6774.751 15211.096 640.755 8881.338 5528.760 6554.104 10756.775 10965.071 3225.508 5748.899 5795.010 10905.969 10934.352 0.000 12464.021 1286.701 5793.613 9704.717 8668.599 6125.453 2438.108 9198.414 6304.904 11058.234 3919.881 18771.067 6233.341 3244.411 665.437 8280.373 11417.048 7831.930 6362.717 10232.777 4011.006 4003.511 4299.237 6592.415 4682.149 9751.296 4250.778 8054.381 2155.411 13857.909 7361.142 7890.460 16217.466 6609.567 4107.202 5668.175 2913.775 18497.465 2593.366 18213.483 7135.204 1241.469 7465.446 6959.055 4422.156 9046.058 5420.151 4736.699 7854.926 4918.853 17633.272 1700.071 4597.819 7644.327 11074.308 3944.480 1941.061 8665.080 4852.563 6712.524 4966.916 1759.698 6138.972 7274.493 1615.648 1372.592
12557.668 13137.639 13066.518 13588.504 5650.924 14069.211 13396.546 18504.390 17966.338 9060.788 12780.468 8983.214 14219.290 16485.895 7414.811 17081.791 9598.496 20056.148 9617.946 17110.660 16890.351 15566.294 13510.019 12792.453 20132.793 11011.143 6027.034 21977.973 15426.236 9368.382 9500.716 17166.395 22076.436 2094.532 12464.021 0.000 13443.896 14232.435 15291.278 3971.401 12674.278 10133.354 17414.303 6494.425 14248.179 9417.698 23719.617 12944.198 15087.813 12867.310 14029.728 22343.842 19258.037 7772.342 22162.644 10538.051 10439.283 13876.899 13947.233 16578.999 20400.202 14095.017 11904.172 11933.174 16224.656 9491.451 14463.126 20702.767 14024.142 10448.394 17040.317 9651.240 23390.848 9931.543 13631.028 13103.120 13353.258 14117.106 13451.876 11340.925 13288.991 16603.072 13292.533 13378.594 13789.054 21831.328 10898.966 16275.712 7693.827 14227.870 10554.342 14116.093 19139.075 17256.239 13921.819 9712.962 13868.470 8363.350 13170.334 10910.047 13067.479
3815.339 457.426 17730.833 3299.574 13815.114 7145.550 176.141 9525.777 11536.740 4780.837 5639.599 4716.881 10547.292 4671.563 6775.480 5584.910 4164.782 7213.903 7240.701 4166.642 5623.927 5748.013 15047.942 706.545 7596.549 6753.887 7646.243 9474.606 10293.606 4401.693 5911.682 5830.567 9622.624 12008.062 1286.701 13443.896 0.000 6645.673 8959.401 9566.354 5592.224 3632.274 8131.771 7111.149 10545.606 4426.922 17819.671 5649.263 1959.102 648.904 7620.824 10130.526 6549.849 6837.340 9012.013 4101.420 4128.023 3373.370 5833.819 4535.539 8469.656 3263.270 7726.026 2029.676 13298.704 7435.799 7135.171 15356.143 5837.848 4211.664 4381.720 3793.069 17555.148 3753.638 18243.010 6564.275 97.741 6737.231 6315.393 4218.811 8545.683 4140.988 3996.929 7274.826 4069.111 16771.392 2546.531 4594.474 8923.945 10565.337 4040.336 693.589 7395.914 4204.384 5966.979 6251.212 478.919 6513.788 6698.713 2554.117 569.087
10159.214 6948.887 22579.738 9899.380 11844.088 13633.994 6471.648 16124.294 18162.789 8950.027 11969.743 8680.140 16786.654 4343.041 10458.176 11944.144 6097.861 7772.005 12406.189 9836.349 12052.849 12388.080 20536.742 6329.170 13036.365 3264.164 8588.734 14695.601 16755.108 6192.050 10920.248 4118.766 14875.530 12230.134 5793.613 14232.435 6645.673 0.000 15496.738 11374.055 11898.310 5885.823 14743.877 9839.634 16790.639 8781.123 24465.133 12017.874 8095.774 6307.296 14071.657 15543.483 11981.549 10872.145 13344.423 9443.635 9400.822 10002.833 12378.788 4644.931 14271.114 9906.988 13689.370 7904.226 19604.691 12548.185 13679.601 21980.379 12393.232 9514.834 10295.043 7271.552 24200.814 6109.567 23145.329 12912.514 6671.172 13257.471 12750.463 10072.241 14784.142 10256.492 10520.826 13631.527 10668.873 23396.488 6734.093 4131.493 6872.629 16804.546 9378.583 6933.321 13430.848 6445.265 12501.399 4542.853 6932.864 10896.469 13052.446 6531.221 7028.541
5366.335 8594.910 11786.269 5662.908 18578.252 1884.811 9122.457 3657.852 2953.362 8135.684 3660.475 8429.725 2576.336 13293.007 8537.158 5767.058 10660.703 14406.076 5743.800 8067.829 5446.428 3856.914 8184.876 9175.929 8517.361 14698.298 12063.101 9644.085 1468.466 10763.032 6413.039 14476.681 9628.479 15032.309 9704.717 15291.278 8959.401 15496.738 0.000 11815.876 3755.803 10471.707 3279.593 9900.416 2551.362 8008.598 9394.512 3570.377 8201.345 9203.499 1544.372 9441.709 8382.031 7979.232 11256.699 6730.489 6822.010 5623.567 3127.814 13068.451 7712.480 5793.755 3392.083 7648.069 4652.702 5839.401 1824.552 6610.547 3121.616 6722.123 7501.370 9281.347 9091.762 10361.224 12114.803 2789.669 8913.360 2239.311 2800.283 5802.038 2045.275 7107.048 4982.346 2172.847 4898.734 8012.524 9113.519 13284.075 15210.786 2588.387 6776.226 8887.670 6757.613 11879.404 2999.305 13563.446 8794.784 7416.162 2657.906 9317.339 8504.634
8617.225 9236.543 12527.211 9627.635 7032.859 10410.333 9532.441 14810.163 14638.247 5089.741 8982.747 5018.560 11161.110 12965.166 3512.339 13134.866 5969.414 16397.529 6074.097 13146.421 12951.905 11688.648 11850.848 8939.751 16164.617 8397.709 2796.722 18014.387 12175.255 5760.112 5675.904 13765.768 18115.010 3217.395 8668.599 3971.401 9566.354 11374.055 11815.876 0.000 8873.064 6468.319 13648.656 2525.422 11186.189 5447.596 20716.096 9144.564 11147.982 9016.355 10440.821 18395.098 15286.686 3948.217 18197.533 6578.329 6478.035 9916.302 10139.622 13019.611 16458.361 10130.418 8445.357 7978.998 13522.621 5991.727 10781.047 17710.696 10214.311 6491.459 13069.721 5785.814 20390.981 6244.732 13120.116 9409.433 9473.214 10403.028 9714.251 7409.146 9906.639 12631.708 9359.573 9774.318 9854.871 18944.404 7039.876 12770.227 5953.524 11172.697 6592.364 10224.781 15199.055 13512.769 10128.576 6898.017 9974.165 4545.539 9492.375 7074.142 9160.767
1781.120 5173.510 12766.093 2567.643 15252.550 1893.681 5735.775 5990.172 6665.245 4522.065 112.796 4795.679 4959.249 10193.590 5379.620 4908.989 6908.761 12011.868 3330.109 6218.798 4634.262 2997.755 9707.396 5663.638 8164.434 10947.245 8597.491 9814.868 4878.122 7016.534 3197.186 11373.196 9872.163 12042.910 6125.453 12674.278 5592.224 11898.310 3755.803 8873.064 0.000 6716.350 4778.019 6631.933 4958.611 4343.485 13128.033 271.500 5419.718 5704.322 2230.985 9982.319 7571.150 4928.817 10693.911 3010.498 3108.245 2694.118 1272.956 10016.220 8023.719 2962.051 2340.741 3994.265 7738.566 3521.399 2122.769 10365.905 1349.976 3016.393 5814.237 5537.854 12830.001 6605.631 13222.270 1016.059 5527.458 1677.223 986.220 2052.973 2953.769 5322.319 1767.809 1733.520 2032.976 11765.535 5374.579 10142.654 11551.591 4977.306 3050.619 5698.909 6785.032 9173.219 1255.568 9810.140 5545.467 4331.278 1156.417 5580.287 5070.496
5239.490 3487.788 16713.531 5553.190 10189.562 8597.819 3529.476 12064.180 13357.231 3069.919 6811.274 2794.894 11299.640 6511.170 4652.039 8763.107 549.515 9946.097 6563.451 7760.304 8717.106 8250.188 14674.317 2925.956 11152.154 4244.121 4152.139 13043.719 11536.615 789.810 5087.870 7374.422 13184.013 8529.169 2438.108 10133.354 3632.274 5885.823 10471.707 6468.319 6716.350 0.000 10672.473 4327.288 11308.657 2930.063 19816.839 6906.065 5551.950 2987.386 8943.752 13649.702 10127.541 5015.448 12642.757 3842.528 3772.539 5781.261 7556.332 6554.574 11895.329 5839.748 8097.544 3146.132 14122.733 6693.798 8762.667 17082.156 7596.830 3885.132 7905.331 1400.459 19524.034 242.959 17274.886 7704.806 3561.159 8310.544 7678.994 4684.597 9358.870 7592.637 5855.313 8390.739 6201.599 18481.547 1480.739 6323.467 5426.900 11316.941 3785.098 4322.391 10740.074 7124.558 7642.791 3134.610 4107.907 5011.664 7842.599 1320.582 3464.982
5546.993 7896.853 15064.705 5139.560 19946.138 3455.884 8307.885 1404.793 4076.852 9132.444 4667.466 9370.444 5845.935 11764.440 10157.421 3246.426 11008.384 12118.885 7863.673 5806.224 2993.509 2438.544 11443.862 8576.821 5382.637 14651.994 13254.952 6375.569 4523.978 11170.480 7973.450 12901.765 6354.401 16820.603 9198.414 17414.303 8131.771 14743.877 3279.593 13648.656 4778.019 10672.473 0.000 11392.424 5819.533 8889.133 9806.091 4506.736 6746.729 8576.442 3680.286 6164.645 5439.237 9701.504 8104.030 7515.029 7622.695 4942.576 3523.670 11492.061 4449.776 4953.666 5865.306 7538.650 7492.780 8020.304 3032.496 7672.275 3452.484 7556.865 5204.590 9781.460 9564.750 10633.695 15387.828 4336.559 8120.521 3317.656 3963.485 6529.312 4971.183 4957.624 4849.705 4221.807 4471.916 9040.677 9195.903 11810.213 15923.866 5857.054 7534.948 7812.778 3592.501 9990.388 3523.188 13788.991 7813.159 9103.839 4287.829 9372.269 7838.732
6167.386 6760.712 12964.704 7136.736 8682.893 8319.881 7090.279 12621.446 12816.367 2567.920 6744.328 2494.399 9691.832 10805.258 1385.381 10661.231 3910.807 14092.858 4352.322 10621.254 10490.742 9313.146 11546.443 6513.168 13654.356 7259.142 2339.036 15511.886 10481.594 3748.864 3508.133 11699.263 15615.877 5482.167 6304.904 6494.425 7111.149 9839.634 9900.416 2525.422 6631.933 4327.288 11392.424 0.000 9712.184 2923.324 19101.948 6900.452 8636.104 6590.910 8431.926 15913.597 12766.969 1985.259 15672.170 4100.435 3996.745 7425.407 7869.150 10825.033 13987.499 7631.117 6663.862 5459.840 12298.766 4345.543 8655.690 16143.761 7939.954 4021.196 10545.977 3391.134 18783.357 4086.875 13547.796 7299.223 7016.126 8246.135 7541.150 4984.353 8148.962 10110.356 6918.409 7764.882 7409.361 17448.879 4627.814 10626.412 5924.963 9705.914 4108.486 7754.020 12732.071 11154.453 7876.898 5717.119 7501.659 2497.722 7399.964 4689.989 6680.014
6739.707 10131.068 9249.935 7382.732 18179.510 3615.990 10691.686 6007.775 3944.746 8538.296 4906.797 8850.388 33.105 15104.043 8333.961 8205.382 11379.183 16589.876 5364.223 10356.219 7880.922 6175.216 5633.593 10617.184 11057.057 15532.673 12022.927 12191.890 1500.218 11430.928 6524.453 16288.590 12173.535 14329.953 11058.234 14248.179 10545.606 16790.639 2551.362 11186.189 4958.611 11308.657 5819.533 9712.184 0.000 8520.113 9536.318 4898.224 10151.387 10659.598 3094.192 11968.047 10879.430 7728.209 13795.602 7470.390 7536.891 7425.839 4940.252 14910.703 10261.526 7650.026 3236.078 8907.564 2821.132 5367.546 3831.566 6525.551 4969.544 7423.881 9819.209 9977.756 9210.010 11152.864 9568.299 3984.528 10482.813 4069.472 4284.391 6728.647 2012.287 9388.815 6604.131 3285.736 6685.014 7770.227 10123.483 15065.121 15451.481 37.965 7529.904 10612.396 9305.038 13910.062 4791.265 14237.816 10475.151 7262.964 3852.755 10331.426 10028.586
3411.994 4024.513 13924.635 4269.610 11077.949 6213.143 4443.711 10204.949 10956.755 367.417 4452.710 487.780 8508.230 8646.972 2349.604 7805.800 2891.167 11608.373 3634.660 7704.488 7656.282 6641.025 11756.867 3934.869 10742.367 7047.057 4382.279 12608.068 8910.280 2919.680 2158.110 9679.157 12716.045 8319.102 3919.881 9417.698 4426.922 8781.123 8008.598 5447.596 4343.485 2930.063 8889.133 2923.324 8520.113 0.000 17400.861 4584.593 5768.246 4012.154 6465.660 13035.799 9845.630 2446.578 12753.092 1374.943 1267.965 4556.144 5441.951 8601.991 11127.015 4744.502 5284.503 2586.233 11310.383 3769.461 6466.165 14560.240 5501.787 1342.230 7622.653 1530.593 17095.819 2732.540 14474.277 5227.670 4329.220 6020.045 5326.796 2366.541 6639.021 7188.050 4163.089 5846.974 4634.326 15934.646 2279.377 8503.645 7213.382 8524.992 1354.352 5011.393 9880.113 8609.275 5486.794 5717.848 4758.847 2239.581 5354.926 2436.287 3930.322
14608.990 17532.115 15191.348 14611.688 27683.210 11234.681 17994.012 8508.626 6463.379 17517.946 13027.250 17815.640 9562.485 21557.161 17717.159 12941.445 20033.896 21525.506 14771.962 15471.781 12735.384 12082.677 11915.504 18182.248 13815.039 24007.785 21350.334 13600.662 8620.690 20144.512 15702.112 22681.049 13457.589 23866.222 18771.067 23719.617 17819.671 24465.133 9394.512 20716.096 13128.033 19816.839 9806.091 19101.948 9536.318 17400.861 0.000 12921.583 16549.057 18194.013 10938.856 12789.439 14398.336 17125.706 15961.871 16122.347 16214.948 14481.225 12282.959 21278.720 12336.505 14561.718 12438.921 16857.678 7627.124 14809.415 11054.172 3018.518 12249.880 16115.857 14881.572 18665.570 328.971 19719.990 15143.562 12183.102 17795.978 11506.405 12149.886 15180.940 10955.886 14703.556 14085.234 11554.855 13855.447 2055.736 18414.070 21609.305 24591.613 9551.682 16166.925 17567.707 12340.130 19706.471 12186.447 22931.368 17544.196 16607.533 12052.218 18612.496 17459.648
1865.648 5240.047 12870.003 2538.088 15515.451 1691.756 5797.407 5722.854 6458.303 4771.316 163.981 5041.332 4900.639 10219.164 5650.770 4694.707 7112.339 11956.552 3575.236 6087.119 4414.092 2750.303 9762.137 5753.032 7949.010 11128.194 8855.669 9583.000 4740.235 7225.451 3468.685 11401.560 9637.691 12314.041 6233.341 12944.198 5649.263 12017.874 3570.377 9144.564 271.500 6906.065 4506.736 6900.452 4898.224 4584.593 12921.583 0.000 5380.884 5790.679 2067.910 9737.865 7376.342 5200.221 10498.163 3240.305 3340.066 2637.257 1003.458 10034.623 7781.098 2895.810 2438.516 4120.462 7655.257 3763.429 1889.441 10179.512 1081.028 3251.293 5665.448 5750.287 12625.499 6801.508 13318.767 915.063 5588.040 1438.829 772.990 2268.729 2910.426 5176.461 1738.857 1629.730 1941.944 11582.833 5544.154 10174.343 11786.533 4918.664 3277.890 5723.370 6546.796 9144.469 984.084 10010.622 5579.754 4602.661 1050.517 5748.509 5139.372
3855.530 2069.867 18098.354 2852.180 15741.037 6562.031 2099.126 8091.691 10480.856 6135.663 5428.546 6151.026 10159.150 5119.546 8067.183 3852.745 6070.279 6603.463 7856.782 2212.073 3957.653 4553.277 15126.349 2652.364 5637.448 8625.667 9448.110 7516.586 9630.125 6302.470 6747.941 6294.790 7663.879 13764.689 3244.411 15087.813 1959.102 8095.774 8201.345 11147.982 5419.718 5551.950 6746.729 8636.104 10151.387 5768.246 16549.057 5380.884 0.000 2602.656 7077.200 8173.584 4592.253 8003.545 7152.142 5022.676 5086.295 2748.250 5218.337 4879.411 6541.063 2506.386 7742.936 3184.134 12766.861 8065.314 6437.178 14268.147 5195.810 5135.500 2434.515 5501.634 16302.739 5652.575 18575.982 6244.141 2013.925 6114.917 5881.618 4740.371 8240.094 2243.650 3652.213 6893.129 3476.659 15670.304 4319.681 5133.223 10881.932 10176.764 4976.248 1331.975 5511.975 3768.440 5366.268 8200.565 1485.077 7576.476 6360.631 4375.314 2107.162
3927.298 682.471 17560.743 3594.881 13167.016 7356.393 545.255 9977.595 11858.350 4352.741 5762.892 4257.180 10659.289 4791.652 6343.877 6149.119 3522.946 7597.855 7049.637 4812.814 6169.641 6162.937 14982.015 78.247 8238.815 6188.253 7029.525 10119.242 10496.641 3760.823 5663.426 5911.342 10266.303 11399.583 665.437 12867.310 648.904 6307.296 9203.499 9016.355 5704.322 2987.386 8576.442 6590.910 10659.598 4012.154 18194.013 5790.679 2602.656 0.000 7812.286 10768.404 7194.826 6451.748 9655.384 3872.052 3882.505 3712.806 6078.710 4696.561 9091.009 3643.934 7733.940 1857.977 13441.655 7237.224 7381.731 15674.584 6090.688 3976.850 5015.680 3230.693 17923.786 3114.480 18083.075 6701.845 588.799 6966.681 6493.905 4139.865 8649.249 4759.152 4221.391 7419.852 4362.910 17090.739 1976.531 4684.936 8279.344 10677.341 3807.533 1335.098 8000.553 4606.072 6204.460 5627.071 1127.745 6170.842 6839.504 1957.803 738.638
3912.729 7232.294 11871.976 4368.308 17114.752 521.871 7777.099 4528.315 4491.802 6597.625 2141.611 6889.808 3105.079 12086.916 7085.805 5289.971 9122.996 13496.312 4414.426 7293.856 4967.230 3186.449 8468.843 7779.055 8356.036 13177.586 10556.873 9725.781 2685.405 9222.541 4927.506 13273.229 9740.497 13656.646 8280.373 14029.728 7620.824 14071.657 1544.372 10440.821 2230.985 8943.752 3680.286 8431.926 3094.192 6465.660 10938.856 2067.910 7077.200 7812.286 0.000 9675.597 8028.886 6547.338 11060.444 5187.039 5278.110 4380.012 1859.093 11881.100 7809.106 4588.804 2211.385 6183.970 5710.650 4538.572 816.071 8142.359 1882.333 5177.933 6773.724 7740.302 10636.096 8828.629 12260.984 1246.398 7567.000 975.375 1321.321 4265.590 1435.599 6328.635 3625.402 669.181 3637.177 9538.392 7604.373 12060.306 13671.260 3122.202 5233.265 7618.455 6700.707 10826.204 1711.749 12026.353 7501.273 5969.922 1113.636 7809.685 7136.346
9786.772 10182.046 21217.975 8777.323 23778.856 9327.449 10272.709 6157.514 9375.285 13369.833 9894.905 13507.821 11995.461 11457.404 14934.279 5262.058 14138.839 9839.376 13312.049 5993.563 5462.201 6987.849 17567.336 10813.369 2559.706 16705.182 17249.659 961.522 10606.298 14359.721 12946.456 12281.713 774.390 21354.896 11417.048 22343.842 10130.526 15543.483 9441.709 18395.098 9982.319 13649.702 6164.645 15913.597 11968.047 13035.799 12789.439 9737.865 8173.584 10768.404 9675.597 0.000 3632.417 14625.881 3293.837 11818.960 11920.706 8488.808 8790.744 11134.109 1962.369 8291.437 11716.975 10786.468 13317.211 13501.285 8910.984 11899.194 8711.957 11904.087 5754.948 13316.628 12680.835 13718.720 21528.322 9968.447 10180.520 9040.079 9504.421 11006.306 11058.584 6059.272 9057.720 10094.738 8561.127 12964.868 12287.721 11614.502 19039.505 12005.823 11807.547 9495.683 3219.946 9259.411 8870.859 16371.669 9658.567 14056.330 9971.391 12388.501 10193.445
6874.385 6640.542 19900.143 5743.439 20305.229 7562.557 6684.243 6241.687 9458.411 10199.053 7510.263 10294.254 10900.018 8034.139 11934.222 2751.204 10634.452 7150.992 10799.972 2384.805 3068.599 4869.716 16458.793 7244.475 1073.421 13073.409 13888.766 2924.869 9791.557 10862.102 10140.577 8965.483 3075.334 18110.647 7831.930 19258.037 6549.849 11981.549 8382.031 15286.686 7571.150 10127.541 5439.237 12766.969 10879.430 9845.630 14398.336 7376.342 4592.253 7194.826 8028.886 3632.417 0.000 11713.229 3122.781 8756.474 8849.279 5463.537 6602.999 7714.617 2374.595 5216.210 9692.308 7426.138 12883.648 11004.772 7213.158 12785.665 6533.838 8854.463 2253.736 9923.905 14218.165 10214.548 20288.922 7883.482 6606.152 7164.531 7403.071 8080.849 9460.720 2659.091 6229.410 8239.424 5760.974 14062.478 8822.939 8168.645 15473.757 10914.331 8732.732 5896.855 2066.550 5875.211 6724.320 12766.425 6073.096 11183.016 7932.857 8904.775 6663.092
4865.731 6417.396 11707.673 5970.387 10607.315 6483.297 6866.195 10865.433 10871.778 2130.872 5037.800 2311.160 7708.082 11081.824 608.649 9373.848 4776.328 14040.658 2367.065 9755.068 9163.692 7794.101 9897.097 6374.952 12514.155 8671.948 4301.650 14315.884 8507.522 4700.389 1734.140 12095.920 14402.469 7140.786 6362.717 7772.342 6837.340 10872.145 7979.232 3948.217 4928.817 5015.448 9701.504 1985.259 7728.209 2446.578 17125.706 5200.221 8003.545 6451.748 6547.338 14625.881 11713.229 0.000 14739.427 3012.360 2935.454 6252.390 6198.498 11043.385 12670.996 6497.043 4693.576 4895.875 10335.082 2364.360 6844.692 14162.058 6273.978 2904.342 9577.416 3705.390 16806.287 4781.171 12273.445 5473.877 6739.714 6459.433 5767.649 3643.851 6179.681 9107.191 5573.791 5878.177 6069.111 15464.228 4697.463 10933.502 7819.478 7722.267 3050.036 7387.254 11409.091 11035.919 6183.705 7180.557 7137.823 597.702 5562.154 4835.812 6317.478
9943.644 9206.433 22921.341 8792.586 22806.665 10613.527 9113.865 8572.879 11885.082 13114.725 10632.731 13179.848 13818.458 9050.895 14924.194 5842.206 13176.795 6803.798 13913.818 5052.084 6149.648 7947.048 19416.460 9717.489 2739.342 15022.146 16600.252 2385.156 12604.400 13413.552 13209.138 9685.821 2548.307 20906.623 10232.777 22162.644 9012.013 13344.423 11256.699 18197.533 10693.911 12642.757 8104.030 15672.170 13795.602 12753.092 15961.871 10498.163 7152.142 9655.384 11060.444 3293.837 3122.781 14739.427 0.000 11748.861 11836.346 8520.601 9710.208 8733.922 3839.526 8261.137 12798.127 10237.632 15587.115 14119.504 10245.567 14822.208 9639.539 11851.494 5163.189 12648.948 15833.423 12764.973 23292.765 10987.518 9086.212 10232.028 10506.097 11133.011 12496.042 5632.903 9324.398 11313.697 8865.048 15978.218 11470.583 9242.669 17800.186 13831.716 11719.654 8320.528 4515.625 6899.175 9827.886 14972.154 8539.477 14225.857 11031.736 11519.519 9252.871
2078.785 3650.205 13692.002 3050.466 12443.452 4898.628 4171.646 8830.308 9664.170 1630.285 3116.741 1855.563 7462.025 8662.688 3179.057 6562.310 3958.340 11281.479 3181.140 6745.958 6390.385 5286.873 11217.398 3803.731 9601.358 8080.841 5747.257 11440.067 7718.222 4043.714 1810.633 9770.630 11538.518 9571.839 4011.006 10538.051 4101.420 9443.635 6730.489 6578.329 3010.498 3842.528 7515.029 4100.435 7470.390 1374.943 16122.347 3240.305 5022.676 3872.052 5187.039 11818.960 8756.474 3012.360 11748.861 0.000 108.416 3338.917 4071.892 8567.359 9888.301 3559.474 4278.457 2071.961 10287.912 3366.153 5129.074 13320.356 4130.519 113.767 6586.158 2561.565 15821.239 3697.336 14217.750 3940.882 4007.766 4679.128 3996.693 993.323 5516.674 6124.428 2833.417 4596.383 3318.184 14707.770 2709.586 8551.008 8547.092 7479.432 66.847 4553.045 8632.001 8275.175 4120.818 6857.843 4315.838 2555.437 4073.735 2913.255 3541.092
2185.860 3679.000 13688.550 3149.780 12335.151 4994.407 4194.114 8937.011 9757.980 1521.893 3215.040 1747.774 7528.160 8670.472 3088.942 6665.069 3877.518 11317.868 3180.946 6828.293 6494.513 5395.208 11238.476 3813.140 9697.934 8007.140 5638.987 11538.693 7799.986 3958.907 1785.899 9773.347 11637.770 9466.504 4003.511 10439.283 4128.023 9400.822 6822.010 6478.035 3108.245 3772.539 7622.695 3996.745 7536.891 1267.965 16214.948 3340.066 5086.295 3882.505 5278.110 11920.706 8849.279 2935.454 11836.346 108.416 0.000 3438.384 4176.917 8579.021 9991.215 3656.637 4337.053 2100.923 10352.880 3362.516 5228.205 13408.409 4235.882 114.585 6674.286 2478.028 15913.373 3623.156 14216.411 4032.369 4033.677 4778.758 4094.446 1099.074 5589.535 6214.321 2940.554 4683.564 3424.671 14794.512 2667.616 8556.194 8446.574 7545.512 116.748 4592.057 8735.355 8310.131 4224.867 6774.660 4352.884 2490.230 4164.551 2869.631 3570.628
1426.123 3055.058 15443.560 288.757 15504.518 3876.396 3543.282 6346.521 8164.732 4883.945 2693.748 5034.380 7432.309 7708.190 6495.976 3249.877 6160.561 9321.156 5496.259 3686.897 3110.847 2504.078 12396.168 3701.472 6271.245 9709.966 8857.164 8101.654 7002.573 6343.018 4688.543 8894.513 8199.601 12871.611 4299.237 13876.899 3373.370 10002.833 5623.567 9916.302 2694.118 5781.261 4942.576 7425.407 7425.839 4556.144 14481.225 2637.257 2748.250 3712.806 4380.012 8488.808 5463.537 6252.390 8520.601 3338.917 3438.384 0.000 2531.554 7501.095 6571.556 281.565 5033.012 2636.033 10090.141 5706.477 3809.326 11984.043 2522.043 3429.014 3394.008 5057.054 14211.117 5766.682 15906.664 3496.231 3338.603 3442.542 3143.955 2617.694 5495.319 2904.956 941.406 4152.880 743.054 13399.607 4300.954 7685.452 11139.084 7450.066 3323.938 3264.438 5324.086 6516.169 2674.722 8869.927 3174.348 5719.486 3613.798 4465.388 2979.549
2326.508 5467.099 13413.111 2543.986 16449.019 1347.389 5995.915 4779.571 5848.631 5658.522 1167.395 5913.193 4949.307 10238.927 6639.430 3869.725 7812.969 11669.063 4545.667 5560.834 3569.585 1819.207 10153.353 6052.645 7100.056 11725.374 9770.269 8675.279 4474.977 7945.573 4465.223 11425.184 8721.559 13301.050 6592.415 13947.233 5833.819 12378.788 3127.814 10139.622 1272.956 7556.332 3523.670 7869.150 4940.252 5441.951 12282.959 1003.458 5218.337 6078.710 1859.093 8790.744 6602.999 6198.498 9710.208 4071.892 4176.917 2531.554 0.000 10029.017 6841.848 2732.100 3089.328 4584.834 7562.483 4727.329 1303.675 9639.730 79.450 4099.768 5079.883 6493.050 11996.406 7475.360 13836.257 1281.872 5786.592 911.440 805.167 3078.834 3099.839 4610.107 1858.089 1754.747 1792.006 11053.783 6133.986 10217.005 12596.529 4966.740 4100.440 5787.811 5624.287 8970.777 149.270 10686.794 5682.924 5601.284 1342.002 6331.032 5377.008
8274.250 4990.937 22247.994 7528.475 15494.531 11375.878 4431.897 12771.241 15338.949 8913.330 10049.126 8760.749 14915.608 323.400 10854.518 8350.682 7051.352 3568.941 11740.577 5897.916 8544.605 9416.974 19577.463 4766.460 8718.509 6908.258 10552.779 10241.772 14483.077 7265.710 10359.373 1417.764 10427.382 14818.254 4682.149 16578.999 4535.539 4644.931 13068.451 13019.611 10016.220 6554.574 11492.061 10825.033 14910.703 8601.991 21278.720 10034.623 4879.411 4696.561 11881.100 11134.109 7714.617 11043.385 8733.922 8567.359 8579.021 7501.095 10029.017 0.000 10079.705 7298.479 12228.474 6523.544 17590.818 11930.264 11283.788 19104.699 10014.948 8672.837 6456.662 7486.843 21046.576 6783.337 22765.648 10938.246 4619.588 10937.578 10628.133 8754.044 12943.813 6582.771 8308.653 11625.730 8244.017 20497.953 6355.556 513.473 10293.458 14933.505 8503.160 4318.295 9430.462 1876.639 10173.757 7421.969 4485.073 10817.020 11065.602 6235.848 5102.520
7843.164 8471.748 19493.603 6858.996 21960.568 7435.950 8622.648 4749.987 8060.558 11455.277 7937.349 11603.348 10287.218 10397.911 12987.296 3326.277 12366.784 9399.773 11353.811 4470.832 3510.355 5032.615 15891.202 9129.206 1512.759 15159.403 15383.495 1933.616 8968.417 12581.261 10986.965 11339.620 1933.277 19442.968 9751.296 20400.202 8469.656 14271.114 7712.480 16458.361 8023.719 11895.329 4449.776 13987.499 10261.526 11127.015 12336.505 7781.098 6541.063 9091.009 7809.106 1962.369 2374.595 12670.996 3839.526 9888.301 9991.215 6571.556 6841.848 10079.705 0.000 6386.666 9801.952 8947.855 11843.139 11544.042 7026.522 11014.775 6763.404 9970.989 4112.043 11478.013 12181.986 11948.457 19827.207 8036.246 8509.968 7128.369 7567.660 9059.534 9215.142 4332.014 7108.631 8195.223 6611.938 12206.806 10496.115 10527.085 17313.293 10298.826 9879.072 7872.866 1262.042 8247.931 6925.883 14717.887 8010.414 12099.333 8044.798 10609.628 8471.713
1695.606 2973.549 15718.028 531.677 15643.595 4079.488 3436.229 6358.291 8280.154 5079.110 2958.013 5218.134 7657.226 7512.082 6727.691 3077.221 6236.762 9060.841 5775.057 3407.883 2960.401 2524.116 12657.681 3638.395 6042.061 9705.820 9014.027 7883.970 7189.218 6425.780 4950.089 8697.913 7985.566 13063.571 4250.778 14095.017 3263.270 9906.988 5793.755 10130.418 2962.051 5839.748 4953.666 7631.117 7650.026 4744.502 14561.718 2895.810 2506.386 3643.934 4588.804 8291.437 5216.210 6497.043 8261.137 3559.474 3656.637 281.565 2732.100 7298.479 6386.666 0.000 5302.426 2707.365 10294.459 5985.367 3990.516 12098.888 2716.590 3652.897 3124.227 5175.135 14295.172 5836.633 16179.581 3741.651 3235.817 3639.264 3375.417 2872.134 5734.054 2637.631 1219.337 4386.779 970.521 13513.335 4363.624 7495.677 11223.669 7674.905 3541.162 3102.792 5147.135 6274.179 2877.957 8905.457 3030.770 5970.199 3856.196 4519.779 2905.828
3964.475 7283.827 10431.995 4894.054 15291.121 2423.974 7852.990 6734.978 6200.665 5304.506 2352.275 5616.302 3223.872 12386.198 5279.947 6956.182 8150.454 14343.095 2375.689 8521.835 6652.019 4870.104 7390.873 7682.072 10169.826 12307.761 8920.787 11682.182 3818.233 8197.845 3318.319 13553.941 11714.852 11657.707 8054.381 11904.172 7726.026 13689.370 3392.083 8445.357 2340.741 8097.544 5865.306 6663.862 3236.078 5284.503 12438.921 2438.516 7742.936 7733.940 2211.385 11716.975 9692.308 4693.576 12798.127 4278.457 4337.053 5033.012 3089.328 12228.474 9801.952 5302.426 0.000 5905.790 6031.674 2455.090 2850.597 9492.407 3159.004 4222.846 8087.462 6751.489 12121.005 7934.598 10883.687 1810.779 7651.110 2676.907 2292.431 3637.113 1486.109 7602.181 4099.877 1648.773 4369.237 10819.208 6970.768 12318.146 12268.158 3240.588 4340.593 7919.556 8626.716 11478.918 2970.264 11002.350 7743.734 4168.616 1774.426 7177.264 7175.040
2281.773 1578.449 15724.571 2407.883 13013.255 5767.410 2104.666 8935.715 10433.424 2953.510 4066.985 2969.180 8905.165 6634.422 4907.007 5712.073 3529.684 9220.357 5220.969 5188.359 5634.444 5109.059 13124.557 1798.105 8381.970 7171.878 6474.010 10272.575 8860.674 3718.784 3882.498 7765.119 10395.466 10692.642 2155.411 11933.174 2029.676 7904.226 7648.069 7978.998 3994.265 3146.132 7538.650 5459.840 8907.564 2586.233 16857.678 4120.462 3184.134 1857.977 6183.970 10786.468 7426.138 4895.875 10237.632 2071.961 2100.923 2636.033 4584.834 6523.544 8947.855 2707.365 5905.790 0.000 11712.277 5413.592 5858.229 14219.655 4613.016 2182.564 5174.794 2531.385 16574.332 3131.900 16242.377 5009.089 1936.430 5418.912 4866.530 2287.531 6896.021 4779.654 2779.910 5727.694 3079.085 15632.046 1665.423 6535.378 8516.494 8923.154 2011.253 2504.674 7745.155 6211.358 4691.588 6250.430 2260.543 4528.249 5149.171 1834.817 1469.765
9514.620 12894.534 8556.888 10076.402 20555.375 6215.212 13449.590 7161.653 4054.731 11311.056 7678.769 11623.489 2827.837 17797.564 10943.623 10370.759 14182.064 19056.714 8008.725 12719.226 10055.822 8509.616 4856.258 13401.804 12874.576 18339.317 14632.949 13713.911 3184.351 14227.400 9268.027 18983.879 13660.976 16561.584 13857.909 16224.656 13298.704 19604.691 4652.702 13522.621 7738.566 14122.733 7492.780 12298.766 2821.132 11310.383 7627.124 7655.257 12766.861 13441.655 5710.650 13317.211 12883.648 10335.082 15587.115 10287.912 10352.880 10090.141 7562.483 17590.818 11843.139 10294.459 6031.674 11712.277 0.000 7979.140 6333.286 4692.954 7578.642 10239.518 12149.595 12783.035 7300.586 13963.697 8711.996 6741.410 13239.841 6656.302 6989.178 9548.641 4820.602 11759.446 9319.866 6025.999 9347.542 5648.287 12944.599 17770.313 18131.468 2810.242 10347.896 13324.916 11083.799 16489.665 7417.257 17026.137 13201.450 9916.799 6604.810 13152.547 12794.373
4310.987 6979.635 10326.277 5470.456 12878.601 4602.841 7517.840 9035.007 8647.821 3636.368 3606.692 3931.604 5346.902 12028.532 2972.283 8405.256 6600.216 14540.372 210.702 9393.218 8141.195 6513.657 7988.558 7169.409 11655.647 10698.260 6665.562 13332.702 6211.252 6586.220 1639.161 13135.646 13392.062 9202.802 7361.142 9491.451 7435.799 12548.185 5839.401 5991.727 3521.399 6693.798 8020.304 4345.543 5367.546 3769.461 14809.415 3763.429 8065.314 7237.224 4538.572 13501.285 11004.772 2364.360 14119.504 3366.153 3362.516 5706.477 4727.329 11930.264 11544.042 5985.367 2455.090 5413.592 7979.140 0.000 5010.346 11829.884 4806.755 3263.502 9080.546 5293.684 14487.797 6487.919 10854.070 3685.832 7344.770 4703.273 4091.671 3330.546 3917.279 8586.037 4823.561 3891.194 5261.784 13117.730 5913.732 11917.081 10155.750 5360.874 3431.281 7827.975 10306.420 11552.732 4663.676 9273.013 7604.084 1945.993 3732.892 6099.731 6868.659
3580.758 6770.610 12688.007 3840.176 17317.995 426.742 7298.006 4042.233 4596.880 6639.782 2014.180 6916.516 3845.533 11501.367 7348.642 4476.085 8987.595 12775.621 4863.132 6525.719 4152.924 2379.515 9274.805 7355.132 7544.253 12963.307 10691.602 8935.833 3199.463 9106.114 5157.037 12686.752 8954.877 13984.617 7890.460 14463.126 7135.171 13679.601 1824.552 10781.047 2122.769 8762.667 3032.496 8655.690 3831.566 6466.165 11054.172 1889.441 6437.178 7381.731 816.071 8910.984 7213.158 6844.692 10245.567 5129.074 5228.205 3809.326 1303.675 11283.788 7026.522 3990.516 2850.597 5858.229 6333.286 5010.346 0.000 8362.671 1297.361 5137.935 5994.185 7634.589 10761.819 8667.397 13076.201 1371.632 7088.867 453.306 1141.569 4157.229 2250.989 5558.550 3160.435 1202.124 3078.787 9774.187 7368.457 11486.193 13673.668 3862.004 5167.166 7073.264 5901.126 10157.753 1178.205 11880.119 6975.461 6253.002 1293.727 7569.196 6680.667
11943.413 15032.912 12732.703 12081.001 24691.654 8489.335 15526.901 6571.971 3819.406 14655.530 10271.012 14958.353 6551.164 19364.799 14758.407 10915.184 17264.906 19746.596 11800.411 13476.900 10665.679 9719.716 9248.802 15655.292 12389.067 21307.517 18413.194 12574.238 5685.522 17361.727 12784.891 20520.903 12461.913 20853.272 16217.466 20702.767 15356.143 21980.379 6610.547 17710.696 10365.905 17082.156 7672.275 16143.761 6525.551 14560.240 3018.518 10179.512 14268.147 15674.584 8142.359 11899.194 12785.665 14162.058 14822.208 13320.356 13408.409 11984.043 9639.730 19104.699 11014.775 12098.888 9492.407 14219.655 4692.954 11829.884 8362.671 0.000 9616.679 13305.270 12875.553 15878.987 2690.347 16970.223 12761.799 9386.911 15322.628 8806.303 9407.741 12407.934 8019.105 12625.257 11484.780 8725.144 11311.795 1416.155 15718.591 19393.545 21713.169 6539.988 13368.625 15176.086 10732.717 17655.865 9528.919 20168.376 15124.568 13656.009 9251.371 15921.377 14951.995
2362.464 5474.997 13471.849 2543.491 16515.077 1366.293 6000.853 4714.607 5821.107 5721.044 1245.004 5974.149 4979.071 10226.756 6713.135 3798.327 7857.686 11632.872 4625.117 5509.784 3497.063 1742.299 10203.055 6065.579 7026.116 11759.857 9834.637 8598.090 4480.888 7991.938 4540.463 11412.884 8643.986 13374.241 6609.567 14024.142 5837.848 12393.232 3121.616 10214.311 1349.976 7596.830 3452.484 7939.954 4969.544 5501.787 12249.880 1081.028 5195.810 6090.688 1882.333 8711.957 6533.838 6273.978 9639.539 4130.519 4235.882 2522.043 79.450 10014.948 6763.404 2716.590 3159.004 4613.016 7578.642 4806.755 1297.361 9616.679 0.000 4159.809 5024.821 6542.099 11964.298 7517.920 13893.337 1349.746 5791.793 922.676 870.588 3137.228 3143.980 4556.989 1873.081 1803.600 1785.688 11031.263 6170.366 10206.639 12650.058 4996.433 4158.271 5782.381 5546.638 8944.183 196.205 10728.421 5680.696 5676.870 1405.645 6366.641 5385.878
2149.500 3760.977 13589.763 3140.912 12395.201 4899.408 4280.723 8865.564 9660.309 1578.056 3123.966 1816.044 7415.070 8766.578 3079.854 6645.572 3986.070 11393.977 3080.098 6852.184 6470.307 5344.986 11129.092 3908.095 9694.924 8118.454 5700.076 11530.667 7692.756 4065.188 1700.022 9872.270 11628.134 9496.717 4107.202 10448.394 4211.664 9514.834 6722.123 6491.459 3016.393 3885.132 7556.865 4021.196 7423.881 1342.230 16115.857 3251.293 5135.500 3976.850 5177.933 11904.087 8854.463 2904.342 11851.494 113.767 114.585 3429.014 4099.768 8672.837 9970.989 3652.897 4222.846 2182.564 10239.518 3263.502 5137.935 13305.270 4159.809 0.000 6688.477 2585.408 15813.814 3734.521 14116.511 3932.783 4117.818 4689.382 4002.288 1027.844 5478.382 6225.323 2903.212 4580.143 3390.876 14690.355 2781.378 8653.760 8535.760 7432.409 171.329 4665.860 8713.715 8387.401 4144.876 6881.693 4428.342 2443.473 4064.297 2983.615 3652.035
4819.196 4428.467 18486.648 3654.721 18067.789 6262.696 4528.514 6386.122 9234.913 7980.092 5775.114 8063.480 9834.460 6752.740 9762.896 1961.178 8403.832 6967.901 8871.333 601.736 2216.423 3656.619 15216.803 5059.466 3248.737 11047.410 11635.031 5143.412 8968.563 8628.825 8070.181 7833.431 5280.238 15864.034 5668.175 17040.317 4381.720 10295.043 7501.370 13069.721 5814.237 7905.331 5204.590 10545.977 9819.209 7622.653 14881.572 5665.448 2434.515 5015.680 6773.724 5754.948 2253.736 9577.416 5163.189 6586.158 6674.286 3394.008 5079.883 6456.662 4112.043 3124.227 8087.462 5174.794 12149.595 9080.546 5994.185 12875.553 5024.821 6688.477 0.000 7670.300 14661.837 7983.509 18914.662 6333.095 4428.805 5820.637 5875.186 5985.930 8143.932 495.604 4257.634 6824.145 3839.496 14236.497 6577.403 6835.649 13284.749 9850.611 6557.559 3765.945 3143.354 4824.923 5220.813 10631.589 3914.209 9068.621 6411.465 6664.699 4442.723
4242.580 3494.143 15362.965 4795.168 10485.729 7431.522 3750.624 11147.669 12203.081 1678.993 5639.585 1420.420 9967.445 7490.662 3413.062 8225.509 1403.415 10703.814 5163.017 7631.939 8131.386 7412.151 13276.277 3154.243 10897.707 5556.285 3966.639 12791.276 10277.971 1482.776 3688.700 8450.726 12917.139 8263.527 2913.775 9651.240 3793.069 7271.552 9281.347 5785.814 5537.854 1400.459 9781.460 3391.134 9977.756 1530.593 18665.570 5750.287 5501.634 3230.693 7740.302 13316.628 9923.905 3705.390 12648.948 2561.565 2478.028 5057.054 6493.050 7486.843 11478.013 5175.135 6751.489 2531.385 12783.035 5293.684 7634.589 15878.987 6542.099 2585.408 7670.300 0.000 18366.787 1203.047 15919.938 6494.081 3702.100 7181.517 6518.978 3484.908 8054.867 7293.549 4933.694 7156.997 5342.299 17268.219 1254.167 7325.271 6142.413 9984.522 2511.402 4465.709 10270.251 7764.445 6563.253 4296.657 4219.259 3645.607 6628.573 1299.474 3429.952
14321.693 17263.697 14902.342 14338.256 27360.363 10937.190 17729.203 8281.499 6167.550 17210.484 12729.772 17508.809 9236.087 21323.206 17398.401 12716.960 19737.353 21335.420 14451.358 15253.879 12506.233 11823.564 11608.040 17911.220 13653.043 23719.645 21034.524 13479.717 8302.880 19846.458 15388.108 22451.059 13339.544 23539.755 18497.465 23390.848 17555.148 24200.814 9091.762 20390.981 12830.001 19524.034 9564.750 18783.357 9210.010 17095.819 328.971 12625.499 16302.739 17923.786 10636.096 12680.835 14218.165 16806.287 15833.423 15821.239 15913.373 14211.117 11996.406 21046.576 12181.986 14295.172 12121.005 16574.332 7300.586 14487.797 10761.819 2690.347 11964.298 15813.814 14661.837 18366.787 0.000 19425.503 14860.964 11881.094 17530.411 11213.590 11853.338 14882.642 10638.725 14476.241 13804.314 11249.107 13580.139 1750.903 18125.154 21372.887 24283.148 9225.221 15866.230 17310.574 12156.559 19486.455 11898.393 22636.020 17284.122 16289.576 11749.667 18324.112 17190.306
5167.907 3583.320 16482.576 5531.237 10092.159 8492.511 3659.171 12021.046 13257.963 2857.057 6702.474 2576.375 11143.320 6743.613 4412.374 8790.878 420.351 10161.395 6360.939 7855.370 8736.010 8219.424 14463.234 3049.857 11232.084 4383.984 3969.115 13125.709 11406.419 650.017 4890.181 7613.446 13263.737 8349.498 2593.366 9931.543 3753.638 6109.567 10361.224 6244.732 6605.631 242.959 10633.695 4086.875 11152.864 2732.540 19719.990 6801.508 5652.575 3114.480 8828.629 13718.720 10214.548 4781.171 12764.973 3697.336 3623.156 5766.682 7475.360 6783.337 11948.457 5836.633 7934.598 3131.900 13963.697 6487.919 8667.397 16970.223 7517.920 3734.521 7983.509 1203.047 19425.503 0.000 17044.793 7586.579 3678.763 8214.569 7574.375 4564.051 9212.689 7659.500 5801.764 8266.523 6161.920 18366.875 1475.956 6557.406 5398.060 11160.533 3641.772 4446.429 10782.774 7324.734 7558.103 3213.390 4225.560 4786.972 7723.580 1341.116 3553.582
14727.815 17785.634 592.928 15750.365 19170.671 12736.998 18337.268 15472.117 12687.520 14251.973 13235.962 14499.539 9541.983 22873.854 12708.099 17550.208 17049.508 25174.641 11036.624 19378.719 17227.919 15438.924 3977.128 18016.682 20565.046 20799.877 15522.043 21758.832 10932.373 16967.596 12468.055 23988.347 21741.705 15014.157 18213.483 13631.028 18243.010 23145.329 12114.803 13120.116 13222.270 17274.886 15387.828 13547.796 9568.299 14474.277 15143.562 13318.767 18575.982 18083.075 12260.984 21528.322 20288.922 12273.445 23292.765 14217.750 14216.411 15906.664 13836.257 22765.648 19827.207 16179.581 10883.687 16242.377 8711.996 10854.070 13076.201 12761.799 13893.337 14116.511 18914.662 15919.938 14860.964 17044.793 0.000 12585.010 18155.345 13152.692 13039.499 14036.720 10833.248 18439.966 14967.531 12105.593 15252.882 13125.212 16716.773 22767.040 19028.005 9530.792 14283.323 18571.337 18841.169 22248.707 13697.133 19262.223 18363.916 12274.402 12503.556 16891.376 17673.937
2774.703 6154.844 12153.671 3422.436 15971.871 1021.539 6712.460 5408.826 5730.269 5370.083 943.228 5658.394 3987.342 11126.113 5982.267 5145.460 7877.995 12790.128 3527.166 6794.462 4841.363 3063.991 8952.889 6663.215 8362.376 11942.570 9371.254 9898.708 3863.546 7976.435 3794.362 12309.458 9937.091 12613.275 7135.204 13103.120 6564.275 12912.514 2789.669 9409.433 1016.059 7704.806 4336.559 7299.223 3984.528 5227.670 12183.102 915.063 6244.141 6701.845 1246.398 9968.447 7883.482 5473.877 10987.518 3940.882 4032.369 3496.231 1281.872 10938.246 8036.246 3741.651 1810.779 5009.089 6741.410 3685.832 1371.632 9386.911 1349.746 3932.783 6333.095 6494.081 11881.094 7586.579 12585.010 0.000 6503.102 1019.171 481.730 3022.549 2006.979 5855.647 2631.112 719.723 2772.481 10780.769 6381.510 11083.722 12438.289 4005.351 3986.917 6631.484 6842.332 10012.356 1159.685 10781.469 6491.207 4883.054 140.392 6587.870 6053.947
3748.856 371.456 17642.462 3257.277 13747.123 7094.171 210.104 9516.361 11503.284 4683.218 5576.182 4619.787 10484.263 4752.285 6677.822 5603.092 4091.275 7310.881 7150.069 4224.535 5636.557 5729.730 14967.371 639.961 7650.066 6731.795 7562.823 9530.501 10242.091 4327.532 5817.792 5908.473 9677.505 11922.487 1241.469 13353.258 97.741 6671.172 8913.360 9473.214 5527.458 3561.159 8120.521 7016.126 10482.813 4329.220 17795.978 5588.040 2013.925 588.799 7567.000 10180.520 6606.152 6739.714 9086.212 4007.766 4033.677 3338.603 5786.592 4619.588 8509.968 3235.817 7651.110 1936.430 13239.841 7344.770 7088.867 15322.628 5791.793 4117.818 4428.805 3702.100 17530.411 3678.763 18155.345 6503.102 0.000 6688.276 6259.269 4134.496 8481.205 4179.228 3945.077 7214.886 4027.766 16738.143 2457.368 4672.486 8868.136 10502.313 3946.496 774.321 7428.720 4301.495 5918.759 6208.385 546.978 6416.803 6638.000 2468.578 482.946
3138.702 6364.284 12749.185 3453.437 16898.345 453.506 6897.930 4407.214 5047.711 6198.339 1567.403 6472.871 4080.440 11148.923 6951.768 4413.979 8534.335 12520.958 4546.041 6332.010 4096.052 2295.182 9400.993 6938.239 7557.746 12513.798 10261.099 9017.706 3564.170 8652.828 4757.356 12335.105 9046.109 13599.900 7465.446 14117.106 6737.231 13257.471 2239.311 10403.028 1677.223 8310.544 3317.656 8246.135 4069.472 6020.045 11506.405 1438.829 6114.917 6966.681 975.375 9040.079 7164.531 6459.433 10232.028 4679.128 4778.758 3442.542 911.440 10937.578 7128.369 3639.264 2676.907 5418.912 6656.302 4703.273 453.306 8806.303 922.676 4689.382 5820.637 7181.517 11213.590 8214.569 13152.692 1019.171 6688.276 0.000 707.507 3705.235 2329.490 5368.900 2747.655 1084.271 2703.444 10216.555 6919.381 11127.908 13225.014 4097.555 4716.630 6699.031 5966.388 9857.153 771.847 11427.158 6592.764 5865.002 974.516 7120.593 6272.361
2591.957 5920.504 12613.112 3099.699 16190.971 918.916 6469.330 5098.663 5686.508 5498.245 880.711 5775.495 4290.189 10824.898 6252.635 4663.962 7884.097 12394.342 3923.678 6346.366 4359.644 2583.673 9379.155 6459.864 7881.202 11899.775 9554.485 9424.172 4006.368 7995.672 4057.917 12010.358 9464.241 12906.129 6959.055 13451.876 6315.393 12750.463 2800.283 9714.251 986.220 7678.994 3963.485 7541.150 4284.391 5326.796 12149.886 772.990 5881.618 6493.905 1321.321 9504.421 7403.071 5767.649 10506.097 3996.693 4094.446 3143.955 805.167 10628.133 7567.660 3375.417 2292.431 4866.530 6989.178 4091.671 1141.569 9407.741 870.588 4002.288 5875.186 6518.978 11853.338 7574.375 13039.499 481.730 6259.269 707.507 0.000 3034.828 2363.936 5401.424 2331.174 1011.996 2406.135 10811.960 6313.250 10790.549 12536.843 4308.006 4036.591 6339.915 6368.236 9648.353 678.752 10783.070 6212.654 5171.841 537.648 6517.064 5823.237
1223.422 3763.113 13531.615 2341.144 13420.562 3946.618 4324.670 7838.665 8718.218 2603.720 2154.858 2843.463 6723.309 8883.198 3928.094 5745.589 4858.670 11222.055 3123.730 6218.628 5549.455 4338.525 10845.813 4082.622 8870.425 8926.114 6726.502 10675.416 6856.215 4963.827 2087.316 10029.025 10764.479 10466.494 4422.156 11340.925 4218.811 10072.241 5802.038 7409.146 2052.973 4684.597 6529.312 4984.353 6728.647 2366.541 15180.940 2268.729 4740.371 4139.865 4265.590 11006.306 8080.849 3643.851 11133.011 993.323 1099.074 2617.694 3078.834 8754.044 9059.534 2872.134 3637.113 2287.531 9548.641 3330.546 4157.229 12407.934 3137.228 1027.844 5985.930 3484.908 14882.642 4564.051 14036.720 3022.549 4134.496 3705.235 3034.828 0.000 4734.937 5504.761 1951.873 3706.425 2448.213 13803.157 3403.805 8795.129 9530.712 6741.089 1022.031 4539.395 7798.209 8247.243 3129.441 7761.515 4327.947 3102.622 3159.553 3611.864 3651.551
4734.041 8127.027 10439.445 5428.825 16775.068 1904.359 8689.543 5617.726 4731.650 6694.056 2907.287 7002.941 2010.891 13129.536 6765.533 6717.647 9458.230 14756.051 3851.974 8645.164 6395.933 4605.951 7073.344 8606.277 9790.324 13596.671 10397.663 11138.423 2336.651 9523.895 4768.271 14311.981 11148.235 13112.989 9046.058 13288.991 8545.683 14784.142 2045.275 9906.639 2953.769 9358.870 4971.183 8148.962 2012.287 6639.021 10955.886 2910.426 8240.094 8649.249 1435.599 11058.584 9460.720 6179.681 12496.042 5516.674 5589.535 5495.319 3099.839 12943.813 9215.142 5734.054 1486.109 6896.021 4820.602 3917.279 2250.989 8019.105 3143.980 5478.382 8143.932 8054.867 10638.725 9212.689 10833.248 2006.979 8481.205 2329.490 2363.936 4734.937 0.000 7686.151 4638.019 1353.888 4763.560 9357.769 8137.097 13084.486 13711.736 2028.925 5573.776 8633.795 8125.117 12008.225 2952.278 12340.179 8488.916 5652.630 1883.420 8345.194 8023.691
4330.932 4142.852 18008.914 3168.964 17726.542 5814.293 4296.812 6195.200 8942.846 7542.673 5284.439 7635.335 9403.311 6868.702 9303.140 1768.188 8079.591 7315.830 8376.921 967.493 1971.972 3250.995 14756.575 4797.199 3604.221 10863.621 11251.708 5497.975 8575.502 8300.559 7586.786 7978.964 5625.877 15454.322 5420.151 16603.072 4140.988 10256.492 7107.048 12631.708 5322.319 7592.637 4957.624 10110.356 9388.815 7188.050 14703.556 5176.461 2243.650 4759.152 6328.635 6059.272 2659.091 9107.191 5632.903 6124.428 6214.321 2904.956 4610.107 6582.771 4332.014 2637.631 7602.181 4779.654 11759.446 8586.037 5558.550 12625.257 4556.989 6225.323 495.604 7293.549 14476.241 7659.500 18439.966 5855.647 4179.228 5368.900 5401.424 5504.761 7686.151 0.000 3762.786 6359.216 3343.951 13998.081 6232.106 6935.842 12995.911 9419.662 6097.578 3564.875 3269.161 5032.765 4752.567 10386.192 3687.508 8593.334 5936.609 6329.821 4146.685
754.722 3617.239 14503.115 801.178 15229.601 3149.099 4155.051 6225.497 7680.964 4454.067 1777.329 4650.839 6608.467 8499.924 5878.734 3800.458 6167.681 10245.166 4614.684 4591.789 3598.292 2495.417 11475.180 4194.744 6966.077 9951.108 8539.648 8745.555 6297.032 6324.519 3931.116 9684.499 8829.803 12398.088 4736.699 13292.533 3996.929 10520.826 4982.346 9359.573 1767.809 5855.313 4849.705 6918.409 6604.131 4163.089 14085.234 1738.857 3652.213 4221.391 3625.402 9057.720 6229.410 5573.791 9324.398 2833.417 2940.554 941.406 1858.089 8308.653 7108.631 1219.337 4099.877 2779.910 9319.866 4823.561 3160.435 11484.780 1873.081 2903.212 4257.634 4933.694 13804.314 5801.764 14967.531 2631.112 3945.077 2747.655 2331.174 1951.873 4638.019 3762.786 0.000 3318.395 496.708 12900.051 4394.098 8462.132 11075.466 6626.400 2835.753 4010.042 5847.016 7409.721 1983.111 8987.240 3881.610 5013.658 2757.216 4581.631 3524.789
3493.236 6868.595 11692.962 4099.209 16447.773 775.876 7424.489 5150.265 5126.021 5965.721 1662.901 6261.609 3290.145 11818.313 6417.060 5488.225 8548.449 13402.179 3760.709 7313.277 5172.380 3370.505 8399.455 7381.670 8642.004 12632.485 9899.277 10092.331 3155.722 8639.641 4262.328 13002.865 10117.675 12989.614 7854.926 13378.594 7274.826 13631.527 2172.847 9774.318 1733.520 8390.739 4221.807 7764.882 3285.736 5846.974 11554.855 1629.730 6893.129 7419.852 669.181 10094.738 8239.424 5878.177 11313.697 4596.383 4683.564 4152.880 1754.747 11625.730 8195.223 4386.779 1648.773 5727.694 6025.999 3891.194 1202.124 8725.144 1803.600 4580.143 6824.145 7156.997 11249.107 8266.523 12105.593 719.723 7214.886 1084.271 1011.996 3706.425 1353.888 6359.216 3318.395 0.000 3416.951 10111.401 7084.666 11779.776 13041.161 3308.068 4645.633 7327.124 7044.378 10660.193 1609.188 11451.107 7192.206 5300.855 580.734 7291.574 6768.375
1241.990 3724.805 14798.619 771.071 15687.689 3134.746 4235.352 5862.740 7495.531 4932.350 2017.042 5121.609 6691.756 8450.313 6375.397 3304.750 6538.577 10022.527 5054.441 4207.477 3101.611 2070.318 11701.155 4344.576 6480.768 10238.034 9003.239 8252.833 6266.149 6704.436 4419.303 9636.647 8335.921 12887.453 4918.853 13789.054 4069.111 10668.873 4898.734 9854.871 2032.976 6201.599 4471.916 7409.361 6685.014 4634.326 13855.447 1941.944 3476.659 4362.910 3637.177 8561.127 5760.974 6069.111 8865.048 3318.184 3424.671 743.054 1792.006 8244.017 6611.938 970.521 4369.237 3079.085 9347.542 5261.784 3078.787 11311.795 1785.688 3390.876 3839.496 5342.299 13580.139 6161.920 15252.882 2772.481 4027.766 2703.444 2406.135 2448.213 4763.560 3343.951 496.708 3416.951 0.000 12727.943 4727.318 8426.179 11476.317 6709.485 3318.046 3996.715 5350.352 7244.665 1933.873 9323.531 3896.733 5507.250 2886.050 4907.041 3641.530
13354.595 16448.900 13158.420 13497.116 25948.631 9894.291 16942.279 7892.709 5234.877 16021.610 11671.834 16326.186 7793.735 20760.417 16064.629 12275.326 18657.386 21074.287 13097.978 14836.985 12032.893 11125.487 9859.793 17071.438 13616.513 22710.794 19734.102 13686.719 7035.590 18750.936 14125.790 21913.216 13564.256 22059.916 17633.272 21831.328 16771.392 23396.488 8012.524 18944.404 11765.535 18481.547 9040.677 17448.879 7770.227 15934.646 2055.736 11582.833 15670.304 17090.739 9538.392 12964.868 14062.478 15464.228 15978.218 14707.770 14794.512 13399.607 11053.783 20497.953 12206.806 13513.335 10819.208 15632.046 5648.287 13117.730 9774.187 1416.155 11031.263 14690.355 14236.497 17268.219 1750.903 18366.875 13125.212 10780.769 16738.143 10216.555 10811.960 13803.157 9357.769 13998.081 12900.051 10111.401 12727.943 0.000 17124.603 20791.866 23066.961 7781.260 14756.959 16587.965 12000.207 19030.713 10942.158 21560.751 16537.997 14970.378 10644.346 17327.852 16368.072
3807.923 2273.284 16173.010 4072.560 11494.653 7230.350 2498.364 10589.754 11964.596 2567.685 5462.786 2405.203 10117.144 6385.918 4501.167 7318.744 1884.622 9488.898 5752.930 6490.928 7260.807 6770.871 13871.822 1900.086 9823.410 5595.083 5132.167 11719.138 10240.383 2089.230 4275.272 7402.799 11852.450 9474.075 1700.071 10898.966 2546.531 6734.093 9113.519 7039.876 5374.579 1480.739 9195.903 4627.814 10123.483 2279.377 18414.070 5544.154 4319.681 1976.531 7604.373 12287.721 8822.939 4697.463 11470.583 2709.586 2667.616 4300.954 6133.986 6355.556 10496.115 4363.624 6970.768 1665.423 12944.599 5913.732 7368.457 15718.591 6170.366 2781.378 6577.403 1254.167 18125.154 1475.956 16716.773 6381.510 2457.368 6919.381 6313.250 3403.805 8137.097 6232.106 4394.098 7084.666 4727.318 17124.603 0.000 6236.074 6873.345 10134.816 2644.641 3226.551 9320.181 6530.484 6227.806 4596.850 2983.749 4518.726 6521.220 208.098 2219.565
8383.024 5042.697 22242.924 7694.537 15067.252 11560.866 4475.385 13107.439 15613.089 8803.201 10180.829 8635.349 15068.954 235.540 10718.346 8703.156 6803.131 3982.480 11731.552 6289.607 8885.442 9685.665 19637.468 4750.608 9182.529 6444.920 10255.707 10727.961 14684.556 7010.115 10326.248 1236.096 10912.873 14486.081 4597.819 16275.712 4594.474 4131.493 13284.075 12770.227 10142.654 6323.467 11810.213 10626.412 15065.121 8503.645 21609.305 10174.343 5133.223 4684.936 12060.306 11614.502 8168.645 10933.502 9242.669 8551.008 8556.194 7685.452 10217.005 513.473 10527.085 7495.677 12318.146 6535.378 17770.313 11917.081 11486.193 19393.545 10206.639 8653.760 6835.649 7325.271 21372.887 6557.406 22767.040 11083.722 4672.486 11127.908 10790.549 8795.129 13084.486 6935.842 8462.132 11779.776 8426.179 20791.866 6236.074 0.000 9869.462 15086.920 8485.804 4452.726 9848.144 2368.587 10359.874 7014.667 4597.198 10733.007 11213.576 6103.163 5153.144
10382.492 8858.083 18435.519 10891.998 5201.715 13426.491 8791.810 17288.370 18162.796 7075.451 11659.577 6781.453 15434.395 10102.947 7215.671 14187.266 4990.077 13851.452 10122.868 13090.372 14134.030 13546.411 17400.493 8231.071 16517.506 3630.671 3626.080 18398.417 16032.367 4797.927 8950.161 10456.830 18545.623 5606.922 7644.327 7693.827 8923.945 6872.629 15210.786 5953.524 11551.591 5426.900 15923.866 5924.963 15451.481 7213.382 24591.613 11786.533 10881.932 8279.344 13671.260 19039.505 15473.757 7819.478 17800.186 8547.092 8446.574 11139.084 12596.529 10293.458 17313.293 11223.669 12268.158 8516.494 18131.468 10155.750 13673.668 21713.169 12650.058 8535.760 13284.749 6142.413 24283.148 5398.060 19028.005 12438.289 8868.136 13225.014 12536.843 9530.712 13711.736 12995.911 11075.466 13041.161 11476.317 23066.961 6873.345 9869.462 0.000 15449.720 8511.688 9584.586 16165.909 11537.348 12655.835 2902.314 9401.137 8214.700 12563.842 6735.852 8849.799
6758.426 10150.191 9212.168 7405.817 18167.868 3644.051 10711.115 6045.613 3975.683 8541.551 4926.159 8853.704 18.057 15126.317 8328.289 8239.185 11385.678 16618.262 5359.025 10387.035 7914.692 6207.436 5596.671 10634.719 11093.234 15539.784 12017.903 12229.259 1536.467 11436.651 6525.187 16310.734 12211.004 14314.550 11074.308 14227.870 10565.337 16804.546 2588.387 11172.697 4977.306 11316.941 5857.054 9705.914 37.965 8524.992 9551.682 4918.664 10176.764 10677.341 3122.202 12005.823 10914.331 7722.267 13831.716 7479.432 7545.512 7450.066 4966.740 14933.505 10298.826 7674.905 3240.588 8923.154 2810.242 5360.874 3862.004 6539.988 4996.433 7432.409 9850.611 9984.522 9225.221 11160.533 9530.792 4005.351 10502.313 4097.555 4308.006 6741.089 2028.925 9419.662 6626.400 3308.068 6709.485 7781.260 10134.816 15086.920 15449.720 0.000 7539.095 10634.199 9341.613 13936.066 4817.704 14242.801 10496.322 7258.912 3873.973 10342.728 10047.565
2081.087 3589.676 13757.308 3035.276 12428.660 4940.554 4109.539 8854.010 9707.759 1621.002 3156.186 1837.940 7521.669 8597.860 3205.690 6552.834 3906.191 11223.437 3246.699 6712.196 6383.745 5296.678 11284.240 3739.041 9582.172 8024.739 5732.307 11423.688 7770.730 3994.008 1871.350 9705.116 11523.060 9575.934 3944.480 10554.342 4040.336 9378.583 6776.226 6592.364 3050.619 3785.098 7534.948 4108.486 7529.904 1354.352 16166.925 3277.890 4976.248 3807.533 5233.265 11807.547 8732.732 3050.036 11719.654 66.847 116.748 3323.938 4100.440 8503.160 9879.072 3541.162 4340.593 2011.253 10347.896 3431.281 5167.166 13368.625 4158.271 171.329 6557.559 2511.402 15866.230 3641.772 14283.323 3986.917 3946.496 4716.630 4036.591 1022.031 5573.776 6097.578 2835.753 4645.633 3318.046 14756.959 2644.641 8485.804 8511.688 7539.095 0.000 4495.731 8623.667 8216.636 4151.417 6806.844 4257.848 2600.424 4120.304 2848.559 3480.759
3958.709 994.729 18069.454 3250.287 14500.109 7125.032 797.751 9190.986 11361.816 5371.737 5733.560 5328.849 10616.234 4496.052 7359.559 5101.867 4856.728 6729.847 7627.383 3512.192 5171.441 5487.948 15288.966 1397.087 6951.518 7298.784 8337.104 8821.004 10262.671 5094.031 6357.511 5678.231 8972.048 12695.667 1941.061 14116.093 693.589 6933.321 8887.670 10224.781 5698.909 4322.391 7812.778 7754.020 10612.396 5011.393 17567.707 5723.370 1331.975 1335.098 7618.455 9495.683 5896.855 7387.254 8320.528 4553.045 4592.057 3264.438 5787.811 4318.295 7872.866 3102.792 7919.556 2504.674 13324.916 7827.975 7073.264 15176.086 5782.381 4665.860 3765.945 4465.709 17310.574 4446.429 18571.337 6631.484 774.321 6699.031 6339.915 4539.395 8633.795 3564.875 4010.042 7327.124 3996.715 16587.965 3226.551 4452.726 9584.586 10634.199 4495.731 0.000 6833.532 3728.293 5927.977 6875.996 253.327 7032.354 6761.014 3242.227 1082.530
6582.771 7361.469 18488.005 5610.533 20755.980 6298.969 7555.666 4220.989 7491.189 10205.457 6701.164 10358.330 9328.887 9740.494 11725.747 2074.335 11199.023 9190.711 10114.209 3601.981 2248.767 3806.846 14936.116 8033.608 1790.884 14131.793 14156.289 3056.483 8089.831 11408.992 9726.637 10752.126 3097.468 18192.394 8665.080 19139.075 7395.914 13430.848 6757.613 15199.055 6785.032 10740.074 3592.501 12732.071 9305.038 9880.113 12340.130 6546.796 5511.975 8000.553 6700.707 3219.946 2066.550 11409.091 4515.625 8632.001 8735.355 5324.086 5624.287 9430.462 1262.042 5147.135 8626.716 7745.155 11083.799 10306.420 5901.126 10732.717 5546.638 8713.715 3143.354 10270.251 12156.559 10782.774 18841.169 6842.332 7428.720 5966.388 6368.236 7798.209 8125.117 3269.161 5847.016 7044.378 5350.352 12000.207 9320.181 9848.144 16165.909 9341.613 8623.667 6833.532 0.000 7663.921 5714.983 13620.866 6950.344 10837.846 6858.802 9441.776 7353.060
7536.893 4639.847 21756.228 6608.570 16717.473 10307.692 4169.724 11208.269 13948.382 8954.997 9186.903 8863.124 13918.544 2200.006 10948.405 6773.762 7664.210 3010.115 11350.977 4236.374 7001.419 8094.960 18869.545 4684.161 6861.234 8372.407 11266.969 8365.205 13329.079 7898.242 10082.890 3095.598 8550.911 15627.300 4852.563 17256.239 4204.384 6445.265 11879.404 13512.769 9173.219 7124.558 9990.388 11154.453 13910.062 8609.275 19706.471 9144.469 3768.440 4606.072 10826.204 9259.411 5875.211 11035.919 6899.175 8275.175 8310.131 6516.169 8970.777 1876.639 8247.931 6274.179 11478.918 6211.358 16489.665 11552.732 10157.753 17655.865 8944.183 8387.401 4824.923 7764.445 19486.455 7324.734 22248.707 10012.356 4301.495 9857.153 9648.353 8247.243 12008.225 5032.765 7409.721 10660.193 7244.665 19030.713 6530.484 2368.587 11537.348 13936.066 8216.636 3728.293 7663.921 0.000 9119.514 8635.088 3960.331 10718.079 10129.068 6464.994 4745.536
2423.775 5596.908 13275.714 2681.609 16473.422 1202.122 6128.277 4755.421 5744.638 5695.645 1145.943 5954.728 4800.263 10382.744 6634.266 3985.934 7891.574 11818.181 4485.240 5704.733 3682.744 1916.450 10008.501 6177.421 7208.219 11821.429 9800.727 8768.609 4335.873 8020.918 4452.674 11569.042 8812.403 13297.416 6712.524 13921.819 5966.979 12501.399 2999.305 10128.576 1255.568 7642.791 3523.188 7876.898 4791.265 5486.794 12186.447 984.084 5366.268 6204.460 1711.749 8870.859 6724.320 6183.705 9827.886 4120.818 4224.867 2674.722 149.270 10173.757 6925.883 2877.957 2970.264 4691.588 7417.257 4663.676 1178.205 9528.919 196.205 4144.876 5220.813 6563.253 11898.393 7558.103 13697.133 1159.685 5918.759 771.847 678.752 3129.441 2952.278 4752.567 1983.111 1609.188 1933.873 10942.158 6227.806 10359.874 12655.835 4817.704 4151.417 5927.977 5714.983 9119.514 0.000 10770.778 5820.945 5586.072 1211.626 6426.050 5505.928
8373.357 6259.581 18680.214 8654.829 8093.872 11700.313 6103.108 15184.981 16468.577 5722.744 9908.570 5411.085 14226.025 7245.815 6653.242 11718.969 2903.492 10988.720 9182.783 10384.290 11704.809 11358.508 17077.653 5590.279 13825.697 1546.412 4101.495 15686.810 14574.448 2817.720 7791.037 7687.906 15841.136 7748.383 4966.916 9712.962 6251.212 4542.853 13563.446 6898.017 9810.140 3134.610 13788.991 5717.119 14237.816 5717.848 22931.368 10010.622 8200.565 5627.071 12026.353 16371.669 12766.425 7180.557 14972.154 6857.843 6774.660 8869.927 10686.794 7421.969 14717.887 8905.457 11002.350 6250.430 17026.137 9273.013 11880.119 20168.376 10728.421 6881.693 10631.589 4296.657 22636.020 3213.390 19262.223 10781.469 6208.385 11427.158 10783.070 7761.515 12340.179 10386.192 8987.240 11451.107 9323.531 21560.751 4596.850 7014.667 2902.314 14242.801 6806.844 6875.996 13620.866 8635.088 10770.778 0.000 6717.495 7387.093 10917.191 4417.034 6270.979
3790.876 741.622 17859.560 3139.338 14292.819 7013.339 614.455 9198.880 11307.237 5118.932 5583.960 5075.525 10478.325 4650.879 7107.296 5174.996 4638.242 6965.643 7404.529 3689.240 5229.476 5461.604 15103.023 1183.981 7121.640 7185.296 8101.306 8997.954 10156.730 4874.435 6122.639 5828.224 9146.609 12455.925 1759.698 13868.470 478.919 6932.864 8794.784 9974.165 5545.467 4107.907 7813.159 7501.659 10475.151 4758.847 17544.196 5579.754 1485.077 1127.745 7501.273 9658.567 6073.096 7137.823 8539.477 4315.838 4352.884 3174.348 5682.924 4485.073 8010.414 3030.770 7743.734 2260.543 13201.450 7604.084 6975.461 15124.568 5680.696 4428.342 3914.209 4219.259 17284.122 4225.560 18363.916 6491.207 546.978 6592.764 6212.654 4327.947 8488.916 3687.508 3881.610 7192.206 3896.733 16537.997 2983.749 4597.198 9401.137 10496.322 4257.848 253.327 6950.344 3960.331 5820.945 6717.495 0.000 6786.511 6622.399 3004.775 829.358
4318.232 6081.108 11718.173 5440.704 11162.523 5895.046 6555.709 10270.143 10322.258 1983.044 4440.185 2225.318 7244.182 10871.717 1121.323 8810.443 4834.388 13727.682 1908.792 9266.253 8595.045 7205.103 9729.616 6095.581 11968.077 8845.744 4765.584 13759.163 7986.848 4787.342 1138.377 11914.865 13843.157 7734.943 6138.972 8363.350 6513.788 10896.469 7416.162 4545.539 4331.278 5011.664 9103.839 2497.722 7262.964 2239.581 16607.533 4602.661 7576.476 6170.842 5969.922 14056.330 11183.016 597.702 14225.857 2555.437 2490.230 5719.486 5601.284 10817.020 12099.333 5970.199 4168.616 4528.249 9916.799 1945.993 6253.002 13656.009 5676.870 2443.473 9068.621 3645.607 16289.576 4786.972 12274.402 4883.054 6416.803 5865.002 5171.841 3102.622 5652.630 8593.334 5013.658 5300.855 5507.250 14970.378 4518.726 10733.007 8214.700 7258.912 2600.424 7032.354 10837.846 10718.079 5586.072 7387.093 6786.511 0.000 4973.337 4675.036 5977.533
2912.650 6290.506 12076.054 3545.730 16076.002 921.984 6847.457 5335.895 5601.921 5493.330 1082.863 5783.044 3855.982 11254.831 6076.642 5189.855 8013.699 12898.207 3579.344 6879.445 4882.820 3096.168 8855.091 6801.145 8395.860 12080.956 9483.746 9915.173 3723.256 8111.100 3892.891 12438.561 9950.929 12699.075 7274.493 13170.334 6698.713 13052.446 2657.906 9492.375 1156.417 7842.599 4287.829 7399.964 3852.755 5354.926 12052.218 1050.517 6360.631 6839.504 1113.636 9971.391 7932.857 5562.154 11031.736 4073.735 4164.551 3613.798 1342.002 11065.602 8044.798 3856.196 1774.426 5149.171 6604.810 3732.892 1293.727 9251.371 1405.645 4064.297 6411.465 6628.573 11749.667 7723.580 12503.556 140.392 6638.000 974.516 537.648 3159.553 1883.420 5936.609 2757.216 580.734 2886.050 10644.346 6521.220 11213.576 12563.842 3873.973 4120.304 6761.014 6858.802 10129.068 1211.626 10917.191 6622.399 4973.337 0.000 6727.635 6189.887
4004.564 2313.199 16345.989 4242.225 11403.090 7433.785 2492.149 10767.951 12164.770 2710.970 5668.074 2532.277 10325.060 6257.671 4619.415 7451.513 1757.630 9408.676 5941.043 6560.809 7400.424 6943.846 14064.053 1883.591 9912.927 5395.547 5096.751 11808.066 10447.295 1972.536 4460.668 7260.112 11943.521 9454.016 1615.648 10910.047 2554.117 6531.221 9317.339 7074.142 5580.287 1320.582 9372.269 4689.989 10331.426 2436.287 18612.496 5748.509 4375.314 1957.803 7809.685 12388.501 8904.775 4835.812 11519.519 2913.255 2869.631 4465.388 6331.032 6235.848 10609.628 4519.779 7177.264 1834.817 13152.547 6099.731 7569.196 15921.377 6366.641 2983.615 6664.699 1299.474 18324.112 1341.116 16891.376 6587.870 2468.578 7120.593 6517.064 3611.864 8345.194 6329.821 4581.631 7291.574 4907.041 17327.852 208.098 6103.163 6735.852 10342.728 2848.559 3242.227 9441.776 6464.994 6426.050 4417.034 3004.775 4675.036 6727.635 0.000 2268.466
3289.655 111.728 17161.773 2871.274 13645.722 6670.757 678.444 9240.338 11134.249 4289.907 5122.269 4246.767 10029.509 5234.562 6279.276 5459.973 3972.876 7755.487 6673.070 4302.180 5466.706 5424.299 14485.499 739.055 7687.805 6897.645 7351.731 9578.805 9816.653 4202.548 5351.723 6388.941 9719.574 11687.236 1372.592 13067.479 569.087 7028.541 8504.634 9160.767 5070.496 3464.982 7838.732 6680.014 10028.586 3930.322 17459.648 5139.372 2107.162 738.638 7136.346 10193.445 6663.092 6317.478 9252.871 3541.092 3570.628 2979.549 5377.008 5102.520 8471.713 2905.828 7175.040 1469.765 12794.373 6868.659 6680.667 14951.995 5385.878 3652.035 4442.723 3429.952 17190.306 3553.582 17673.937 6053.947 482.946 6272.361 5823.237 3651.551 8023.691 4146.685 3524.789 6768.375 3641.530 16368.072 2219.565 5153.144 8849.799 10047.565 3480.759 1082.530 7353.060 4745.536 5505.928 6270.979 829.358 5977.533 6189.887 2268.466 0.000
NODE_COORD_SECTION
1 -2164.012052 1974.697434
2 -5556.079339 1891.390506
3 10370.772512 -4794.865172
4 -2800.124155 2954.627064
5 -6887.073050 -11717.627728
6 1059.686221 3303.175934
7 -6120.608800 1963.869761
8 1710.197853 7691.492738
9 4736.400244 6344.619715
10 -2958.570106 -1638.936721
11 -339.802688 2182.966347
12 -3240.527403 -1773.535103
13 4564.712457 2370.732994
14 -10523.810824 3145.107820
15 -1653.428735 -3148.119698
16 -2557.789534 6482.518098
17 -5889.563545 -2096.279654
18 -11440.243013 6779.957979
19 521.084562 -1124.115419
20 -5096.769337 6139.898083
21 -2283.882196 6307.890602
22 -1038.084760 5006.046241
23 8646.469062 -1476.308781
24 -6003.877506 1361.480081
25 -3998.768825 9401.679459
26 -9806.313828 -3496.674426
27 -4546.846414 -5443.513338
28 -3789.566371 11285.907663
29 4160.046915 3849.090205
30 -5841.762242 -2332.019026
31 -964.342211 -1064.374685
32 -11710.107948 3135.728816
33 -3637.938162 11401.259392
34 -3230.885317 -9621.996694
35 -6386.116720 847.222947
36 -1356.624577 -10556.988266
37 -5978.220995 2067.558679
38 -11884.259725 -979.353308
39 2728.977192 4178.378801
40 -2019.611491 -6641.317893
41 -386.011417 2080.070078
42 -6027.583941 -1564.379640
43 678.569381 6737.980527
44 -2579.281089 -4178.691623
45 4562.025593 2403.729163
46 -3109.131861 -1303.785782
47 9781.227489 10385.038635
48 -335.868452 2346.899834
49 -5469.445405 3959.443785
50 -6052.352382 1422.903389
51 1563.087857 3165.567931
52 -2937.202669 11730.879663
53 -4485.825308 8445.118844
54 -1163.449567 -2787.046823
55 -6165.611116 11077.623460
56 -2483.606277 -79.372970
57 -2517.276722 -182.427749
58 -2816.241316 3242.933806
59 -286.917493 3349.163138
60 -10315.839256 3392.767762
61 -2541.810083 9808.756705
62 -3017.512294 3439.831472
63 1667.520468 956.649738
64 -4237.895353 1023.120904
65 7273.714912 3181.886811
66 660.267673 -1282.302707
67 963.235283 3718.874777
68 8281.754199 7765.299423
69 -300.950770 3427.363678
70 -2404.658330 -161.289079
71 -4497.241981 6191.412210
72 -4629.807392 -1477.741793
73 9636.942448 10089.397618
74 -5815.294566 -1682.541419
75 10957.984839 -4712.733557
76 577.498245 2402.599761
77 -5912.813182 1994.929243
78 621.702344 3420.811871
79 295.361155 2793.064372
80 -1964.677153 767.624036
81 2567.159233 2139.514955
82 -4190.000535 5802.534773
83 -2034.611670 2718.243336
84 1279.971238 2559.228423
85 -2073.774140 3213.404597
86 9576.256473 8339.546193
87 -5179.592962 -350.501274
88 -10494.539259 2911.393864
89 -7973.125702 -6630.553137
90 4582.731584 2371.907273
91 -2549.836077 -70.311558
92 -6044.456532 2757.977956
93 -2422.062032 8552.408332
94 -9131.511511 4848.494781
95 -142.405068 3311.779394
96 -8279.887958 -3744.495920
97 -5912.213966 2541.906997
98 -1056.267264 -2199.033609
99 709.551186 2450.263812
100 -5377.475078 -414.902991
101 -5451.391305 1852.358892
DEMAND_SECTION
1 0
2 1
3 10
4 5
5 58
6 6
7 7
8 7
9 95
10 8
11 8
12 5
13 10
14 1
15 5
16 7
17 63
18 57
19 2
20 7
21 6
22 7
23 4
24 10
25 8
26 6
27 8
28 4
29 1
30 1
31 5
32 5
33 3
34 10
35 1
36 2
37 64
38 4
39 1
40 9
41 4
42 5
43 6
44 9
45 1
46 3
47 54
48 7
49 6
50 1
51 1
52 10
53 6
54 8
55 5
56 3
57 10
58 10
59 2
60 10
61 9
62 3
63 9
64 2
65 10
66 9
67 83
68 10
69 3
70 85
71 1
72 93
73 10
74 7
75 10
76 5
77 10
78 7
79 1
80 10
81 5
82 8
83 2
84 4
85 2
86 3
87 6
88 5
89 53
90 6
91 4
92 8
93 1
94 6
95 4
96 5
97 1
98 4
99 6
100 1
101 6
DEPOT_SECTION
1
-1
EOF
