NAME : poryos-tokyo-n25-hyb
COMMENT : Poryos2026 shortest metric; city tokyo; 3-decimal seconds/meters; ENU ref in poryos-tokyo-n25-hyb.vrp.json
TYPE : CVRP
DIMENSION : 26
EDGE_WEIGHT_TYPE : EXPLICIT
EDGE_WEIGHT_FORMAT : FULL_MATRIX
CAPACITY : 138
EDGE_WEIGHT_SECTION
0.000 7719.689 10304.497 4565.130 6547.264 3414.430 4097.928 7196.898 8303.046 5013.040 2603.669 9493.451 4525.670 10151.625 10448.143 9992.064 7298.831 9773.217 4715.037 2311.184 15762.878 7103.317 9277.202 14007.350 10658.820 9309.763
7835.173 0.000 3626.763 11083.254 12857.721 4736.018 11275.241 1280.481 9672.342 10060.445 9661.885 14181.174 11175.133 10111.232 9420.380 12666.655 13600.615 9537.403 6862.093 9546.230 22944.646 3746.849 9468.739 16702.386 11669.988 13997.486
10395.236 3324.407 0.000 14286.652 16061.120 8004.839 14307.403 3561.771 12941.165 12321.334 12813.144 17449.994 13436.022 10496.062 12027.544 13719.190 16804.014 9948.380 9122.982 12520.659 25205.534 5120.821 10381.233 17312.056 12582.482 17266.306
4695.864 11268.534 14318.694 0.000 2031.212 6698.000 1407.807 11045.939 8214.718 7902.967 2452.957 6826.658 5194.583 14264.787 11184.965 12548.712 3144.934 13886.379 9125.473 3275.961 13752.291 11449.706 13253.864 16297.271 14257.129 6661.241
6598.199 13011.621 16062.240 2141.168 0.000 8424.474 3183.670 12789.485 7674.161 9581.966 4490.932 5479.949 6748.707 15943.786 10804.204 14102.836 1232.486 15565.378 11052.809 5164.682 13958.831 13193.252 14932.863 17830.925 15882.436 5505.045
3510.585 4724.459 8025.127 6690.497 8347.126 0.000 6915.452 5016.996 6657.822 7187.345 5302.096 10080.754 7697.140 10756.080 8802.919 11889.364 9031.474 10377.672 4983.189 5186.441 18638.135 6006.928 9881.657 15948.482 11667.461 9897.066
3954.946 11115.257 13963.260 1538.752 3171.386 6724.618 0.000 10892.662 9071.962 6580.735 1697.161 7904.443 3872.352 12942.555 11525.246 11226.480 4285.108 12564.147 8028.622 2037.120 12838.924 10762.079 11931.633 14975.039 12934.897 7720.756
7199.822 1455.683 4025.479 10927.053 12701.521 4920.752 11119.041 0.000 9991.839 9360.821 9505.685 14365.907 10475.509 9398.234 10377.919 11926.936 13444.415 8824.405 6162.469 9363.197 22245.022 3033.851 8755.741 15989.388 10956.990 14182.220
8495.458 10010.485 13191.618 8123.973 7562.126 6728.977 9332.830 10341.278 0.000 13017.903 7874.487 5328.774 11855.127 16909.623 3413.082 17719.921 6776.913 16531.215 11136.733 8573.139 21132.433 12030.715 16035.200 21779.039 17821.004 5039.802
5015.864 10078.964 12214.154 7922.874 9481.602 7036.973 6645.045 9355.224 13128.097 0.000 6273.736 13953.266 3233.071 7369.481 15273.194 5476.713 10595.324 6991.073 3526.772 5388.405 15220.493 7773.119 6358.558 9491.999 7086.270 13769.578
2856.878 9705.620 12755.780 2069.450 4090.917 5314.981 1958.713 9483.025 7757.544 6405.294 0.000 7973.178 4387.277 12597.558 10210.828 11075.675 4891.925 12219.150 7160.969 1488.026 14186.984 9664.011 11723.135 15090.961 12770.410 7789.491
9528.722 14325.402 17626.070 6742.276 5478.060 9963.183 7951.134 14617.939 5425.208 14133.082 8376.795 0.000 11596.802 19446.554 8041.511 18792.509 4359.312 19068.146 14009.965 9330.213 18391.515 15873.098 18572.131 22699.490 19953.749 356.085
4445.436 11139.564 13274.754 5155.088 6507.007 7562.333 3670.450 10415.824 11750.469 3516.732 4069.875 11405.198 0.000 10049.000 14203.754 7724.717 7620.729 9670.591 5688.117 3501.387 12419.887 9872.747 9038.077 11670.032 9504.318 11221.510
10276.901 10029.925 10424.897 14450.045 16008.773 10923.192 13172.216 9472.011 16957.842 7372.751 12571.376 19522.570 10226.489 0.000 18827.894 4161.891 17122.495 1072.196 6183.567 11519.318 20786.560 6674.691 1518.245 7364.681 2757.436 19338.883
10640.212 9698.413 12229.149 11236.206 10687.387 8691.589 11807.546 10540.880 3271.534 15162.658 10315.079 8097.685 14185.744 18633.802 0.000 19864.676 10033.164 18255.394 13099.345 10819.001 24058.577 12405.218 17759.379 23923.794 19783.132 7764.514
10013.431 12737.893 13813.058 12547.991 13921.950 11600.959 11085.393 11981.061 17692.084 5669.632 10899.130 18578.382 7414.943 4302.040 19837.181 0.000 15035.673 4498.202 7208.423 10013.798 17166.901 9382.659 3549.151 4674.899 2287.221 18394.695
7262.666 13676.089 16726.708 3170.753 1261.716 9088.942 4213.254 13453.953 6843.648 10611.550 5283.128 4350.721 7778.292 16973.371 10050.720 15132.420 0.000 16594.963 11796.851 6164.439 14560.762 13857.720 15962.448 18860.510 16912.021 4425.720
9777.305 9340.596 9915.252 13950.449 15509.177 10423.596 12672.620 8782.682 16458.246 6873.155 12071.779 19022.974 9726.893 721.324 18328.298 4343.968 16622.899 0.000 5683.971 11019.722 20968.636 5985.361 1311.756 8074.577 3089.614 18839.287
4777.125 7202.730 9289.191 9086.421 11064.255 5385.043 8227.698 6430.261 11419.693 3536.536 7124.961 14022.794 5896.026 5896.304 13564.790 7036.878 11908.897 5517.896 0.000 6375.796 17954.612 4860.843 5021.881 11179.771 6776.466 13839.106
2519.975 9344.419 12394.579 4368.483 6331.800 4953.780 3927.941 9121.824 8788.143 6735.293 2430.154 9625.637 5519.488 12381.164 11241.427 11714.318 7083.367 12002.756 6944.575 0.000 15708.988 9447.617 11506.741 15729.603 12888.359 9441.949
15816.704 22809.925 24945.115 13790.391 13836.628 18596.180 12340.784 22086.185 21077.354 15123.075 14037.944 18342.669 12343.620 20747.529 23866.030 17111.933 14373.568 20943.691 17723.018 13778.113 0.000 21543.108 20040.798 14045.001 18604.707 18417.668
7112.667 3496.112 5134.533 11436.802 13211.270 6069.685 11024.834 2938.199 11881.490 7439.582 9530.576 15752.263 10028.658 6602.758 12426.397 9298.222 13954.164 6028.929 4811.516 9161.453 21798.171 0.000 5960.265 13193.912 8161.514 15568.575
9281.949 9216.556 10291.721 13359.444 14918.173 9928.239 12081.615 8658.642 15962.889 6097.871 11576.423 18527.618 8951.609 1391.388 17832.941 3337.956 16031.895 1165.440 5188.614 10524.365 19962.625 5861.321 0.000 7233.646 2201.248 18343.930
14209.415 16642.257 17396.120 16497.063 17847.941 15911.276 15011.384 16084.343 22002.400 9865.617 14994.213 22641.337 11446.868 7598.896 24147.497 4775.569 18961.663 8143.397 11518.739 14176.153 14426.805 13287.022 7453.514 0.000 5527.026 22457.649
10675.277 11330.534 12405.699 14258.357 15722.433 11651.806 12885.876 10772.620 17686.456 7049.135 12609.496 19920.946 9215.426 2708.517 19831.553 2226.825 16836.156 2988.729 6912.181 11724.165 18514.763 7975.299 2113.978 5413.719 0.000 19737.259
9345.069 14141.749 17442.417 6586.776 5518.132 9779.529 7795.633 14434.286 5136.236 13949.429 8193.142 356.085 11413.149 19262.901 7718.704 18608.856 4434.311 18884.493 13826.312 9146.559 18466.514 15689.445 18388.478 22515.836 19770.096 0.000
NODE_COORD_SECTION
1 -2164.012052 1974.697434
2 -8776.875283 3728.514207
3 -11681.782138 3142.526296
4 1657.173521 2852.440873
5 2750.987226 3962.680532
6 -4456.580624 3714.602760
7 1211.989949 1723.684521
8 -8588.510108 3154.200680
9 -2123.660485 8905.433200
10 -2729.632668 -2173.557858
11 92.207116 2403.291587
12 2320.965629 8618.776434
13 -376.456768 -1200.502642
14 -8053.092909 -5043.178949
15 -4098.853635 10748.458375
16 -4588.663370 -6486.773482
17 3079.370262 5044.620567
18 -7963.912654 -4502.988369
19 -5030.958381 -596.913258
20 -550.449733 1613.475625
21 6330.541016 -6264.599971
22 -8421.821600 565.798554
23 -7034.753576 -4646.544823
24 -4157.762767 -10435.805494
25 -6488.123387 -6381.418743
26 2226.688316 8728.009072
DEMAND_SECTION
1 0
2 9
3 4
4 60
5 7
6 8
7 5
8 2
9 100
10 5
11 79
12 4
13 2
14 7
15 6
16 8
17 74
18 9
19 10
20 2
21 6
22 6
23 81
24 1
25 2
26 72
DEPOT_SECTION
1
-1
EOF
