NAME : mamut-lyon-n25-poi
COMMENT : Mamut2026 shortest metric; city lyon; 3-decimal seconds/meters; ENU ref in mamut-lyon-n25-poi.vrp.json
TYPE : CVRP
DIMENSION : 26
EDGE_WEIGHT_TYPE : EXPLICIT
EDGE_WEIGHT_FORMAT : FULL_MATRIX
CAPACITY : 131
EDGE_WEIGHT_SECTION
0.000 1144.030 3139.068 2803.459 1371.940 1616.326 2283.416 3757.456 944.873 3118.856 2849.295 2867.211 1605.916 1395.845 1687.690 3229.816 4699.062 2626.408 2010.292 4288.451 2709.676 2796.364 1265.068 2575.301 2213.423 3821.578
1813.705 0.000 2775.230 2452.684 2560.210 1179.680 3471.686 3111.775 1999.557 3064.489 2628.818 1723.181 2794.186 2584.115 543.660 4418.086 5887.332 3814.678 1804.728 3144.421 3897.946 3984.634 2344.680 3563.213 2159.057 3281.842
4096.000 3297.783 0.000 5437.417 4580.500 2341.584 5491.976 1179.199 4344.640 6049.222 5713.665 3452.369 4646.349 4427.819 3841.443 6438.375 7368.267 5834.967 4789.461 4533.336 5918.236 6004.923 4660.100 5975.068 5143.790 1062.746
1678.552 1697.551 4319.372 0.000 2483.843 2620.731 3395.318 4713.624 1842.866 1856.308 1520.750 2879.385 2768.074 2744.723 1396.493 4170.582 5825.469 3738.310 596.546 4185.459 3821.579 3908.266 2187.989 3252.471 950.875 4825.984
1318.721 2454.266 4336.448 2730.093 0.000 2926.562 986.157 5043.911 728.221 3045.491 2775.929 4177.448 538.234 862.589 2997.926 1932.557 3631.380 1329.149 1936.927 5598.687 1412.418 1499.105 560.677 2023.436 2140.058 5108.033
2283.756 1228.552 1698.641 3368.186 3020.282 0.000 3931.758 2141.130 2532.396 3979.991 3644.434 1399.437 3167.479 2948.949 1772.212 4878.158 5958.274 4274.750 2720.230 3082.522 4358.018 4444.706 2852.590 4162.824 3074.559 2205.252
2392.121 3527.667 5514.435 3742.125 1251.068 3999.962 0.000 6141.093 1840.885 3600.427 3787.962 5250.848 1197.730 1522.085 4071.327 1611.007 3678.548 999.158 2948.959 6672.088 1082.426 512.948 1811.744 2303.564 3082.541 6205.215
4263.748 3007.232 1220.062 5160.385 5000.274 2530.638 5911.750 0.000 4512.388 5772.191 5436.633 2915.919 5093.037 4874.508 3369.451 6858.150 7814.955 6254.742 4512.429 3540.783 6338.010 6424.698 4832.582 6142.816 4866.758 286.158
1025.465 2161.010 4156.048 2377.786 667.355 2633.306 1578.831 4774.437 0.000 2693.183 2423.622 3884.192 1205.589 1285.789 2704.670 2525.231 4298.735 1921.823 1584.620 5305.431 2005.091 2091.779 357.166 1866.350 1787.751 4838.559
3117.641 3268.842 5798.011 1632.831 2805.427 4192.022 3286.891 6286.107 2566.405 0.000 1235.613 4451.867 3030.110 3354.466 2968.975 3441.388 5318.604 3708.408 1677.214 5100.773 3791.676 3799.839 2817.773 2740.796 1147.354 6397.274
2598.939 2462.595 5148.152 1458.752 2980.485 3541.118 3807.101 5458.920 2325.173 899.468 0.000 3624.681 3321.586 3298.235 2141.789 4034.977 5912.194 4228.618 1053.996 4254.367 4311.886 4320.049 2670.296 3334.385 973.275 5654.764
2945.391 1442.714 3032.946 3377.462 3681.917 1548.921 4593.393 3173.014 3142.740 3989.267 3346.702 0.000 3829.114 3610.584 1398.747 5539.793 6922.260 4936.385 2729.505 1866.336 5019.653 5106.341 3487.863 4706.396 3083.834 3372.822
1671.624 2807.170 4676.059 3082.997 412.692 3279.465 1159.149 5383.522 1081.124 3398.394 3128.833 4530.351 0.000 324.355 3350.830 2105.548 3203.244 1502.140 2289.830 5951.591 1585.409 1672.096 973.369 2375.374 2492.961 5447.645
1984.639 2855.034 4416.585 3396.012 725.708 3200.000 1472.164 5124.049 1394.139 3711.409 3441.848 4390.006 433.133 0.000 3398.694 2418.564 3526.280 1815.156 2602.846 5999.455 1898.424 1985.112 1286.384 2688.389 2805.977 5188.171
1892.128 453.211 3138.769 1991.091 2638.634 1543.219 3550.109 3356.906 2072.657 2602.897 2249.791 1893.527 2872.609 2662.538 0.000 4496.509 5965.756 3893.101 1343.135 3212.352 3976.370 4063.057 2417.780 3636.313 1697.464 3556.713
3663.484 4497.496 6774.538 4340.235 2842.735 5251.796 1988.009 7392.926 3112.247 3496.773 4380.575 6220.678 2789.397 3113.752 4795.535 0.000 3990.179 792.124 3547.068 7584.502 1070.456 2236.874 3141.021 1840.070 3545.687 7457.048
4675.484 5811.030 6925.238 6055.937 3416.553 5708.652 4011.808 7632.701 4084.985 5261.370 6096.277 6898.659 3363.215 3687.570 6354.690 3724.048 0.000 3850.381 5262.771 8581.744 3933.650 3210.832 3977.229 3941.147 5310.285 7696.823
3008.819 4144.365 6139.403 4358.824 2139.445 4616.661 1284.719 6757.791 2457.583 4079.184 4404.660 5867.546 2086.107 2410.462 4688.025 933.037 4078.783 0.000 3565.658 7288.786 404.456 1444.750 2486.357 1825.673 3699.240 6821.913
1820.784 1902.130 4487.897 1126.687 2161.967 2825.310 3055.741 4918.544 1506.654 1259.762 989.941 3084.305 2503.067 2479.716 1601.413 3642.898 5354.522 3416.434 0.000 4390.380 3499.703 3568.689 1851.777 2781.525 354.329 5030.562
4731.708 3224.179 4562.174 4664.162 5478.213 3474.019 6389.689 3492.201 4912.237 4693.349 4018.844 2476.820 5712.189 5502.118 2839.580 7336.089 8805.335 6732.681 4016.206 0.000 6815.949 6902.637 5257.360 6475.892 4326.425 3778.359
3015.386 4150.932 6145.970 4365.391 2183.302 4623.228 1328.576 6764.358 2464.150 3803.526 4411.227 5874.113 2129.964 2454.319 4694.592 528.581 4267.302 486.902 3572.224 7295.353 0.000 1841.524 2492.923 1832.240 3705.807 6828.480
3140.261 4275.807 6262.575 4490.266 1999.208 4748.103 1330.835 6889.233 2589.025 4348.567 4536.102 5998.989 1945.870 2270.225 4819.467 1562.715 3603.127 950.866 3697.100 7420.228 1034.134 0.000 2559.885 2368.691 3830.682 6953.355
968.375 2103.920 4098.958 2318.379 756.101 2576.216 1555.634 4717.346 417.138 2633.777 2364.215 3827.102 1294.335 1374.535 2647.580 2580.558 4043.923 1977.150 1525.213 5248.341 2060.418 2068.582 0.000 1510.912 1728.344 4781.469
1823.414 2958.960 4953.997 3173.418 1288.604 3431.255 1747.416 5572.386 1272.178 2893.778 3219.255 4682.141 1513.288 1837.643 3502.620 2000.820 4267.867 2168.932 2380.252 6103.381 2252.201 2260.364 1300.951 0.000 2513.834 5636.508
2252.876 2404.077 4933.246 1036.015 2356.952 3327.256 3202.013 5430.225 1701.639 905.433 1129.258 3595.986 2698.052 2674.701 2113.094 3595.153 5472.369 3611.419 812.449 4573.062 3694.688 3714.961 2046.762 2894.561 0.000 5532.509
4327.870 3207.039 1284.184 5360.192 5064.396 2594.760 5975.872 286.158 4576.510 5971.998 5636.440 3115.727 5157.159 4938.630 3569.258 6922.272 7879.078 6318.864 4712.236 3826.941 6402.132 6488.820 4896.704 6206.938 5066.565 0.000
NODE_COORD_SECTION
1 135.757630 21.597263
2 925.524907 -664.465151
3 -755.754223 -2463.491125
4 1572.232122 356.712536
5 -210.602233 919.675547
6 147.915374 -1185.142064
7 -550.549337 1522.423208
8 -362.969805 -3120.010774
9 190.540062 677.808509
10 2074.301446 1510.073939
11 2112.517818 724.790285
12 1226.581033 -1760.138503
13 -551.831834 918.829512
14 -588.252048 678.722575
15 1331.992481 -636.438086
16 -133.100240 2408.152359
17 -2625.151057 2450.429506
18 -215.970471 2016.839551
19 1311.527865 586.258915
20 2795.689880 -2582.291274
21 -16.484506 2008.933276
22 -688.801394 1564.083706
23 187.490929 925.365521
24 268.267214 1822.623460
25 1553.680396 844.508492
26 -492.268409 -3111.087982
DEMAND_SECTION
1 0
2 53
3 2
4 7
5 99
6 1
7 80
8 2
9 10
10 2
11 3
12 6
13 59
14 9
15 1
16 5
17 5
18 9
19 93
20 1
21 61
22 4
23 2
24 8
25 3
26 91
DEPOT_SECTION
1
-1
EOF
