NAME : mamut-hong_kong-n50-hyb
COMMENT : Mamut2026 fastest metric; city hong_kong; 3-decimal seconds/meters; ENU ref in mamut-hong_kong-n50-hyb.vrp.json
TYPE : CVRP
DIMENSION : 51
EDGE_WEIGHT_TYPE : EXPLICIT
EDGE_WEIGHT_FORMAT : FULL_MATRIX
CAPACITY : 161
EDGE_WEIGHT_SECTION
0.000 269.455 188.829 833.721 234.449 401.719 457.010 301.285 679.073 422.494 423.882 182.306 268.285 395.768 419.316 459.075 358.665 650.059 442.001 233.019 404.444 658.695 727.577 320.432 759.452 249.017 464.891 277.418 475.118 202.581 235.674 658.995 188.558 835.348 428.707 639.274 178.566 547.433 975.414 639.028 542.850 649.942 641.708 209.345 563.767 385.755 532.410 265.300 142.303 553.025 518.300
266.816 0.000 148.383 866.185 198.191 239.787 355.605 125.740 577.667 260.562 261.950 232.360 96.959 233.837 394.270 300.648 511.007 596.843 527.248 112.152 242.513 496.764 879.918 81.446 597.520 125.371 410.648 192.898 627.459 126.161 123.885 497.064 222.403 867.812 478.295 586.057 177.335 494.217 1022.226 477.097 380.919 488.010 588.492 157.753 510.550 436.172 370.479 82.917 165.237 583.228 356.369
224.865 167.589 0.000 842.324 75.931 299.853 296.134 140.409 518.196 320.628 322.016 131.608 117.904 293.902 394.342 298.199 469.056 636.994 433.476 82.637 302.579 556.829 837.968 165.837 657.586 88.141 439.917 116.470 585.509 52.200 74.798 557.130 105.225 843.951 389.436 626.209 68.967 534.368 936.142 537.162 440.985 548.076 628.643 141.859 550.702 346.483 430.544 153.878 123.929 509.979 416.434
818.832 855.460 798.834 0.000 852.339 987.724 1072.982 917.257 1295.045 1008.499 1009.887 834.141 881.999 981.773 944.352 1048.585 1015.799 641.551 1153.946 848.991 990.450 1038.534 1250.620 910.779 1139.291 864.989 881.848 892.878 1053.720 818.553 851.646 1038.834 852.201 177.697 1136.412 630.766 803.280 558.747 1683.119 1225.033 1128.856 1029.781 635.773 824.904 599.479 1093.460 1118.415 817.555 767.018 1257.095 1104.305
237.644 216.417 81.912 878.580 0.000 362.126 312.088 186.978 534.150 382.902 384.290 150.618 176.748 356.176 432.361 314.153 488.066 671.569 415.785 147.475 364.852 619.103 853.352 212.406 719.860 139.692 477.936 124.103 600.893 117.038 122.861 619.403 87.533 880.208 371.744 660.784 87.977 568.943 918.450 585.395 503.258 610.350 663.218 196.327 585.277 328.791 492.818 216.151 149.037 486.620 478.708
416.110 256.818 298.736 1015.479 347.485 0.000 314.781 326.494 518.645 119.150 103.391 381.654 278.743 112.912 543.565 178.691 660.301 605.490 685.221 262.505 82.697 411.941 1029.213 312.136 512.698 279.089 559.942 342.193 776.754 276.513 278.521 412.241 372.755 1017.106 636.268 594.704 327.687 548.730 1180.199 334.041 237.864 403.188 570.605 307.047 565.063 594.144 227.423 252.663 314.532 741.201 213.313
472.845 346.947 319.491 1095.985 342.378 347.376 0.000 317.509 243.046 266.353 287.792 411.084 307.278 351.864 645.388 178.977 711.455 779.907 622.071 307.701 289.478 586.358 1084.898 342.937 687.115 270.222 651.503 342.790 832.439 297.269 268.736 586.659 371.672 1097.613 573.119 769.122 348.443 723.147 1117.050 294.291 305.326 577.605 745.023 386.928 739.481 530.995 348.701 364.843 371.267 678.052 343.605
297.875 130.321 144.520 921.015 165.600 318.896 310.922 0.000 532.984 339.672 341.060 235.243 92.506 312.946 454.674 312.987 542.065 657.247 483.431 116.988 321.622 575.873 910.977 126.311 676.630 81.555 471.051 164.599 658.518 122.298 80.069 576.173 194.894 922.642 434.479 646.461 172.602 554.621 978.410 556.206 460.028 567.120 648.896 211.957 570.954 392.355 449.588 172.478 196.296 539.412 435.478
662.860 536.962 509.506 1286.000 532.393 535.094 244.651 507.523 0.000 456.368 477.807 601.099 497.293 541.879 835.402 368.992 901.469 969.922 812.086 497.716 479.492 776.373 1274.912 532.951 877.130 460.237 841.518 532.805 1022.453 487.283 458.751 776.673 561.687 1287.627 763.133 959.136 538.457 913.162 1307.064 323.108 334.144 767.620 935.038 576.942 929.496 721.010 377.518 554.858 561.282 868.066 372.422
449.391 290.098 332.016 1048.760 380.766 151.753 274.244 359.775 478.108 0.000 74.484 414.935 312.023 190.907 576.845 134.588 693.582 647.383 718.501 295.785 95.837 453.834 1062.493 345.417 554.591 312.369 593.223 375.473 810.034 309.794 311.802 454.135 406.036 1050.387 669.549 636.598 360.968 590.623 1213.480 367.364 271.186 445.081 612.499 340.328 606.957 627.425 260.746 285.944 347.812 774.481 246.636
419.465 260.173 302.091 1018.834 350.840 104.838 262.870 329.849 466.735 28.688 0.000 385.009 282.098 155.483 546.920 126.780 663.656 616.272 688.576 265.860 50.929 422.723 1032.568 315.491 523.480 282.444 563.297 345.548 780.109 279.868 281.876 423.024 376.110 1020.461 639.623 605.487 331.042 559.512 1183.554 320.449 224.271 413.970 581.388 310.402 575.846 597.499 213.831 256.018 317.887 744.556 199.721
138.716 216.837 94.287 813.740 119.643 349.100 379.658 225.464 601.721 369.876 371.264 0.000 193.331 343.150 368.701 381.723 423.226 616.906 407.423 158.064 351.826 606.077 792.138 245.478 706.834 174.063 414.277 188.330 539.678 127.627 159.853 606.377 91.863 815.367 372.485 606.121 57.075 514.280 919.191 586.410 490.232 597.324 608.555 156.726 530.614 329.532 479.792 212.682 84.196 501.694 465.682
297.757 99.456 144.403 919.751 196.377 309.833 342.565 131.670 564.628 330.608 331.996 235.996 0.000 303.882 447.836 344.630 541.948 650.409 514.208 110.150 312.559 566.809 910.860 93.701 667.566 112.331 464.214 195.376 658.401 122.181 110.846 567.110 218.423 921.378 465.256 639.623 173.355 547.783 1009.187 547.142 450.965 558.056 642.058 211.319 564.116 423.132 440.525 163.414 196.179 570.188 426.414
420.436 261.144 303.062 1007.109 351.811 57.790 326.637 330.820 530.530 159.311 155.563 385.981 283.069 0.000 547.891 189.228 664.627 517.689 689.547 266.831 134.869 324.140 1033.539 316.463 424.897 283.415 564.268 346.519 781.080 280.839 282.848 324.441 377.081 1008.736 640.594 506.904 332.013 460.929 1184.525 370.200 274.023 315.387 482.805 311.373 477.263 598.470 263.583 256.989 318.858 745.527 249.472
434.135 382.536 341.907 952.794 395.411 514.800 616.054 456.827 838.117 535.575 536.963 395.821 409.075 508.849 0.000 575.660 668.981 683.907 740.435 392.063 517.525 751.828 972.497 437.855 852.585 408.062 440.189 435.950 775.598 361.626 394.719 752.129 413.881 954.421 698.093 673.122 364.960 581.281 1244.799 752.109 655.932 743.075 675.556 367.977 597.615 655.140 645.491 344.630 328.698 818.776 631.381
518.496 359.204 390.495 1117.865 413.382 255.525 248.604 388.512 452.497 172.953 194.392 482.088 378.282 258.070 645.951 0.000 762.687 688.623 693.075 364.891 192.506 495.074 1131.599 413.940 595.831 341.226 662.328 413.794 879.140 368.272 339.740 495.375 442.676 1119.493 644.122 677.838 419.447 631.863 1188.054 491.216 395.038 486.321 653.739 409.433 648.197 601.999 384.598 355.049 416.918 749.055 370.488
366.397 518.183 437.557 1006.977 481.920 650.446 694.807 550.013 916.870 671.222 672.610 458.154 517.013 644.496 668.044 696.872 0.000 823.315 501.507 481.746 653.172 891.236 569.636 569.160 991.993 497.745 677.454 526.145 317.177 451.309 484.402 891.537 443.736 1008.604 518.889 812.530 427.293 720.689 1029.611 887.756 791.578 882.483 814.964 458.072 737.023 498.223 781.138 514.028 391.031 665.493 767.028
642.093 592.397 591.287 661.074 644.791 527.261 740.132 666.688 944.025 581.206 577.687 645.017 618.936 484.287 656.547 602.723 839.060 0.000 977.208 602.698 556.993 522.274 1070.648 647.716 623.031 619.282 586.333 679.320 873.748 611.006 618.715 522.575 663.077 662.701 933.978 45.908 614.156 177.292 1477.910 792.665 696.487 513.521 92.183 614.353 192.671 891.855 686.047 554.491 577.894 1038.911 671.937
437.964 515.199 405.300 1153.678 405.223 679.071 609.663 485.761 831.726 698.346 701.234 442.057 475.530 673.120 724.981 611.728 493.393 970.016 0.000 467.867 681.796 936.047 799.506 511.189 1036.804 438.474 770.556 456.977 547.046 437.430 436.988 936.348 350.799 1155.305 72.200 959.231 379.600 867.390 603.922 882.970 820.203 927.294 961.665 511.873 883.724 175.674 809.762 533.095 440.476 332.872 795.652
227.652 117.733 74.298 850.792 127.803 262.024 295.492 109.504 517.555 282.800 284.188 165.891 61.753 256.074 396.593 297.557 471.843 599.166 468.231 0.000 264.750 519.001 840.755 113.900 619.758 54.651 412.970 125.272 588.296 52.076 54.084 519.301 148.318 852.420 419.278 588.380 103.250 496.540 963.209 499.334 403.156 510.248 590.815 141.735 512.873 377.154 392.716 116.049 126.074 524.211 378.606
397.964 238.671 280.589 997.333 329.339 93.692 269.007 308.348 472.872 64.686 41.779 363.508 260.596 127.304 525.418 132.917 642.154 595.956 667.074 244.358 0.000 402.407 1011.066 293.990 503.164 260.942 541.795 324.046 758.607 258.367 260.375 402.708 354.609 998.960 618.121 585.171 309.541 539.196 1162.053 331.733 235.556 393.654 561.072 288.901 555.530 575.998 225.115 234.517 296.385 723.054 211.005
691.994 532.702 574.620 1050.661 623.369 376.923 589.794 602.378 793.687 430.868 427.350 657.538 554.627 333.949 729.370 452.385 910.623 561.241 961.105 538.389 406.656 0.000 1142.210 588.020 178.537 554.973 659.156 618.077 945.311 552.397 554.405 55.508 648.639 1052.288 912.152 550.456 603.571 504.481 1456.083 642.327 546.150 46.455 526.357 582.931 520.815 870.028 535.709 528.547 590.416 1017.085 521.599
731.791 883.577 802.951 1251.783 848.571 1015.841 1071.132 915.407 1293.195 1036.616 1038.004 823.548 882.408 1009.890 981.402 1073.197 571.565 1065.787 808.683 847.141 1018.566 1133.708 0.000 934.554 1234.465 863.139 920.040 891.540 450.693 816.704 849.796 1134.008 807.079 1253.410 826.065 1055.001 792.688 963.161 583.394 1253.150 1156.973 1124.955 1057.436 823.467 979.494 876.916 1146.532 854.605 756.425 1025.790 1132.422
295.469 53.576 168.826 905.450 221.392 287.354 366.714 133.693 588.776 308.129 309.517 260.418 117.401 281.403 433.536 348.214 539.660 636.108 539.223 132.595 290.079 544.330 908.572 0.000 645.087 137.346 449.913 219.800 656.113 146.603 135.861 544.630 242.845 907.077 490.271 625.323 197.777 533.482 1034.202 524.663 428.486 535.577 627.757 196.867 549.816 448.147 418.045 133.580 193.891 595.203 403.935
781.809 622.516 664.434 1140.476 713.184 466.738 679.609 692.193 883.502 520.683 517.164 747.353 644.441 423.764 819.185 542.200 1000.437 651.056 1050.919 628.203 496.470 164.402 1232.025 677.835 0.000 644.787 748.971 707.891 1035.125 642.212 644.220 138.386 738.454 1142.103 1001.966 640.270 693.386 594.296 1545.898 732.142 635.964 155.649 616.171 672.745 610.629 959.843 625.524 618.362 680.230 1106.899 611.414
231.919 134.027 78.565 855.059 132.069 266.291 299.613 113.032 521.676 287.066 288.454 170.158 79.578 260.341 400.860 301.678 476.110 603.433 471.256 44.311 269.017 523.268 845.022 131.725 624.024 0.000 417.237 129.539 592.563 56.342 58.351 523.568 152.584 856.686 422.304 592.647 107.517 500.806 966.235 503.601 407.423 514.514 595.081 146.001 517.140 380.180 396.983 120.316 130.341 527.236 382.873
269.173 129.578 115.819 892.313 136.899 293.450 260.829 100.140 482.892 314.225 315.613 206.541 89.909 287.499 428.019 262.894 513.364 630.591 432.472 90.332 296.175 550.426 882.276 125.568 651.183 52.853 0.000 126.873 629.817 93.596 51.367 550.727 166.192 893.940 383.520 619.806 143.900 527.965 927.451 530.759 434.582 541.673 622.240 183.255 544.299 341.396 424.141 147.474 167.595 488.453 410.031
266.675 194.536 113.321 889.815 129.325 338.689 300.701 165.097 522.764 359.464 360.852 204.914 154.866 332.738 441.834 302.766 510.866 667.897 480.978 121.536 341.414 595.665 879.778 190.525 696.422 117.810 476.683 0.000 627.319 91.099 99.486 595.966 167.137 891.443 432.025 657.111 142.273 565.271 978.731 574.008 479.821 586.912 659.546 180.758 581.604 389.072 469.380 192.713 165.097 542.295 455.270
500.673 652.459 571.833 1086.965 617.453 784.722 840.014 684.289 1062.076 805.498 806.886 592.430 651.289 778.772 802.320 842.079 340.446 900.969 577.564 616.022 787.448 968.890 523.502 703.436 1069.647 632.021 755.222 660.422 0.000 585.585 618.678 969.190 575.961 1088.593 594.946 890.183 561.569 798.343 1090.640 1022.032 925.854 960.137 892.618 592.348 814.676 645.798 915.414 648.304 525.307 810.051 901.304
201.891 115.389 48.537 825.031 102.041 247.653 279.103 112.065 501.166 268.428 269.816 140.129 65.704 241.702 377.049 281.168 446.082 584.795 450.808 30.437 250.379 504.629 814.993 117.851 605.386 47.021 398.599 99.511 562.534 0.000 46.454 504.930 122.556 826.658 406.767 574.009 77.488 482.168 953.474 484.962 388.785 495.876 576.443 115.973 498.502 363.815 378.345 101.678 100.312 520.697 364.234
236.726 117.962 83.372 859.866 104.451 281.833 269.009 88.523 491.072 302.608 303.997 174.094 78.292 275.883 411.884 271.074 480.917 618.975 445.721 78.715 284.559 538.810 849.828 113.951 639.566 41.236 432.779 103.450 597.369 61.149 0.000 539.110 133.745 861.493 396.768 608.189 111.453 516.348 940.700 519.143 422.965 530.056 610.623 150.808 532.682 354.645 412.525 135.858 135.147 501.701 398.415
675.815 516.523 558.441 1034.482 607.190 360.745 573.615 586.199 777.508 414.689 411.171 641.360 538.448 317.771 713.191 436.206 894.444 545.062 944.926 522.210 390.477 45.051 1126.031 571.842 143.779 538.794 642.977 601.898 929.132 536.218 538.226 0.000 632.460 1036.109 895.973 534.277 587.392 488.302 1439.904 626.148 529.971 17.764 510.178 566.752 504.636 853.849 519.530 512.368 574.237 1000.906 505.420
204.686 251.940 103.210 856.418 111.574 384.204 372.753 228.035 594.816 404.979 406.367 128.455 202.255 378.253 411.379 374.818 450.029 659.584 367.583 166.988 386.929 641.180 820.394 253.463 741.937 180.748 456.955 190.174 567.935 136.551 162.424 641.481 0.000 858.045 332.644 648.798 65.998 556.958 879.350 621.513 525.336 632.427 651.233 199.404 573.291 289.692 514.895 238.228 126.874 462.613 500.785
835.051 871.679 815.053 192.289 868.558 1003.943 1089.201 933.476 1311.264 1024.718 1026.106 850.360 898.219 997.992 960.571 1064.804 1032.018 657.771 1170.165 865.210 1006.669 1054.753 1266.839 926.998 1155.510 881.208 898.067 909.097 1069.939 834.773 867.865 1055.053 868.420 0.000 1152.632 646.985 819.499 574.966 1699.338 1241.252 1145.075 1046.000 651.992 841.124 615.698 1109.679 1134.635 833.774 783.237 1273.315 1120.524
417.451 460.641 362.663 1127.747 356.701 624.513 555.105 431.202 777.168 643.788 646.676 399.785 420.972 618.562 682.709 557.170 527.476 916.419 119.324 413.309 627.238 881.489 865.538 456.631 982.246 383.916 725.205 402.419 613.079 382.872 382.430 881.790 308.162 1129.374 0.000 905.633 337.144 813.792 596.512 828.412 765.645 872.736 908.067 469.237 830.126 122.050 755.204 478.537 398.203 282.460 741.094
656.149 606.453 605.343 675.130 658.847 541.317 754.188 680.744 958.081 595.262 591.744 659.073 632.992 498.343 670.603 616.779 853.117 20.294 991.264 616.754 571.050 536.330 1084.704 661.772 637.087 633.338 600.389 693.377 887.804 625.062 632.771 536.631 677.133 676.757 948.035 0.000 628.212 191.348 1491.966 806.721 710.544 527.577 106.239 628.409 206.727 905.911 700.103 568.548 591.950 1052.967 685.993
155.899 193.700 47.711 790.603 90.418 325.964 333.082 178.888 555.145 346.739 348.127 62.641 146.755 320.014 345.565 335.147 400.089 593.770 410.009 111.489 328.690 582.941 769.001 198.902 683.697 127.487 391.140 141.754 516.542 81.051 113.278 583.241 83.841 792.231 368.053 582.984 0.000 491.144 914.759 563.274 467.096 574.187 585.419 133.590 507.477 325.100 456.656 182.729 61.060 488.736 442.546
571.183 521.486 520.376 647.831 573.881 498.138 711.009 595.777 914.902 552.083 548.564 574.106 548.026 455.164 585.636 573.600 768.150 129.159 906.297 531.788 527.870 493.151 999.737 576.805 593.908 548.372 515.422 608.410 802.838 540.096 547.804 493.451 592.166 649.458 863.068 118.374 543.246 0.000 1406.999 763.542 667.364 484.398 94.275 543.443 117.690 820.944 656.924 483.581 506.983 968.001 642.814
958.928 1002.119 904.140 1669.224 898.178 1165.990 1096.582 972.680 1318.645 1185.266 1188.153 941.262 962.449 1160.040 1224.186 1098.647 1017.171 1457.896 590.837 954.787 1168.716 1422.966 1323.284 998.108 1523.723 925.393 1266.682 943.896 1070.825 924.350 923.907 1423.267 849.640 1670.852 541.798 1447.110 878.621 1355.270 0.000 1369.890 1307.122 1414.213 1449.545 1010.714 1371.603 663.528 1296.682 1020.015 939.681 542.059 1282.571
686.697 527.405 569.323 1286.066 618.072 375.518 357.861 597.081 384.879 383.446 388.164 652.241 549.330 426.163 814.152 472.977 930.888 883.504 925.296 533.092 384.411 689.955 1299.800 582.723 790.712 549.676 830.529 612.780 1047.341 547.100 549.108 690.256 643.342 1287.693 876.343 872.719 598.274 826.744 1420.275 0.000 174.568 681.202 848.620 577.634 843.078 834.220 217.942 523.250 585.119 981.276 212.847
579.772 420.480 462.398 1179.141 511.147 268.593 350.808 490.156 377.826 276.521 281.239 545.316 442.405 319.238 707.227 366.052 823.963 776.579 848.883 426.167 277.486 583.030 1192.875 475.798 683.787 442.751 723.604 505.855 940.416 440.175 442.183 583.331 536.417 1180.768 799.930 765.794 491.349 719.819 1343.861 169.863 0.000 574.277 741.695 470.709 736.153 757.806 64.087 416.325 478.194 904.863 65.770
672.784 513.492 555.410 1031.451 604.159 357.714 570.584 583.168 774.477 411.658 408.140 638.329 535.417 314.740 710.160 433.175 891.413 542.031 941.895 519.179 387.446 35.998 1123.000 568.811 159.327 535.763 639.946 598.867 926.101 533.187 535.195 17.764 629.429 1033.078 892.942 531.246 584.361 485.271 1436.873 623.117 526.940 0.000 507.147 563.721 501.605 850.818 516.499 509.337 571.206 997.875 502.389
638.264 588.568 587.457 671.332 640.962 507.600 720.470 662.858 924.363 561.545 558.026 641.187 615.107 464.626 652.717 583.061 835.231 78.758 973.378 598.869 537.332 502.613 1066.818 643.886 603.370 615.453 582.503 675.491 869.919 607.177 614.885 502.913 659.248 672.959 930.149 67.972 610.327 157.631 1474.080 773.004 676.826 493.860 0.000 610.524 191.452 888.025 666.386 550.662 574.064 1035.082 652.276
218.289 169.926 114.940 840.244 168.444 302.189 368.922 213.197 590.985 322.965 324.353 183.833 180.198 296.239 392.262 363.050 462.480 643.410 517.211 144.931 304.915 559.166 831.392 225.244 659.923 160.929 410.724 189.330 578.933 114.494 147.586 559.466 188.959 841.871 473.171 632.625 143.892 540.784 1019.877 539.499 443.321 550.413 635.059 0.000 557.118 430.218 432.881 132.020 116.711 593.854 418.771
575.164 525.468 524.358 604.655 577.862 531.525 744.395 599.759 948.288 585.470 581.951 578.088 552.007 488.551 589.618 606.986 772.131 189.987 910.279 535.769 561.257 526.538 1003.719 580.787 627.295 552.353 519.404 612.391 806.819 544.077 551.786 526.838 596.148 606.282 867.049 179.202 547.227 73.708 1410.981 796.929 700.751 517.785 167.983 547.424 0.000 824.926 690.311 487.562 510.965 971.982 676.201
402.314 445.504 347.525 1112.610 341.564 609.375 539.968 416.065 762.030 628.651 631.539 384.647 405.835 603.425 667.571 542.033 512.339 901.281 190.312 398.172 612.101 866.352 860.388 441.493 967.109 368.779 710.068 387.282 607.928 367.735 367.293 866.652 293.025 1114.237 153.614 890.496 322.006 798.655 700.320 813.275 750.507 857.599 892.930 454.099 814.989 0.000 740.067 463.400 383.066 334.099 725.957
549.575 390.282 432.200 1148.944 480.950 238.396 337.246 459.959 364.264 246.324 251.041 515.119 412.207 289.041 677.029 335.855 793.766 746.382 818.685 395.969 247.289 552.833 1162.677 445.601 653.590 412.553 693.407 475.657 910.218 409.978 411.986 553.133 506.220 1150.571 769.733 735.596 461.152 689.622 1313.664 156.301 55.360 544.080 711.498 440.512 705.956 727.609 0.000 386.128 447.996 874.665 35.573
261.426 105.442 151.974 826.297 200.724 237.706 366.816 179.733 588.879 258.481 259.869 226.971 131.981 231.755 354.382 298.567 505.617 556.955 538.459 115.743 240.432 494.682 846.000 160.761 595.439 132.327 370.760 195.431 622.070 129.752 131.760 494.983 225.994 827.924 489.507 546.169 180.926 454.329 1033.438 475.015 378.838 485.929 548.604 117.865 470.662 447.383 368.397 0.000 159.848 594.439 354.287
147.756 185.558 59.140 782.461 102.108 317.821 344.511 190.318 566.574 338.597 339.985 77.085 158.185 311.871 337.422 346.576 391.947 585.627 421.699 122.918 320.547 574.798 760.858 210.332 675.555 138.917 382.998 153.184 508.399 92.481 124.707 575.098 95.146 784.088 379.357 574.841 46.225 483.001 926.063 555.131 458.953 566.045 577.276 125.447 499.334 336.404 448.513 181.403 0.000 500.040 434.403
522.322 556.107 464.239 1235.731 454.331 719.978 650.570 526.668 872.633 739.254 742.142 507.769 516.438 714.028 790.693 652.635 632.347 1011.884 331.121 510.939 722.704 976.955 1005.790 552.096 1077.712 479.381 820.671 500.049 753.331 480.502 477.896 977.255 416.147 1237.359 284.718 1001.098 445.128 909.258 540.772 923.878 861.110 968.202 1003.533 570.161 925.592 322.298 850.670 574.003 506.188 0.000 836.560
535.669 376.377 418.295 1135.038 467.044 224.490 308.505 446.053 335.523 232.418 237.136 501.213 398.302 275.135 663.124 321.949 779.860 732.476 804.780 382.064 233.383 538.927 1148.772 431.695 639.684 398.648 679.501 461.752 896.313 396.072 398.080 539.228 492.314 1136.665 755.827 721.691 447.246 675.716 1299.758 127.560 24.550 530.174 697.592 426.606 692.050 713.703 66.914 372.222 434.091 860.760 0.000
NODE_COORD_SECTION
1 1438.942575 -1211.855723
2 1882.012250 -5979.995779
3 858.614156 -3739.175638
4 11702.106575 3237.190405
5 151.651824 -3445.452972
6 2659.333168 -8113.573634
7 -3154.229262 -8000.388369
8 811.510910 -5751.510925
9 -3072.095738 -9744.042350
10 945.995817 -8519.911428
11 1242.905609 -8521.008912
12 1075.622856 -2357.237710
13 1328.347890 -5552.596466
14 3340.165439 -7563.027616
15 3689.195135 -3012.485751
16 -92.970191 -7399.566658
17 2710.852844 2335.381988
18 10487.178738 -5544.548763
19 -4249.754269 2253.107529
20 1311.048820 -5083.128519
21 1684.953721 -8302.278803
22 7797.521317 -9945.396614
23 724.394253 10642.915879
24 1390.069746 -6242.620690
25 9158.652102 -10012.655047
26 1119.949307 -5171.199471
27 449.570355 -4626.287117
28 502.816003 -4209.259399
29 4153.445942 4643.860311
30 1171.287585 -4678.538248
31 745.995799 -4885.848309
32 7828.746437 -10016.859511
33 -29.221863 -2391.148717
34 10623.115236 3572.894974
35 -5226.507032 1960.699124
36 10500.373146 -5399.411380
37 892.606073 -2883.892606
38 10331.434941 -4045.585427
39 -7585.697083 8044.947281
40 -121.585522 -11006.930656
41 755.655600 -11578.364016
42 7634.053751 -10035.205360
43 10224.381696 -5262.960447
44 2272.682943 -4059.664925
45 10017.413834 -2829.149740
46 -3303.477536 436.908092
47 1285.714345 -11483.928906
48 2421.721709 -5270.634401
49 1534.823499 -3052.159105
50 -8005.749412 733.398510
51 950.148116 -11376.851647
DEMAND_SECTION
1 0
2 4
3 7
4 81
5 8
6 2
7 10
8 6
9 4
10 1
11 1
12 1
13 10
14 1
15 1
16 5
17 9
18 7
19 6
20 2
21 2
22 10
23 5
24 9
25 4
26 9
27 1
28 8
29 3
30 3
31 55
32 7
33 1
34 2
35 4
36 9
37 5
38 9
39 2
40 7
41 1
42 73
43 2
44 8
45 59
46 3
47 4
48 4
49 4
50 72
51 6
DEPOT_SECTION
1
-1
EOF
