NAME : mamut-lyon-n10-hyb
COMMENT : Mamut2026 euclidean metric; city lyon; 3-decimal seconds/meters; ENU ref in mamut-lyon-n10-hyb.vrp.json
TYPE : CVRP
DIMENSION : 11
EDGE_WEIGHT_TYPE : EXPLICIT
EDGE_WEIGHT_FORMAT : FULL_MATRIX
CAPACITY : 133
EDGE_WEIGHT_SECTION
0.000 3010.099 1309.979 3075.129 1090.272 707.424 3193.699 3469.848 2824.405 4174.979 4980.269
3010.099 0.000 2182.482 5898.479 1919.828 3115.454 4543.771 6055.310 3746.677 6698.403 6465.675
1309.979 2182.482 0.000 3753.527 851.293 1860.907 2641.256 4779.496 1996.340 4518.557 4584.130
3075.129 5898.479 3753.527 0.000 4066.528 3449.519 3012.402 3781.380 3461.088 1425.927 3612.519
1090.272 1919.828 851.293 4066.528 0.000 1320.313 3447.175 4344.183 2841.289 5026.837 5371.893
707.424 3115.454 1860.907 3449.519 1320.313 0.000 3897.861 3023.886 3526.022 4670.256 5659.573
3193.699 4543.771 2641.256 3012.402 3447.175 3897.861 0.000 5982.549 833.675 2842.578 1949.497
3469.848 6055.310 4779.496 3781.380 4344.183 3023.886 5982.549 0.000 5954.843 5183.122 7228.148
2824.405 3746.677 1996.340 3461.088 2841.289 3526.022 833.675 5954.843 0.000 3551.670 2719.003
4174.979 6698.403 4518.557 1425.927 5026.837 4670.256 2842.578 5183.122 3551.670 0.000 2612.344
4980.269 6465.675 4584.130 3612.519 5371.893 5659.573 1949.497 7228.148 2719.003 2612.344 0.000
NODE_COORD_SECTION
1 135.757630 21.597263
2 3126.301013 -320.961717
3 1031.708687 -934.078618
4 -2716.863800 -1126.865821
5 1218.816766 -103.602618
6 192.304429 726.757575
7 -455.388500 -3116.914840
8 -2169.781890 2614.729357
9 314.521719 -2797.145236
10 -3221.170322 -2460.636246
11 -1721.289846 -4599.490878
DEMAND_SECTION
1 0
2 4
3 2
4 84
5 7
6 80
7 1
8 10
9 7
10 86
11 3
DEPOT_SECTION
1
-1
EOF
