NAME : mamut-hong_kong-n10-poi
COMMENT : Mamut2026 fastest metric; city hong_kong; 3-decimal seconds/meters; ENU ref in mamut-hong_kong-n10-poi.vrp.json
TYPE : CVRP
DIMENSION : 11
EDGE_WEIGHT_TYPE : EXPLICIT
EDGE_WEIGHT_FORMAT : FULL_MATRIX
CAPACITY : 174
EDGE_WEIGHT_SECTION
0.000 442.755 402.792 394.120 743.008 558.750 229.136 211.546 265.231 193.136 288.936
434.242 0.000 643.907 635.235 815.686 799.865 315.206 526.442 456.667 508.032 467.503
414.322 681.536 0.000 86.597 1042.855 248.655 406.609 394.797 292.929 376.387 280.562
413.936 681.151 114.759 0.000 1042.470 318.435 406.224 394.412 292.543 376.002 280.176
754.243 837.698 1039.366 1030.694 0.000 1056.214 823.250 815.381 901.805 796.971 925.510
620.205 887.420 306.208 324.543 1085.852 0.000 612.493 584.316 498.812 565.906 486.445
224.174 419.351 356.036 347.364 852.707 511.993 0.000 239.252 170.803 220.842 199.288
194.653 522.223 351.781 343.110 749.687 486.435 230.557 0.000 231.684 41.781 248.591
261.082 477.633 277.665 268.993 889.615 433.623 217.389 261.652 0.000 243.242 101.261
209.453 537.023 366.581 357.910 764.487 501.235 245.357 24.595 246.484 0.000 263.391
286.869 501.568 279.826 271.154 915.402 435.784 243.320 277.957 123.954 259.546 0.000
NODE_COORD_SECTION
1 1438.942575 -1211.855723
2 -4415.099914 1944.501146
3 2778.714044 -8100.253578
4 1443.277292 -8294.407818
5 606.034796 10526.327715
6 6561.511056 -7289.594582
7 -181.747946 -2709.100330
8 3257.491473 -2677.133727
9 1031.663679 -5147.375549
10 3329.414601 -2450.566266
11 1505.217621 -5856.468499
DEMAND_SECTION
1 0
2 7
3 84
4 5
5 2
6 9
7 6
8 10
9 1
10 9
11 7
DEPOT_SECTION
1
-1
EOF
