NAME : poryos-lyon-n25-poi
COMMENT : Poryos2026 euclidean metric; city lyon; 3-decimal seconds/meters; ENU ref in poryos-lyon-n25-poi.vrp.json
TYPE : CVRP
DIMENSION : 26
EDGE_WEIGHT_TYPE : EXPLICIT
EDGE_WEIGHT_FORMAT : FULL_MATRIX
CAPACITY : 131
EDGE_WEIGHT_SECTION
0.000 1046.142 2640.162 1475.046 962.554 1206.801 1650.302 3180.948 658.494 2444.078 2098.109 2089.133 1130.400 977.754 1365.280 2401.651 3677.206 2026.007 1304.331 3722.294 1993.159 1749.046 905.248 1805.894 1639.417 3195.017
1046.142 0.000 2462.355 1208.732 1949.432 935.832 2638.423 2773.071 1530.327 2459.331 1827.288 1136.281 2165.503 2023.777 407.433 3249.872 4723.332 2914.173 1308.934 2678.726 2834.509 2751.814 1752.785 2572.469 1634.497 2827.738
2640.162 2462.355 0.000 3656.921 3426.807 1565.502 3991.193 765.047 3280.737 4878.364 4288.604 2103.416 3388.462 3146.675 2774.312 4911.274 5257.496 4512.730 3684.377 3553.431 4533.111 4028.131 3517.678 4406.745 4034.396 699.147
1475.046 1208.732 3656.921 0.000 1869.606 2099.046 2421.793 3979.021 1418.512 1257.901 653.751 2144.885 2197.185 2184.349 1021.794 2667.689 4690.594 2440.018 347.359 3183.487 2292.129 2563.205 1496.955 1961.943 488.149 4035.815
962.554 1949.432 3426.807 1869.606 0.000 2135.133 692.003 4042.559 468.417 2359.948 2331.280 3040.871 341.231 447.971 2191.139 1490.493 2858.890 1097.177 1558.219 4615.362 1106.419 802.456 398.134 1022.072 1765.883 4040.593
1206.801 935.832 1565.502 2099.046 2135.133 0.000 2796.205 2001.180 1863.438 3312.877 2739.983 1222.350 2217.283 2003.980 1305.034 3604.266 4572.448 3222.592 2119.400 2993.783 3198.303 2873.732 2110.879 3010.172 2468.938 2029.557
1650.302 2638.423 3991.193 2421.793 692.003 2796.205 0.000 4646.222 1123.649 2624.880 2779.954 3732.747 603.595 844.543 2864.375 979.173 2272.701 596.985 2084.163 5295.847 722.438 144.393 949.306 872.113 2210.735 4633.878
3180.948 2773.071 765.047 3979.021 4042.559 2001.180 4646.222 0.000 3837.943 5232.397 4572.804 2091.871 4043.254 3805.408 3006.831 5532.940 6012.260 5138.953 4066.986 3204.103 5140.634 4695.413 4082.656 4982.780 4403.517 129.606
658.494 1530.327 3280.737 1418.512 468.417 1863.438 1123.649 3837.943 0.000 2059.423 1922.552 2648.956 780.517 778.793 1740.735 1760.350 3327.206 1399.377 1124.720 4173.135 1347.127 1248.489 247.576 1147.451 1373.295 3849.930
2444.078 2459.331 4878.364 1257.901 2359.948 3312.877 2624.880 5232.397 2059.423 0.000 786.213 3378.301 2691.867 2789.325 2271.241 2383.100 4792.611 2345.668 1198.022 4155.461 2149.476 2763.631 1975.332 1832.879 844.999 5286.059
2098.109 1827.288 4288.604 653.751 2331.280 2739.983 2779.954 4572.804 1922.552 786.213 0.000 2638.135 2671.406 2701.163 1569.128 2806.512 5042.156 2662.940 812.881 3376.909 2486.297 2924.347 1935.448 2146.275 571.517 4636.688
2089.133 1136.281 2103.416 2144.885 3040.871 1222.350 3732.747 2091.871 2648.956 3378.301 2638.135 0.000 3215.528 3040.010 1128.634 4384.448 5706.551 4043.083 2347.935 1771.451 3968.767 3836.554 2879.521 3708.713 2625.106 2186.209
1130.400 2165.503 3388.462 2197.185 341.231 2217.283 603.595 4043.254 780.517 2691.867 2671.406 3215.528 0.000 242.853 2442.878 1547.068 2577.683 1148.229 1892.805 4843.939 1214.464 659.631 739.352 1220.412 2106.824 4030.358
977.754 2023.777 3146.675 2184.349 447.971 2003.980 844.543 3805.408 778.793 2789.325 2701.163 3040.010 242.853 0.000 2327.442 1788.321 2699.612 1388.939 1902.029 4699.497 1447.888 891.052 814.009 1429.033 2148.339 3791.026
1365.280 407.433 2774.312 1021.794 2191.139 1305.034 2864.375 3006.831 1740.735 2271.241 1569.128 1128.634 2442.878 2327.442 0.000 3378.761 5018.739 3071.819 1222.868 2434.903 2969.239 2987.625 1936.263 2679.271 1497.447 3074.381
2401.651 3249.872 4911.274 2667.689 1490.493 3604.266 979.173 5532.940 1760.350 2383.100 2806.512 4384.448 1547.068 1788.321 3378.761 0.000 2492.409 399.991 2325.134 5786.393 415.903 1010.572 1517.048 709.887 2300.046 5530.915
3677.206 4723.332 5257.496 4690.594 2858.890 4572.448 2272.701 6012.260 3327.206 4792.611 5042.156 5706.551 2577.683 2699.612 5018.739 2492.409 0.000 2447.887 4355.752 7396.877 2645.763 2129.568 3199.496 2960.745 4476.786 5956.481
2026.007 2914.173 4512.730 2440.018 1097.177 3222.592 596.985 5138.953 1399.377 2345.668 2662.940 4043.083 1148.229 1388.939 3071.819 399.991 2447.887 0.000 2092.800 5497.463 199.643 654.643 1163.657 521.734 2122.740 5135.366
1304.331 1308.934 3684.377 347.359 1558.219 2119.400 2084.163 4066.986 1124.720 1198.022 812.881 2347.935 1892.805 1902.029 1222.868 2325.134 4355.752 2092.800 0.000 3498.921 1946.181 2226.535 1174.075 1617.711 354.021 4113.886
3722.294 2678.726 3553.431 3183.487 4615.362 2993.783 5295.847 3204.103 4173.135 4155.461 3376.909 1771.451 4843.939 4699.497 2434.903 5786.393 7396.877 5497.463 3498.921 0.000 5384.020 5416.097 4371.082 5078.498 3644.934 3330.210
1993.159 2834.509 4533.111 2292.129 1106.419 3198.303 722.438 5140.634 1347.127 2149.476 2486.297 3968.767 1214.464 1447.888 2969.239 415.903 2645.763 199.643 1946.181 5384.020 0.000 806.164 1102.599 340.286 1954.815 5142.080
1749.046 2751.814 4028.131 2563.205 802.456 2873.732 144.393 4695.413 1248.489 2763.631 2924.347 3836.554 659.631 891.052 2987.625 1010.572 2129.568 654.643 2226.535 5416.097 806.164 0.000 1084.366 991.374 2355.104 4679.301
905.248 1752.785 3517.678 1496.955 398.134 2110.879 949.306 4082.656 247.576 1975.332 1935.448 2879.521 739.352 814.009 1936.263 1517.048 3199.496 1163.657 1174.075 4371.082 1102.599 1084.366 0.000 900.887 1368.580 4093.291
1805.894 2572.469 4406.745 1961.943 1022.072 3010.172 872.113 4982.780 1147.451 1832.879 2146.275 3708.713 1220.412 1429.033 2679.271 709.887 2960.745 521.734 1617.711 5078.498 340.286 991.374 900.887 0.000 1615.239 4991.986
1639.417 1634.497 4034.396 488.149 1765.883 2468.938 2210.735 4403.517 1373.295 844.999 571.517 2625.106 2106.824 2148.339 1497.447 2300.046 4476.786 2122.740 354.021 3644.934 1954.815 2355.104 1368.580 1615.239 0.000 4453.386
3195.017 2827.738 699.147 4035.815 4040.593 2029.557 4633.878 129.606 3849.930 5286.059 4636.688 2186.209 4030.358 3791.026 3074.381 5530.915 5956.481 5135.366 4113.886 3330.210 5142.080 4679.301 4093.291 4991.986 4453.386 0.000
NODE_COORD_SECTION
1 135.757630 21.597263
2 925.524907 -664.465151
3 -755.754223 -2463.491125
4 1572.232122 356.712536
5 -210.602233 919.675547
6 147.915374 -1185.142064
7 -550.549337 1522.423208
8 -362.969805 -3120.010774
9 190.540062 677.808509
10 2074.301446 1510.073939
11 2112.517818 724.790285
12 1226.581033 -1760.138503
13 -551.831834 918.829512
14 -588.252048 678.722575
15 1331.992481 -636.438086
16 -133.100240 2408.152359
17 -2625.151057 2450.429506
18 -215.970471 2016.839551
19 1311.527865 586.258915
20 2795.689880 -2582.291274
21 -16.484506 2008.933276
22 -688.801394 1564.083706
23 187.490929 925.365521
24 268.267214 1822.623460
25 1553.680396 844.508492
26 -492.268409 -3111.087982
DEMAND_SECTION
1 0
2 53
3 2
4 7
5 99
6 1
7 80
8 2
9 10
10 2
11 3
12 6
13 59
14 9
15 1
16 5
17 5
18 9
19 93
20 1
21 61
22 4
23 2
24 8
25 3
26 91
DEPOT_SECTION
1
-1
EOF
