NAME : poryos-paris-n50-hyb
COMMENT : Poryos2026 euclidean metric; city paris; 3-decimal seconds/meters; ENU ref in poryos-paris-n50-hyb.vrp.json
TYPE : CVRP
DIMENSION : 51
EDGE_WEIGHT_TYPE : EXPLICIT
EDGE_WEIGHT_FORMAT : FULL_MATRIX
CAPACITY : 151
EDGE_WEIGHT_SECTION
0.000 2113.240 4213.906 1422.678 3502.530 4099.446 320.021 3455.284 3695.402 4726.708 2843.429 2426.273 3347.939 6030.308 9036.074 4228.208 5343.718 1032.439 3668.415 3187.435 2504.529 2894.600 7438.415 1296.738 2359.420 3834.594 6433.628 7003.006 7861.969 8421.483 7678.983 2891.446 7405.878 8270.873 3915.505 9509.888 4576.571 5526.084 5389.591 4816.822 8130.572 4873.851 4426.645 2527.900 5788.099 7603.825 8403.953 6553.698 7586.751 4159.783 2742.776
2113.240 0.000 5872.479 3410.083 5421.732 6212.323 1887.055 2288.263 5254.490 5623.907 4760.021 3322.083 5297.084 8030.421 9331.276 5818.154 6186.199 3056.444 4402.431 4957.904 4616.513 4780.613 7828.568 3346.999 4456.895 5641.420 5160.570 5322.206 6386.105 8311.513 6020.712 2355.747 5825.304 7270.014 4739.956 10949.795 5991.394 7349.140 4178.181 6423.236 9898.775 3410.612 6514.775 2725.402 5145.222 8051.258 7160.185 6997.466 8087.489 2088.640 2829.824
4213.906 5872.479 0.000 4152.092 1244.783 3194.936 4235.204 5605.788 6027.123 2333.517 4622.463 2812.384 4675.302 2815.575 12381.558 253.077 8418.552 3242.831 2625.092 1059.884 2965.666 4750.085 10791.222 3071.794 2722.304 666.983 10646.685 11129.493 12057.735 12165.190 11818.929 4680.939 11573.360 12453.522 2409.386 5325.444 6914.354 1603.067 6744.268 616.498 4032.417 6828.304 2659.336 3771.145 5984.525 10881.925 12617.031 4311.754 10806.484 7442.612 3873.207
1422.678 3410.083 4152.092 0.000 3112.488 3000.242 1738.245 4865.997 2425.773 5326.241 1421.693 3330.766 1927.347 5300.170 8353.380 4249.710 4458.844 1281.091 4476.359 3102.978 1544.724 1478.110 6746.807 1239.833 1586.814 3603.519 6910.566 7753.586 8429.313 8020.519 8392.455 4243.007 8066.520 8481.352 4639.796 9438.435 3354.731 5135.252 6779.225 4764.956 7720.128 6292.195 3501.736 3731.479 7048.976 6868.978 8783.456 7331.545 6818.394 5495.987 3955.107
3502.530 5421.732 1244.783 3112.488 0.000 2043.966 3608.714 5653.335 4809.029 3335.841 3407.063 2898.159 3434.632 2636.725 11195.837 1446.302 7228.164 2471.013 3225.355 721.671 1767.823 3534.990 9615.103 2228.174 1569.623 580.723 9870.476 10505.448 11336.653 11054.816 11180.175 4744.800 10900.674 11561.272 3128.780 6343.806 5683.708 2050.660 7085.373 1785.312 4660.299 7003.573 1676.529 3850.800 6597.091 9695.199 11802.106 5410.773 9613.091 7220.062 4010.575
4099.446 6212.323 3194.936 3000.242 2043.966 0.000 4338.351 7070.227 3551.070 5379.555 2361.611 4573.118 2073.319 2621.026 9914.218 3429.384 6012.946 3223.028 5172.141 2693.750 1596.770 2466.333 8404.450 2930.784 1797.726 2552.857 9815.020 10741.213 11357.911 10075.083 11369.985 6232.459 11030.979 11194.103 5122.012 7574.728 4258.364 3143.454 8733.673 3602.663 5369.225 8496.440 773.225 5421.845 8464.270 8433.162 11610.426 7451.863 8319.565 8231.594 5618.395
320.021 1887.055 4235.204 1738.245 3608.714 4338.351 0.000 3135.429 4010.277 4585.666 3159.816 2243.247 3660.533 6178.709 9258.495 4230.361 5609.796 1176.029 3487.693 3235.347 2741.789 3212.609 7666.454 1462.873 2570.836 3900.060 6424.125 6919.303 7822.533 8593.793 7602.354 2578.747 7344.334 8315.554 3752.865 9496.186 4885.975 5604.591 5070.138 4827.499 8197.914 4555.409 4627.964 2254.620 5488.682 7838.682 8408.620 6358.669 7827.230 3897.917 2464.935
3455.284 2288.263 5605.788 4865.997 5653.335 7070.227 3135.429 0.000 7108.367 4459.334 6285.853 2811.039 6770.845 8239.948 11619.172 5459.226 8378.420 3940.657 3310.437 4998.611 5559.834 6343.847 10110.128 4208.460 5295.339 5639.462 7038.894 6773.241 8020.039 10577.230 7456.026 925.914 7372.339 9246.613 3661.172 10023.569 7944.753 7207.221 1971.590 6013.908 9512.979 1443.744 7130.647 1839.093 2884.186 10328.669 8973.685 5262.246 10359.480 2208.138 1736.287
3695.402 5254.490 6027.123 2425.773 4809.029 3551.070 4010.277 7108.367 0.000 7603.041 1404.681 5747.090 1483.807 6169.409 6423.271 6188.794 2474.523 3691.725 6856.028 5084.061 3063.435 1277.161 4876.696 3592.879 3331.438 5383.194 6982.912 8236.743 8540.815 6528.195 8767.577 6586.664 8367.402 7970.296 6988.317 11012.081 940.447 6546.613 9066.656 6593.615 8911.967 8485.087 4309.110 6143.623 9453.288 4927.086 8543.803 9663.234 4830.055 7271.812 6366.365
4726.708 5623.907 2333.517 5326.241 3335.841 5379.555 4585.666 4459.334 7603.041 0.000 6251.786 2377.048 6459.264 5035.324 13650.919 2081.142 9785.000 4090.787 1227.559 2725.311 4672.443 6370.667 12042.874 4086.411 4356.383 2870.520 10763.308 10896.623 12007.160 13141.676 11596.017 3649.477 11430.436 12796.716 883.958 5564.636 8538.602 3627.262 4998.318 2303.609 5354.887 5342.168 4944.395 2935.584 3895.446 12179.057 12767.559 2104.122 12136.203 6609.398 2894.974
2843.429 4760.021 4622.463 1421.693 3407.063 2361.611 3159.816 6285.853 1404.681 6251.786 0.000 4543.865 544.962 4958.048 7801.315 4784.784 3835.434 2527.408 5579.323 3686.009 1659.299 127.928 6234.408 2363.834 1934.523 3979.692 7565.351 8619.777 9123.066 7787.252 9214.400 5641.549 8849.479 8847.954 5681.887 9651.626 2309.078 5195.809 8189.292 5190.606 7632.436 7713.716 3068.939 5071.608 8385.383 6301.456 9300.145 8331.697 6213.171 6847.141 5295.106
2426.273 3322.083 2812.384 3330.766 2898.159 4573.118 2243.247 2811.039 5747.090 2377.048 4543.865 0.000 4897.767 5438.529 11454.297 2687.203 7694.492 2055.376 1244.844 2210.674 3283.666 4642.960 9852.774 2180.765 2964.528 2832.750 8412.971 8641.420 9698.599 10836.077 9340.576 1885.990 9146.837 10423.732 1517.929 7638.882 6682.002 4406.773 4201.592 3268.636 6793.930 4113.329 4481.130 973.254 3940.873 10010.564 10417.115 4127.650 9985.730 4657.878 1114.450
3347.939 5297.084 4675.302 1927.347 3434.632 2073.319 3660.533 6770.845 1483.807 6459.264 544.962 4897.767 0.000 4694.283 7891.578 4858.724 3956.506 2936.200 5871.299 3810.429 1788.687 563.685 6356.709 2739.223 2103.057 4015.240 8032.688 9124.136 9593.671 8001.902 9709.864 6097.757 9338.451 9242.134 5945.792 9545.153 2271.210 5078.712 8654.594 5213.556 7428.384 8205.078 2826.323 5486.976 8786.193 6399.739 9730.474 8556.051 6296.215 7385.164 5709.130
6030.308 8030.421 2815.575 5300.170 2636.725 2621.026 6178.709 8239.948 6169.409 5035.324 4958.048 5438.529 4694.283 0.000 12490.653 3040.825 8622.162 5008.036 5437.930 3243.365 3755.562 5069.310 11003.933 4733.767 3757.455 2607.424 12210.462 12985.377 13723.273 12695.666 13643.973 7319.517 13337.322 13719.454 5223.370 5213.532 6840.437 1465.585 9528.182 2734.274 2803.605 9544.055 1889.630 6410.299 8796.922 11021.413 14073.517 6771.554 10900.295 9856.727 6547.683
9036.074 9331.276 12381.558 8353.380 11195.837 9914.218 9258.495 11619.172 6423.271 13650.919 7801.315 11454.297 7891.578 12490.653 0.000 12519.580 3967.912 9560.346 12685.947 11381.629 9429.174 7674.044 1608.169 9583.423 9659.294 11759.056 6550.203 8179.486 7422.417 1872.815 8230.168 11522.077 7803.818 5450.565 12903.812 17434.542 5656.361 12968.275 13471.675 12968.826 15277.252 12624.925 10685.634 11474.462 14446.163 1500.642 6497.407 15577.327 1595.699 10553.081 11667.853
4228.208 5818.154 253.077 4249.710 1446.302 3429.384 4230.361 5459.226 6188.794 2081.142 4784.784 2687.203 4858.724 3040.825 12519.580 0.000 8561.444 3283.121 2413.968 1147.795 3125.494 4911.940 10925.128 3131.295 2867.429 882.430 10652.471 11098.350 12048.164 12269.775 11790.248 4536.978 11552.847 12487.797 2183.548 5284.777 7084.754 1774.463 6548.125 605.326 4116.445 6656.409 2907.374 3632.447 5756.097 11021.192 12630.382 4061.946 10949.389 7336.963 3723.307
5343.718 6186.199 8418.552 4458.844 7228.164 6012.946 5609.796 8378.420 2474.523 9785.000 3835.434 7694.492 3956.506 8622.162 3967.912 8561.444 0.000 5710.828 8894.913 7428.879 5462.038 3708.518 2403.076 5698.626 5696.671 7792.483 5826.720 7358.006 7275.309 4126.275 7738.596 8083.226 7297.525 6184.432 9082.155 13480.498 1833.899 9017.199 10333.308 9002.876 11380.512 9596.618 6776.875 7864.335 11041.860 2467.322 6956.060 11773.508 2388.079 7883.963 8074.300
1032.439 3056.444 3242.831 1281.091 2471.013 3223.028 1176.029 3940.657 3691.725 4090.787 2527.408 2055.376 2936.200 5008.036 9560.346 3283.121 5710.828 0.000 3197.706 2194.878 1646.183 2617.158 7952.239 294.568 1428.722 2821.412 7432.235 8034.567 8878.458 9111.487 8709.266 3192.583 8432.209 9210.732 3371.772 8564.222 4626.904 4501.458 5754.597 3854.943 7109.385 5384.071 3462.578 2551.268 5859.108 8088.886 9387.701 6063.899 8048.276 5020.737 2773.850
3668.415 4402.431 2625.092 4476.359 3225.355 5172.141 3487.693 3310.437 6856.028 1227.559 5579.323 1244.844 5871.299 5437.930 12685.947 2413.968 8894.913 3197.706 0.000 2511.139 4140.902 5688.370 11082.202 3264.051 3812.260 2932.323 9550.907 9669.078 10782.475 12080.905 10368.487 2457.261 10203.487 11604.203 356.622 6739.073 7796.175 4175.251 4147.545 2871.240 6267.155 4337.347 4901.531 1708.546 3393.507 11235.120 11554.337 2891.385 11205.817 5416.477 1677.565
3187.435 4957.904 1059.884 3102.978 721.671 2693.750 3235.347 4998.611 5084.061 2725.311 3686.009 2210.674 3810.429 3243.365 11381.629 1147.795 7428.879 2194.878 2511.139 0.000 2035.482 3811.702 9784.665 2013.723 1752.657 685.341 9618.785 10152.612 11047.312 11122.375 10837.150 4080.924 10578.850 11401.833 2432.743 6383.740 5994.485 2391.377 6378.439 1676.372 4965.261 6323.934 2392.369 3176.190 5876.190 9884.524 11580.664 4825.132 9815.828 6660.181 3325.033
2504.529 4616.513 2965.666 1544.724 1767.823 1596.770 2741.789 5559.834 3063.435 4672.443 1659.299 3283.666 1788.687 3755.562 9429.174 3125.494 5462.038 1646.183 4140.902 2035.482 0.000 1786.455 7847.304 1360.954 328.687 2330.767 8455.284 9273.062 9972.310 9306.066 9919.917 4764.769 9601.092 9998.539 4187.670 8085.455 3963.009 3681.868 7309.742 3541.797 6226.973 6999.093 1978.247 4019.963 7223.896 7928.596 10323.031 6771.773 7848.287 6636.808 4231.318
2894.600 4780.613 4750.085 1478.110 3534.990 2466.333 3212.609 6343.847 1277.161 6370.667 127.928 4642.960 563.685 5069.310 7674.044 4911.940 3708.518 2617.158 5688.370 3811.702 1786.455 0.000 6107.995 2462.197 2059.702 4107.569 7494.927 8567.031 9054.143 7666.827 9156.811 5711.936 8788.617 8755.320 5794.747 9777.212 2184.398 5320.258 8255.040 5318.506 7751.119 7768.006 3181.132 5155.594 8471.671 6174.281 9217.284 8448.346 6085.643 6865.463 5379.296
7438.415 7828.568 10791.222 6746.807 9615.103 8404.450 7666.454 10110.128 4876.696 12042.874 6234.408 9852.774 6356.709 11003.933 1608.169 10925.128 2403.076 7952.239 11082.202 9784.665 7847.304 6107.995 0.000 7975.750 8070.099 10174.339 5685.299 7340.949 6816.512 2034.564 7516.169 9971.191 7070.821 5130.836 11297.694 15882.935 4168.605 11420.187 11994.498 11382.331 13773.673 11171.164 9171.539 9892.975 12910.312 289.836 6107.946 13973.513 462.087 9176.933 10089.436
1296.738 3346.999 3071.794 1239.833 2228.174 2930.784 1462.873 4208.460 3592.879 4086.411 2363.834 2180.765 2739.223 4733.767 9583.423 3131.295 5698.626 294.568 3264.051 2013.723 1360.954 2462.197 7975.750 0.000 1135.016 2612.022 7649.390 8286.340 9108.982 9191.114 8957.520 3439.896 8673.856 9392.195 3410.217 8397.083 4532.655 4271.283 5998.848 3687.538 6881.846 5650.569 3169.639 2759.196 6047.302 8102.950 9593.610 6099.186 8055.121 5315.296 2979.305
2359.420 4456.895 2722.304 1586.814 1569.623 1797.726 2570.836 5295.339 3331.438 4356.383 1934.523 2964.528 2103.057 3757.455 9659.294 2867.429 5696.671 1428.722 3812.260 1752.657 328.687 2059.702 8070.099 1135.016 0.000 2108.990 8468.506 9232.290 9971.133 9485.667 9887.877 4483.487 9579.872 10068.160 3860.798 7912.559 4243.587 3556.110 7019.094 3312.952 6133.867 6730.305 2068.161 3720.088 6905.399 8159.621 10360.595 6453.229 8084.724 6447.477 3928.879
3834.594 5641.420 666.983 3603.519 580.723 2552.857 3900.060 5639.462 5383.194 2870.520 3979.692 2832.750 4015.240 2607.424 11759.056 882.430 7792.483 2821.412 2932.323 685.341 2330.767 4107.569 10174.339 2612.022 2108.990 0.000 10253.487 10819.343 11695.963 11587.385 11501.612 4716.637 11237.386 11998.366 2781.977 5834.984 6262.148 1710.013 6941.757 1211.374 4298.716 6936.793 2073.932 3805.524 6325.829 10258.595 12204.495 4910.604 10179.026 7340.020 3940.379
6433.628 5160.570 10646.685 6910.566 9870.476 9815.020 6424.125 7038.894 6982.912 10763.308 7565.351 8412.971 8032.688 12210.462 6550.203 10652.471 5826.720 7432.235 9550.907 9618.785 8455.284 7494.927 5685.299 7649.390 8468.506 10253.487 0.000 1655.949 1562.793 4829.301 1915.893 7431.400 1471.528 2238.402 9880.882 15918.493 7065.090 11919.121 8406.157 11246.376 14529.896 7465.502 10395.235 7885.934 9830.666 5975.113 2004.487 12133.207 6130.578 5151.535 7986.563
7003.006 5322.206 11129.493 7753.586 10505.448 10741.213 6919.303 6773.241 8236.743 10896.623 8619.777 8641.420 9124.136 12985.377 8179.486 11098.350 7358.006 8034.567 9669.078 10152.612 9273.062 8567.031 7340.949 8286.340 9232.290 10819.343 1655.949 0.000 1364.388 6417.351 699.771 7347.350 656.477 3332.011 10017.107 16271.570 8440.807 12522.182 7807.539 11702.864 15116.979 6877.246 11248.752 7961.675 9367.019 7630.777 2573.300 12021.525 7785.349 4643.823 8018.789
7861.969 6386.105 12057.735 8429.313 11336.653 11357.911 7822.533 8020.039 8540.815 12007.160 9123.066 9698.599 9593.671 13723.273 7422.417 12048.164 7275.309 8878.458 10782.475 11047.312 9972.310 9054.143 6816.512 9108.982 9971.133 11695.963 1562.793 1364.388 0.000 5580.940 936.797 8533.899 708.090 2167.276 11123.545 17282.894 8596.701 13378.657 9142.327 12648.017 15987.735 8207.280 11924.469 9086.293 10678.475 7101.543 1254.619 13235.145 7276.087 5942.770 9162.390
8421.483 8311.513 12165.190 8020.519 11054.816 10075.083 8593.793 10577.230 6528.195 13141.676 7787.252 10836.077 8001.902 12695.666 1872.815 12269.775 4126.275 9111.487 12080.905 11122.375 9306.066 7666.827 2034.564 9191.114 9485.667 11587.385 4829.301 6417.351 5580.940 0.000 6415.152 10613.728 5999.480 3578.165 12336.644 17391.385 5959.971 12965.948 12329.045 12773.722 15415.919 11439.681 10824.513 10704.170 13453.753 2209.282 4626.339 14947.673 2410.077 9252.814 10878.177
7678.983 6020.712 11818.929 8392.455 11180.175 11369.985 7602.354 7456.026 8767.577 11596.017 9214.400 9340.576 9709.864 13643.973 8230.168 11790.248 7738.596 8709.266 10368.487 10837.150 9919.917 9156.811 7516.169 8957.520 9887.877 11501.612 1915.893 699.771 936.797 6415.152 0.000 8041.827 449.309 3091.056 10716.667 16969.485 8919.610 13202.204 8439.380 12394.456 15800.081 7515.400 11892.368 8660.921 10017.692 7804.636 2187.525 12709.468 7970.016 5309.466 8717.094
2891.446 2355.747 4680.939 4243.007 4744.800 6232.459 2578.747 925.914 6586.664 3649.477 5641.549 1885.990 6097.757 7319.517 11522.077 4536.978 8083.226 3192.583 2457.261 4080.924 4764.769 5711.936 9971.191 3439.896 4483.487 4716.637 7431.400 7347.350 8533.899 10613.728 8041.827 0.000 7916.475 9589.437 2813.220 9195.691 7464.290 6281.866 2562.268 5096.314 8603.710 2274.808 6252.860 913.342 2959.705 10171.709 9409.367 4708.693 10184.615 2961.333 819.863
7405.878 5825.304 11573.360 8066.520 10900.674 11030.979 7344.334 7372.339 8367.402 11430.436 8849.479 9146.837 9338.451 13337.322 7803.818 11552.847 7297.525 8432.209 10203.487 10578.850 9601.092 8788.617 7070.821 8673.856 9579.872 11237.386 1471.528 656.477 708.090 5999.480 449.309 7916.475 0.000 2754.425 10548.313 16759.263 8499.793 12931.921 8450.794 12155.579 15535.516 7518.032 11568.255 8500.196 9999.219 7359.508 1933.645 12606.574 7523.997 5267.969 8566.909
8270.873 7270.014 12453.522 8481.352 11561.272 11194.103 8315.554 9246.613 7970.296 12796.716 8847.954 10423.732 9242.134 13719.454 5450.565 12487.797 6184.432 9210.732 11604.203 11401.833 9998.539 8755.320 5130.836 9392.195 10068.160 11998.366 2238.402 3332.011 2167.276 3578.165 3091.056 9589.437 2754.425 0.000 11921.545 17772.452 7791.529 13605.084 10644.535 13065.373 16200.053 9703.904 11848.690 9978.957 12059.378 5397.112 1053.182 14267.393 5589.715 7389.937 10096.462
3915.505 4739.956 2409.386 4639.796 3128.780 5122.012 3752.865 3661.172 6988.317 883.958 5681.887 1517.929 5945.792 5223.370 12903.812 2183.548 9082.155 3371.772 356.622 2432.743 4187.670 5794.747 11297.694 3410.217 3860.798 2781.977 9880.882 10017.107 11123.545 12336.644 10716.667 2813.220 10548.313 11921.545 0.000 6382.731 7928.582 3919.915 4430.947 2598.648 5945.787 4659.578 4801.562 2059.810 3575.272 11444.301 11884.974 2692.390 11409.855 5772.899 2033.663
9509.888 10949.795 5325.444 9438.435 6343.806 7574.728 9496.186 10023.569 11012.081 5564.636 9651.626 7638.882 9545.153 5213.532 17434.542 5284.777 13480.498 8564.222 6739.073 6383.740 8085.455 9777.212 15882.935 8397.083 7912.559 5834.984 15918.493 16271.570 17282.894 17391.385 16969.485 9195.691 16759.263 17772.452 6382.731 0.000 11803.427 4466.541 10366.949 4710.499 2608.525 10842.939 6804.848 8411.877 8944.404 15939.167 17904.678 5620.700 15839.966 12155.526 8410.163
4576.571 5991.394 6914.354 3354.731 5683.708 4258.364 4885.975 7944.753 940.447 8538.602 2309.078 6682.002 2271.210 6840.437 5656.361 7084.754 1833.899 4626.904 7796.175 5994.485 3963.009 2184.398 4168.605 4532.655 4243.587 6262.148 7065.090 8440.807 8596.701 5959.971 8919.610 7464.290 8499.793 7791.529 7928.582 11803.427 0.000 7339.637 9912.008 7468.294 9621.556 9295.193 5030.436 7055.155 10355.696 4181.032 8461.662 10602.231 4062.617 7948.375 7276.976
5526.084 7349.140 1603.067 5135.252 2050.660 3143.454 5604.591 7207.221 6546.613 3627.262 5195.809 4406.773 5078.712 1465.585 12968.275 1774.463 9017.199 4501.458 4175.251 2391.377 3681.868 5320.258 11420.187 4271.283 3556.110 1710.013 11919.121 12522.182 13378.657 12965.948 13202.204 6281.866 12931.921 13605.084 3919.915 4466.541 7339.637 0.000 8318.470 1335.131 2610.797 8427.912 2391.203 5370.702 7462.002 11473.530 13852.766 5307.018 11373.535 9007.409 5475.865
5389.591 4178.181 6744.268 6779.225 7085.373 8733.673 5070.138 1971.590 9066.656 4998.318 8189.292 4201.592 8654.594 9528.182 13471.675 6548.125 10333.308 5754.597 4147.545 6378.439 7309.742 8255.040 11994.498 5998.848 7019.094 6941.757 8406.157 7807.539 9142.327 12329.045 8439.380 2562.268 8450.794 10644.535 4430.947 10366.949 9912.008 8318.470 0.000 7018.501 10341.668 941.712 8682.104 3311.891 1679.164 12222.412 10222.765 4974.891 12262.661 3254.838 3117.410
4816.822 6423.236 616.498 4764.956 1785.312 3602.663 4827.499 6013.908 6593.615 2303.609 5190.606 3268.636 5213.556 2734.274 12968.826 605.326 9002.876 3854.943 2871.240 1676.372 3541.797 5318.506 11382.331 3687.538 3312.952 1211.374 11246.376 11702.864 12648.017 12773.722 12394.456 5096.314 12155.579 13065.373 2598.648 4710.499 7468.294 1335.131 7018.501 0.000 3525.569 7174.203 2984.973 4199.440 6127.480 11468.509 13220.747 4106.457 11389.786 7924.916 4278.402
8130.572 9898.775 4032.417 7720.128 4660.299 5369.225 8197.914 9512.979 8911.967 5354.887 7632.436 6793.930 7428.384 2803.605 15277.252 4116.445 11380.512 7109.385 6267.155 4965.261 6226.973 7751.119 13773.673 6881.846 6133.867 4298.716 14529.896 15116.979 15987.735 15415.919 15800.081 8603.710 15535.516 16200.053 5945.787 2608.525 9621.556 2610.797 10341.668 3525.569 0.000 10603.753 4603.693 7716.405 9208.169 13800.580 16461.271 6336.129 13684.162 11450.441 7783.886
4873.851 3410.612 6828.304 6292.195 7003.573 8496.440 4555.409 1443.744 8485.087 5342.168 7713.716 4113.329 8205.078 9544.055 12624.925 6656.409 9596.618 5384.071 4337.347 6323.934 6999.093 7768.006 11171.164 5650.569 6730.305 6936.793 7465.502 6877.246 8207.280 11439.681 7515.400 2274.808 7518.032 9703.904 4659.578 10842.939 9295.193 8427.912 941.712 7174.203 10603.753 0.000 8527.586 3152.812 2525.660 11405.993 9282.188 5635.785 11454.211 2313.967 2999.372
4426.645 6514.775 2659.336 3501.736 1676.529 773.225 4627.964 7130.647 4309.110 4944.395 3068.939 4481.130 2826.323 1889.630 10685.634 2907.374 6776.875 3462.578 4901.531 2392.369 1978.247 3181.132 9171.539 3169.639 2068.161 2073.932 10395.235 11248.752 11924.469 10824.513 11892.368 6252.860 11568.255 11848.690 4801.562 6804.848 5030.436 2391.203 8682.104 2984.973 4603.693 8527.586 0.000 5393.545 8265.758 9203.026 12228.518 6968.781 9090.672 8471.114 5573.142
2527.900 2725.402 3771.145 3731.479 3850.800 5421.845 2254.620 1839.093 6143.623 2935.584 5071.608 973.254 5486.976 6410.299 11474.462 3632.447 7864.335 2551.268 1708.546 3176.190 4019.963 5155.594 9892.975 2759.196 3720.088 3805.524 7885.934 7961.675 9086.293 10704.170 8660.921 913.342 8500.196 9978.957 2059.810 8411.877 7055.155 5370.702 3311.891 4199.440 7716.405 3152.812 5393.545 0.000 3318.793 10073.715 9885.321 4313.031 10068.449 3770.484 223.883
5788.099 5145.222 5984.525 7048.976 6597.091 8464.270 5488.682 2884.186 9453.288 3895.446 8385.383 3940.873 8786.193 8796.922 14446.163 5756.097 11041.860 5859.108 3393.507 5876.190 7223.896 8471.671 12910.312 6047.302 6905.399 6325.829 9830.666 9367.019 10678.475 13453.753 10017.692 2959.705 9999.219 12059.378 3575.272 8944.404 10355.696 7462.002 1679.164 6127.480 9208.169 2525.660 8265.758 3318.793 0.000 13116.636 11711.667 3402.826 13134.260 4736.738 3094.924
7603.825 8051.258 10881.925 6868.978 9695.199 8433.162 7838.682 10328.669 4927.086 12179.057 6301.456 10010.564 6399.739 11021.413 1500.642 11021.192 2467.322 8088.886 11235.120 9884.524 7928.596 6174.281 289.836 8102.950 8159.621 10258.595 5975.113 7630.777 7101.543 2209.282 7804.636 10171.709 7359.508 5397.112 11444.301 15939.167 4181.032 11473.530 12222.412 11468.509 13800.580 11405.993 9203.026 10073.715 13116.636 0.000 6381.289 14125.465 202.874 9429.857 10272.530
8403.953 7160.185 12617.031 8783.456 11802.106 11610.426 8408.620 8973.685 8543.803 12767.559 9300.145 10417.115 9730.474 14073.517 6497.407 12630.382 6956.060 9387.701 11554.337 11580.664 10323.031 9217.284 6107.946 9593.610 10360.595 12204.495 2004.487 2573.300 1254.619 4626.339 2187.525 9409.367 1933.645 1053.182 11884.974 17904.678 8461.662 13852.766 10222.765 13220.747 16461.271 9282.188 12228.518 9885.321 11711.667 6381.289 0.000 14116.623 6569.433 6984.112 9982.205
6553.698 6997.466 4311.754 7331.545 5410.773 7451.863 6358.669 5262.246 9663.234 2104.122 8331.697 4127.650 8556.051 6771.554 15577.327 4061.946 11773.508 6063.899 2891.385 4825.132 6771.773 8448.346 13973.513 6099.186 6453.229 4910.604 12133.207 12021.525 13235.145 14947.673 12709.468 4708.693 12606.574 14267.393 2692.390 5620.700 10602.231 5307.018 4974.891 4106.457 6336.129 5635.785 6968.781 4313.031 3402.826 14125.465 14116.623 0.000 14094.558 7458.530 4177.535
7586.751 8087.489 10806.484 6818.394 9613.091 8319.565 7827.230 10359.480 4830.055 12136.203 6213.171 9985.730 6296.215 10900.295 1595.699 10949.389 2388.079 8048.276 11205.817 9815.828 7848.287 6085.643 462.087 8055.121 8084.724 10179.026 6130.578 7785.349 7276.087 2410.077 7970.016 10184.615 7523.997 5589.715 11409.855 15839.966 4062.617 11373.535 12262.661 11389.786 13684.162 11454.211 9090.672 10068.449 13134.260 202.874 6569.433 14094.558 0.000 9500.859 10269.276
4159.783 2088.640 7442.612 5495.987 7220.062 8231.594 3897.917 2208.138 7271.812 6609.398 6847.141 4657.878 7385.164 9856.727 10553.081 7336.963 7883.963 5020.737 5416.477 6660.181 6636.808 6865.463 9176.933 5315.296 6447.477 7340.020 5151.535 4643.823 5942.770 9252.814 5309.466 2961.333 5267.969 7389.937 5772.899 12155.526 7948.375 9007.409 3254.838 7924.916 11450.441 2313.967 8471.114 3770.484 4736.738 9429.857 6984.112 7458.530 9500.859 0.000 3749.681
2742.776 2829.824 3873.207 3955.107 4010.575 5618.395 2464.935 1736.287 6366.365 2894.974 5295.106 1114.450 5709.130 6547.683 11667.853 3723.307 8074.300 2773.850 1677.565 3325.033 4231.318 5379.296 10089.436 2979.305 3928.879 3940.379 7986.563 8018.789 9162.390 10878.177 8717.094 819.863 8566.909 10096.462 2033.663 8410.163 7276.976 5475.865 3117.410 4278.402 7783.886 2999.372 5573.142 223.883 3094.924 10272.530 9982.205 4177.535 10269.276 3749.681 0.000
NODE_COORD_SECTION
1 -500.874011 70.822412
2 -1189.014212 -1927.237969
3 3333.246176 1819.115707
4 -803.370270 1460.969193
5 2190.388819 2312.433168
6 922.150963 3915.358487
7 -376.526573 -224.052693
8 743.499702 -3152.611082
9 -2545.282289 3149.197626
10 4207.559725 -344.418333
11 -1176.706175 2832.767241
12 1840.727049 -564.555606
13 -1077.797510 3368.678598
14 3443.146856 4632.544919
15 -8968.090380 3226.274443
16 3444.327764 1591.719711
17 -5010.715661 2937.292886
18 268.484075 759.311640
19 3064.581246 -792.192299
20 2296.553016 1598.613643
21 424.641228 2398.071733
22 -1303.178361 2852.012000
23 -7411.107998 2823.763996
24 362.282035 1038.546994
25 630.099890 2141.513455
26 2739.000085 2121.999273
27 -6283.792676 -2748.649065
28 -5920.487029 -4364.252606
29 -7232.659514 -3990.411437
30 -8823.241679 1359.069202
31 -6561.791978 -4644.265317
32 1134.854718 -2313.469860
33 -6554.773169 -4195.011301
34 -8453.910364 -2199.983596
35 3358.440333 -590.138268
36 8466.448362 3237.067402
37 -3329.075744 3668.916364
38 4000.085320 3276.905427
39 1876.709733 -4765.993148
40 3937.114845 1943.260589
41 6246.636345 4607.044519
42 953.341981 -4581.024254
43 1695.375491 3914.216512
44 1498.729844 -1475.742058
45 3444.398744 -4164.377231
46 -7472.188396 3107.091231
47 -8229.859927 -3229.057504
48 5805.192590 -1713.688370
49 -7373.447094 3284.313817
50 -1289.933912 -4013.437924
51 1628.021808 -1658.518605
DEMAND_SECTION
1 0
2 6
3 10
4 2
5 3
6 7
7 1
8 5
9 7
10 6
11 57
12 3
13 8
14 7
15 2
16 8
17 94
18 5
19 1
20 4
21 9
22 3
23 1
24 7
25 10
26 2
27 3
28 7
29 5
30 9
31 3
32 4
33 90
34 5
35 9
36 7
37 9
38 1
39 69
40 2
41 1
42 71
43 3
44 7
45 7
46 2
47 1
48 4
49 10
50 4
51 1
DEPOT_SECTION
1
-1
EOF
