NAME : poryos-tokyo-n10-hyb
COMMENT : Poryos2026 shortest metric; city tokyo; 3-decimal seconds/meters; ENU ref in poryos-tokyo-n10-hyb.vrp.json
TYPE : CVRP
DIMENSION : 11
EDGE_WEIGHT_TYPE : EXPLICIT
EDGE_WEIGHT_FORMAT : FULL_MATRIX
CAPACITY : 107
EDGE_WEIGHT_SECTION
0.000 5467.012 4917.872 18205.481 4919.902 7397.121 10341.793 12677.893 6567.797 9397.281 11511.429
5505.274 0.000 5681.436 22745.975 9460.395 11669.343 11398.363 14562.260 8101.450 8580.304 10401.889
4758.658 5691.739 0.000 19282.541 6033.143 7579.268 6385.930 9318.101 11092.661 13148.317 6792.498
18948.640 23357.042 19741.983 0.000 14636.622 12708.045 18135.705 13483.662 22630.620 27300.030 20349.345
5081.855 9490.258 6063.136 13981.127 0.000 4017.807 9866.264 10939.695 9217.369 13555.410 11542.934
7553.858 11746.538 7511.554 12112.251 4168.978 0.000 7576.467 7211.497 13293.773 16654.955 10003.013
10139.316 11235.941 6301.185 17999.763 9585.784 7661.762 0.000 5604.423 16509.643 18565.298 3338.896
12764.898 14605.726 9387.377 13353.546 10997.016 7243.392 5592.847 0.000 18921.749 21463.036 7427.792
6534.319 8185.327 11204.409 22113.625 9273.157 13184.181 16630.923 18956.378 0.000 7048.522 17797.966
9490.564 8658.296 13177.075 26786.728 13692.330 16701.925 18774.828 21532.536 7005.027 0.000 18676.675
11548.595 10445.504 6795.518 20202.802 11496.233 10067.085 3487.195 7430.725 17882.598 18935.149 0.000
NODE_COORD_SECTION
1 -2164.012052 1974.697434
2 -4680.138607 5780.644035
3 -84.613382 5286.066811
4 10665.173851 -4705.677706
5 1115.451785 -27.978974
6 4499.241187 1350.095319
7 4065.707000 8043.306447
8 7574.122157 5515.839169
9 -6770.409192 -1129.298533
10 -11008.752319 2634.931378
11 3190.549112 10355.017816
DEMAND_SECTION
1 0
2 2
3 2
4 100
5 5
6 6
7 2
8 3
9 3
10 58
11 79
DEPOT_SECTION
1
-1
EOF
