NAME : poryos-lyon-n50-poi
COMMENT : Poryos2026 fastest metric; city lyon; 3-decimal seconds/meters; ENU ref in poryos-lyon-n50-poi.vrp.json
TYPE : CVRP
DIMENSION : 51
EDGE_WEIGHT_TYPE : EXPLICIT
EDGE_WEIGHT_FORMAT : FULL_MATRIX
CAPACITY : 157
EDGE_WEIGHT_SECTION
0.000 161.287 287.740 171.644 33.031 360.845 29.410 73.410 53.251 268.245 283.558 158.776 176.279 104.528 177.518 189.808 136.057 122.244 223.879 182.746 260.332 66.764 79.826 272.084 168.975 78.344 138.871 48.085 173.913 139.912 264.068 253.105 54.855 193.670 135.363 122.740 206.010 74.969 206.197 52.143 198.784 92.182 273.877 256.484 131.170 113.857 136.953 274.956 173.006 78.498 181.007
194.911 0.000 233.448 337.518 196.023 424.544 195.284 237.479 177.648 434.119 449.432 299.575 284.197 264.564 299.121 330.547 301.931 243.848 265.360 304.349 336.935 235.071 201.429 437.958 334.849 240.117 304.745 213.959 212.499 305.395 302.654 344.916 220.337 270.273 286.967 288.614 106.134 240.452 372.071 213.917 364.658 232.302 395.481 202.193 207.773 279.731 213.556 440.830 338.880 244.372 157.576
256.121 225.568 0.000 398.729 262.548 442.837 256.494 300.104 238.858 495.330 510.642 362.601 386.097 327.589 403.357 393.573 363.141 348.084 367.260 408.585 399.960 296.281 305.665 499.168 396.059 303.143 365.955 275.170 316.735 366.605 404.554 407.942 281.548 333.299 349.992 349.825 191.033 301.662 433.282 276.942 425.869 295.327 499.717 39.533 270.798 340.941 274.545 502.041 400.090 305.582 175.868
141.706 276.455 402.908 0.000 173.210 409.604 141.464 155.589 183.737 120.292 169.027 182.064 194.732 151.327 241.778 124.367 52.970 160.526 242.331 202.222 309.091 206.943 220.005 148.204 203.923 136.959 250.925 110.555 314.092 122.367 325.000 290.049 172.025 242.429 92.612 91.356 321.179 176.008 116.903 148.680 66.312 186.127 291.949 371.653 186.262 89.567 247.027 169.141 25.052 113.446 302.647
98.016 152.426 294.654 226.227 0.000 394.536 98.388 142.389 54.331 322.829 338.141 227.755 162.920 173.507 164.158 258.787 190.640 108.885 210.520 169.387 294.023 110.399 66.466 326.667 223.558 147.322 207.849 102.668 160.554 208.891 250.709 302.004 123.833 227.362 204.342 177.324 212.877 143.948 260.780 121.122 253.367 161.161 260.518 263.398 164.861 168.440 170.644 329.540 227.589 133.081 213.953
344.386 418.947 475.916 346.735 351.212 0.000 344.759 305.901 333.412 443.336 461.808 264.517 494.460 258.135 495.699 319.128 349.798 440.425 508.172 500.927 103.241 384.945 398.007 450.335 484.324 282.018 454.220 362.082 457.248 306.424 545.466 179.607 322.336 152.936 275.547 325.382 408.563 326.320 463.274 298.992 412.683 299.458 592.058 444.661 282.524 375.207 343.288 515.513 348.097 393.847 327.138
49.322 184.071 310.524 189.766 80.826 408.640 0.000 121.206 91.353 286.367 301.679 206.571 208.653 152.323 209.892 225.293 154.178 143.700 256.253 215.120 308.127 87.807 127.621 290.206 187.097 126.139 109.461 66.207 221.708 175.397 311.863 300.900 102.650 241.465 170.848 140.862 228.795 122.764 224.319 99.938 216.906 139.977 306.251 279.269 178.965 131.979 184.748 293.078 191.128 96.620 228.802
87.335 188.246 314.699 178.238 94.161 338.244 87.707 0.000 102.711 274.839 290.151 134.215 237.409 79.967 238.647 169.938 142.650 183.374 277.471 243.875 237.731 127.894 140.955 278.678 227.273 53.783 197.168 106.383 226.547 120.042 314.765 228.545 30.294 171.070 115.493 129.334 232.970 71.564 264.495 27.582 244.186 67.622 335.007 283.443 114.902 120.451 159.574 333.254 179.600 136.796 207.966
60.522 137.864 264.317 203.129 64.516 367.692 60.895 104.896 0.000 299.730 315.043 190.261 207.764 136.013 209.003 221.293 167.542 153.729 230.307 214.231 267.179 98.249 111.311 303.569 200.460 109.829 170.356 79.570 179.648 171.397 267.601 275.161 86.340 200.518 166.848 154.225 182.588 106.454 237.682 83.628 230.269 123.667 305.362 233.061 138.018 145.342 143.800 306.441 204.491 109.983 187.110
243.868 378.617 505.070 102.162 275.372 511.766 243.625 257.751 285.899 0.000 196.846 284.226 296.894 253.489 343.940 226.528 155.132 262.687 344.493 304.384 411.253 309.105 322.167 176.022 306.085 239.121 353.086 212.717 416.254 224.529 427.161 392.211 274.186 344.591 194.774 193.518 423.341 278.170 206.403 250.842 168.474 288.289 394.111 473.815 288.424 191.729 349.188 258.642 103.524 215.608 404.809
291.190 425.939 552.392 149.484 322.694 461.110 290.948 305.074 333.222 186.319 0.000 314.578 344.216 300.812 391.262 233.757 202.455 310.010 391.816 351.706 412.874 356.427 369.489 28.673 353.407 286.443 400.409 260.039 463.576 271.851 474.484 367.402 321.509 378.390 242.096 240.841 470.663 325.492 266.387 298.164 215.796 335.611 441.433 521.137 335.746 239.051 396.511 318.626 150.846 262.930 452.132
113.404 223.435 349.888 115.469 120.230 305.510 113.776 74.919 137.900 212.070 233.032 0.000 263.478 65.403 264.716 82.162 118.532 209.443 311.077 269.944 204.997 153.963 167.024 221.559 253.342 51.035 223.237 131.099 261.112 75.158 349.954 155.017 91.354 138.335 44.282 94.116 268.159 95.337 232.008 68.009 181.417 100.203 361.076 318.632 100.338 144.224 161.103 284.247 116.831 162.865 226.483
177.055 281.160 412.651 220.464 186.118 513.929 176.140 248.938 189.602 308.445 365.801 332.083 0.000 277.835 188.964 309.388 209.824 161.114 47.600 75.634 413.416 195.753 201.738 344.978 237.908 253.872 285.601 166.034 185.292 259.492 130.268 421.398 230.383 346.755 254.943 224.957 330.875 250.497 245.092 227.671 238.613 267.710 166.766 381.396 284.254 216.074 290.037 274.790 220.141 135.147 333.347
135.138 245.169 371.622 118.529 141.964 258.276 135.511 96.653 159.634 215.131 236.093 54.248 285.212 0.000 286.451 102.908 121.592 231.177 332.812 291.679 157.764 175.697 188.759 224.619 275.076 72.770 244.972 152.834 282.846 78.218 371.689 148.577 113.088 91.102 47.342 97.176 289.893 117.072 235.068 89.744 184.477 121.938 382.810 340.367 122.073 155.007 182.837 287.307 119.891 184.599 248.218
162.850 297.599 424.052 235.743 194.354 522.167 161.935 234.733 204.881 323.724 381.080 320.099 233.087 265.851 0.000 311.325 225.103 147.181 280.686 238.269 421.655 228.087 237.891 360.257 223.702 239.667 271.396 152.239 331.979 261.429 363.354 414.428 216.177 354.993 256.880 226.894 342.323 236.292 217.521 213.466 253.892 253.505 295.952 392.796 292.493 218.011 298.276 253.537 235.420 132.319 342.330
178.314 288.345 414.798 157.894 185.140 331.471 178.686 139.829 202.810 254.495 173.309 80.821 328.388 135.567 329.626 0.000 160.957 274.353 375.987 334.854 230.958 218.873 231.934 161.835 318.252 121.198 288.147 196.009 326.021 117.583 414.864 171.395 156.264 164.296 86.706 136.540 333.069 160.247 274.433 132.919 223.842 170.366 425.986 383.542 170.501 194.371 231.266 326.671 159.256 227.775 296.646
119.556 254.305 380.758 43.070 151.060 386.704 119.314 132.690 161.588 139.671 188.407 182.676 215.162 128.428 262.208 142.111 0.000 180.955 262.761 222.652 286.191 184.793 197.855 167.584 224.353 114.060 228.775 97.316 291.942 110.085 345.429 277.005 149.125 219.530 105.536 57.395 299.029 153.108 159.609 125.781 109.018 163.228 312.379 349.503 163.363 66.667 224.127 211.847 44.432 133.876 280.498
100.664 235.413 361.866 173.558 132.168 459.982 99.749 172.547 142.695 261.538 318.895 257.913 184.209 203.665 117.706 249.139 162.917 0.000 231.809 191.699 359.469 165.901 172.563 298.071 161.517 177.481 209.210 90.053 266.650 199.243 314.477 352.242 153.992 292.807 194.694 164.709 280.137 174.106 199.119 151.280 191.706 191.319 281.426 330.610 230.307 155.825 236.090 267.878 173.235 37.183 280.144
224.655 261.582 393.074 268.064 233.718 494.351 223.740 294.383 234.015 356.044 413.401 356.479 47.600 321.468 236.564 356.988 257.423 208.713 0.000 123.234 393.838 243.352 240.054 392.578 285.507 297.021 333.201 213.633 171.652 307.092 121.189 401.820 276.704 327.177 302.543 272.557 311.297 296.819 292.691 270.820 286.213 289.205 211.716 361.818 264.677 263.674 270.459 322.389 267.741 182.746 313.769
211.636 318.640 450.131 255.046 220.699 551.408 210.721 283.520 224.183 343.026 400.383 366.664 54.766 312.416 223.545 343.969 244.405 195.695 102.365 0.000 450.896 230.334 236.319 379.559 272.489 288.453 320.182 200.615 222.772 294.073 185.034 458.877 264.964 384.234 289.524 259.538 368.354 285.078 279.673 262.252 273.194 302.291 144.448 418.875 321.734 250.655 327.517 263.176 254.723 169.728 370.826
252.023 326.583 452.033 254.372 258.849 112.137 252.396 213.538 241.048 350.973 371.935 176.416 402.097 165.772 403.335 226.764 257.435 348.062 415.808 408.564 0.000 292.582 305.643 360.461 391.961 189.655 361.856 269.718 364.884 214.061 453.103 122.766 229.973 76.746 183.184 233.018 371.307 233.956 370.911 206.629 320.320 207.095 499.695 420.777 190.160 282.843 250.925 423.149 255.734 301.484 303.255
130.751 185.161 327.389 258.963 42.633 427.271 131.124 175.124 87.066 355.564 370.876 260.490 195.655 206.242 196.894 291.522 223.375 141.620 243.255 202.122 326.758 0.000 99.202 359.402 256.294 180.058 240.585 135.404 193.289 241.626 283.444 334.740 156.569 260.097 237.077 210.059 245.612 176.683 293.516 153.857 286.103 193.896 293.253 296.134 197.597 201.176 203.379 362.275 260.325 165.817 246.689
187.048 241.458 383.686 305.046 139.879 483.568 187.421 231.422 143.363 401.647 416.960 316.787 234.708 262.539 235.947 340.573 269.459 180.673 282.308 241.175 383.056 189.218 0.000 405.486 302.377 236.355 296.882 181.487 249.586 290.677 339.742 391.037 212.866 316.394 286.128 256.142 301.909 232.980 339.599 210.154 332.186 250.194 332.306 352.431 253.894 247.259 259.677 408.358 306.408 211.900 302.986
271.327 406.076 532.529 129.621 302.831 445.407 271.085 285.211 313.359 166.456 90.488 294.716 324.353 280.949 371.399 213.895 182.592 290.147 371.953 331.843 397.171 336.564 349.626 0.000 333.544 266.580 380.546 240.176 443.713 251.988 454.621 351.698 301.646 362.687 222.233 220.978 450.800 305.629 246.524 278.301 195.933 315.748 421.570 501.274 315.883 219.188 376.648 298.763 130.983 243.067 432.269
127.759 228.223 370.451 226.980 126.644 470.333 126.844 199.642 130.128 314.960 352.621 285.008 180.222 230.760 140.346 276.234 205.119 85.072 227.822 186.689 369.820 136.278 142.264 341.147 0.000 204.575 236.305 117.148 236.351 226.338 310.490 377.802 181.086 303.159 221.789 191.803 288.674 201.201 252.542 178.375 245.129 218.414 277.820 339.196 240.659 182.920 246.441 321.079 226.657 122.256 289.751
129.270 197.542 323.995 144.714 135.697 284.461 129.643 91.308 112.007 241.315 262.277 80.432 278.945 26.184 280.184 129.092 147.777 224.910 286.767 285.412 183.948 169.430 182.491 250.803 269.208 0.000 239.104 147.488 235.843 104.403 324.062 174.762 107.743 117.287 73.526 123.360 242.266 111.726 261.253 79.179 210.662 60.984 376.543 292.740 61.119 160.613 121.884 313.491 146.076 178.731 187.264
88.612 161.602 301.554 229.056 28.848 403.712 87.697 137.126 49.068 325.657 340.969 222.492 172.097 168.244 173.335 253.524 193.468 118.062 219.696 178.563 303.200 62.581 75.643 329.496 226.387 142.060 0.000 105.497 169.730 203.628 259.886 311.181 118.570 236.538 199.079 180.152 219.825 138.685 263.609 115.859 256.196 155.898 269.694 270.299 174.038 171.269 179.821 332.368 230.418 135.910 223.130
31.151 165.900 292.353 123.559 62.655 371.930 30.909 84.496 73.183 220.160 235.472 169.862 192.786 115.614 207.142 159.086 87.971 127.077 240.386 200.276 271.417 96.388 109.450 223.999 170.474 89.429 140.370 0.000 203.537 109.190 293.692 264.191 65.940 204.756 104.641 74.655 210.624 86.054 207.696 63.229 189.507 103.268 290.003 261.098 142.255 65.772 148.038 276.455 124.921 79.997 192.093
211.308 207.383 353.103 351.977 186.810 449.493 211.680 249.525 190.294 448.578 463.891 311.620 198.257 276.609 289.908 342.592 316.390 234.635 182.087 243.941 348.980 236.149 192.216 452.417 349.308 252.163 321.141 228.418 0.000 318.422 168.852 356.962 236.734 282.319 299.012 303.073 271.326 256.848 386.530 225.962 379.117 244.347 335.073 321.848 219.818 294.190 225.601 452.751 353.339 258.831 268.911
130.166 240.197 366.650 79.466 136.992 343.102 130.539 91.681 154.663 176.067 197.029 98.851 251.900 87.419 281.479 63.844 82.529 217.693 299.499 259.390 242.590 170.725 183.787 185.555 261.090 73.051 240.000 145.141 277.874 0.000 366.717 229.527 108.116 175.928 9.399 58.112 284.921 112.100 196.005 84.772 145.414 122.219 349.117 335.395 122.354 115.943 183.118 248.243 80.828 170.613 248.499
303.230 331.828 463.319 346.639 304.893 564.597 302.315 364.629 304.261 434.619 491.976 426.725 126.175 391.713 315.139 435.563 335.999 287.289 104.860 201.809 464.084 321.927 310.299 471.153 364.083 367.267 411.776 292.208 201.538 385.667 0.000 472.066 346.950 397.423 381.118 351.132 381.542 367.064 371.266 341.066 364.788 359.451 264.417 432.064 334.922 342.249 340.705 400.965 346.316 261.322 384.015
231.752 334.695 461.147 233.818 238.578 192.936 232.125 193.267 249.160 330.419 315.639 118.348 381.826 173.883 383.065 189.734 236.881 327.791 423.920 388.293 125.548 272.311 285.373 304.165 371.690 169.384 341.586 249.448 372.996 193.506 461.214 0.000 209.702 68.684 162.630 212.464 379.418 213.686 350.357 186.358 299.766 215.206 479.424 429.892 198.272 262.573 259.036 402.595 235.180 281.213 324.417
87.191 162.267 288.720 190.291 94.017 350.297 87.563 60.902 76.732 286.892 302.204 146.268 237.265 92.020 238.503 181.991 154.703 183.230 251.492 243.731 249.784 127.750 140.811 290.730 227.129 65.836 197.024 106.239 200.568 132.095 288.786 240.597 0.000 183.122 127.546 141.387 206.991 83.616 264.351 39.635 256.239 79.674 334.863 257.464 126.955 132.504 136.062 333.110 191.653 136.652 181.987
191.450 266.011 392.463 193.799 198.276 170.408 191.823 152.965 180.476 290.400 311.362 114.496 341.524 105.199 342.763 166.192 196.862 287.489 355.236 347.991 90.084 232.009 245.071 299.889 331.388 129.082 301.284 209.146 304.312 153.488 392.530 76.437 169.400 0.000 122.611 172.446 310.734 173.384 310.338 146.056 259.747 146.522 439.122 361.208 129.588 222.271 190.352 362.577 195.161 240.911 255.733
120.767 230.798 357.251 71.188 127.593 333.703 121.140 82.282 145.263 167.789 188.751 89.452 243.622 78.020 272.079 55.566 74.251 209.415 291.221 251.112 233.190 161.326 174.387 177.277 252.812 63.652 230.600 138.173 268.475 30.876 357.318 221.249 98.717 166.529 0.000 49.834 275.522 102.700 187.727 75.373 137.136 112.820 340.838 325.996 112.954 107.665 173.719 239.965 72.550 162.335 239.100
111.667 246.416 372.869 78.684 143.171 378.815 111.424 124.801 153.698 175.285 190.597 142.729 251.118 120.539 287.658 107.722 81.746 207.593 298.717 258.608 278.302 176.904 189.966 179.123 250.990 106.171 220.885 111.767 284.053 81.722 374.208 269.116 141.236 211.641 53.277 0.000 291.140 145.219 195.223 117.891 144.632 155.338 348.334 341.614 155.473 90.789 216.238 247.461 80.045 160.513 272.608
219.038 106.134 214.932 361.646 225.465 406.027 219.411 263.021 201.775 458.247 473.559 325.518 349.014 290.506 366.274 356.490 326.058 311.001 330.177 371.503 362.877 259.198 268.582 462.085 358.977 266.060 328.872 238.087 279.652 329.522 367.472 370.859 244.465 296.216 312.909 312.742 0.000 264.579 396.199 239.859 388.786 258.244 462.634 183.676 233.715 303.859 237.736 464.958 363.007 268.500 139.059
90.824 225.573 352.026 161.836 122.328 407.473 90.581 107.468 132.855 258.437 273.750 203.444 252.459 149.196 266.815 180.749 126.249 186.750 300.058 259.949 306.960 156.061 169.122 262.276 230.147 134.828 200.042 90.924 263.210 130.853 353.365 297.773 123.903 240.298 126.304 112.932 270.297 0.000 263.971 114.672 227.784 154.711 349.676 320.770 184.131 104.049 207.711 330.614 163.198 139.670 251.765
175.379 310.128 436.581 172.475 206.883 516.238 174.465 246.482 217.411 248.087 317.812 312.210 243.678 257.962 230.451 273.152 189.951 191.929 291.277 251.168 415.726 240.616 253.678 296.989 236.232 243.594 283.925 161.986 347.765 239.619 373.945 406.539 227.926 349.064 235.070 205.085 354.852 248.040 0.000 225.214 155.938 265.253 305.901 405.326 292.897 196.201 310.024 132.185 172.152 144.849 354.078
93.481 194.533 320.986 170.914 100.307 310.661 93.854 54.996 108.998 267.516 288.478 106.633 243.555 52.385 244.794 155.293 146.501 189.520 283.758 250.022 210.149 134.040 147.102 277.004 233.419 26.201 203.315 111.177 232.834 123.893 321.052 200.962 71.431 143.487 99.727 133.185 239.257 75.415 270.642 0.000 236.862 40.039 341.153 289.730 87.320 124.302 138.026 339.401 172.276 142.942 203.406
199.641 334.390 460.843 77.474 231.145 480.203 199.398 226.189 241.672 159.252 232.557 253.614 250.968 221.927 298.014 195.917 123.570 218.460 298.568 258.458 379.691 264.878 277.939 211.734 261.857 207.559 308.859 168.490 372.027 193.917 381.236 361.599 234.430 313.029 164.162 161.956 379.114 246.608 115.354 219.280 0.000 256.727 318.739 429.587 256.862 160.166 316.528 167.593 70.949 171.380 360.582
135.556 223.257 349.710 224.164 142.382 373.179 135.929 97.071 137.723 320.765 336.077 172.819 285.630 118.571 286.868 215.864 188.576 231.595 312.483 292.097 272.666 176.115 189.176 324.603 275.494 92.386 245.390 153.251 261.559 165.968 349.777 267.148 113.506 206.005 161.419 175.260 267.981 117.489 312.716 73.508 290.111 0.000 383.228 318.455 148.448 166.376 170.241 381.475 225.525 185.017 235.621
242.087 344.238 486.466 285.497 242.659 586.348 241.172 313.971 246.143 373.477 430.834 397.115 91.857 342.867 252.127 374.420 274.856 217.655 139.456 94.355 485.835 252.293 258.279 410.010 302.940 318.904 350.633 231.066 259.863 324.524 222.124 491.444 295.415 419.174 319.975 289.989 404.689 315.529 280.335 292.703 303.645 332.742 0.000 455.211 356.674 281.106 362.456 270.765 285.174 200.179 405.766
251.273 220.720 43.540 393.881 257.700 437.989 251.646 295.256 234.010 490.482 505.794 357.753 381.249 322.741 398.509 388.725 358.293 343.236 362.412 403.738 395.112 291.433 300.817 494.320 391.211 298.295 361.107 270.322 311.887 361.757 399.707 403.094 276.700 328.451 345.144 344.977 186.185 296.814 428.434 272.094 421.021 290.479 494.869 0.000 265.950 336.093 269.697 497.193 395.242 300.735 171.020
148.033 238.916 365.369 150.382 154.859 229.675 148.405 109.548 153.381 246.983 267.945 91.802 298.107 61.781 299.345 122.774 153.445 244.072 328.141 304.573 129.162 188.592 201.653 256.471 287.971 85.664 257.866 165.728 277.217 110.070 365.435 137.143 125.983 62.500 79.194 129.028 283.640 129.966 266.921 102.638 216.330 121.474 395.705 334.113 0.000 178.853 163.257 319.159 151.744 197.494 228.638
100.156 234.905 361.358 137.065 131.660 367.304 99.913 113.289 142.187 233.666 248.978 163.276 261.791 109.027 276.146 140.581 110.396 196.082 309.390 269.281 266.791 165.393 178.454 237.505 239.479 94.659 209.374 100.256 272.542 90.685 362.697 257.605 129.725 200.130 86.136 88.161 279.629 133.708 253.604 106.380 203.013 143.827 359.008 330.102 143.962 0.000 204.727 305.842 138.427 149.002 261.097
135.591 203.863 276.983 229.031 142.018 308.324 135.964 109.063 118.328 325.632 346.594 170.451 285.266 135.440 286.504 201.423 200.568 231.231 293.070 291.732 207.811 175.751 188.812 335.120 275.529 111.701 245.425 154.639 242.146 177.960 330.364 215.792 125.498 141.150 157.843 187.252 209.631 129.481 312.751 85.500 294.979 103.885 382.864 245.728 78.649 178.368 0.000 381.510 230.393 185.052 87.070
268.906 403.655 530.108 190.160 300.410 575.124 267.992 321.109 310.938 265.772 335.498 348.534 246.193 316.847 246.255 290.837 218.490 285.456 293.793 248.691 474.611 334.143 347.205 314.674 329.759 302.479 377.452 255.513 414.199 288.837 376.461 456.520 321.453 407.949 259.082 256.876 448.379 341.528 93.527 314.200 173.623 351.647 282.614 498.853 351.782 255.086 403.551 0.000 189.837 238.376 447.605
148.231 282.980 409.432 6.524 179.735 416.128 147.988 162.114 190.262 112.796 171.517 188.589 201.256 157.852 248.303 130.891 59.495 167.050 248.856 208.747 315.615 213.468 226.529 150.693 210.447 143.484 257.449 117.079 320.617 128.892 331.524 296.574 178.549 248.954 99.137 97.881 327.703 182.532 123.427 155.205 70.949 192.652 298.473 378.177 192.787 96.091 253.551 175.666 0.000 119.970 309.172
63.481 198.229 324.682 136.374 94.985 422.798 62.566 135.364 105.512 224.354 281.711 220.730 147.026 166.482 156.509 211.956 125.733 72.969 194.625 154.516 322.285 128.718 141.779 260.888 124.333 140.297 172.027 52.870 235.866 162.060 277.293 315.059 116.808 255.624 157.511 127.525 242.953 136.922 161.936 114.097 154.523 154.136 244.243 293.427 193.124 118.642 198.906 230.695 136.051 0.000 242.961
204.235 173.934 206.751 308.412 210.661 325.713 204.607 188.444 186.972 405.013 425.976 249.833 331.723 214.822 348.585 280.805 279.949 293.311 312.886 353.813 287.192 244.394 250.892 414.502 344.173 191.082 314.068 223.283 261.962 257.341 350.180 295.174 204.879 220.531 237.225 266.633 139.398 208.863 381.395 164.881 373.982 183.266 444.944 175.495 158.031 257.750 115.515 450.154 309.774 253.696 0.000
NODE_COORD_SECTION
1 135.757630 21.597263
2 -1204.859930 -1635.258778
3 -2021.314548 -4931.426335
4 2001.538258 1384.309677
5 -366.301272 187.392840
6 4058.105162 -4693.413840
7 92.131381 266.185699
8 721.423571 -388.459841
9 -166.822797 -250.266483
10 3501.261943 2185.386360
11 4441.758408 867.518115
12 2164.506745 -1044.678501
13 -2535.928796 1984.964514
14 1800.109435 -1165.910798
15 -33.829315 1846.325402
16 2731.409381 -528.635912
17 1553.680396 844.508492
18 -201.036898 1316.847140
19 -3142.625500 1663.415544
20 -2401.046089 2136.315364
21 3498.122079 -3494.167434
22 -272.158515 167.381619
23 -585.825173 510.979759
24 4611.649023 797.007960
25 -78.552876 1110.867142
26 1361.783948 -914.453373
27 24.137676 -12.926301
28 483.479718 503.679743
29 -2435.111645 -170.233540
30 1800.826777 -14.644165
31 -4846.838953 690.063500
32 3729.329545 -2315.006685
33 549.657665 -446.551437
34 2921.168488 -2491.816267
35 1840.124737 -96.269832
36 1749.367633 489.546739
37 -1504.565529 -1866.099936
38 804.293681 -144.205158
39 1669.216711 3558.158350
40 925.524907 -664.465151
41 2090.053894 2037.426795
42 993.827510 -822.993924
43 -1623.612128 3471.340320
44 -2417.870859 -5002.140366
45 1518.828426 -1856.982479
46 1654.272696 515.051121
47 330.434530 -1977.941645
48 1259.696068 5029.118899
49 2068.939970 1446.896284
50 143.474388 1415.488353
51 -397.461906 -3019.777174
DEMAND_SECTION
1 0
2 2
3 4
4 3
5 7
6 2
7 6
8 2
9 3
10 7
11 9
12 10
13 3
14 2
15 6
16 8
17 3
18 8
19 73
20 7
21 2
22 79
23 10
24 4
25 7
26 9
27 3
28 7
29 55
30 70
31 7
32 4
33 87
34 3
35 4
36 3
37 4
38 2
39 8
40 5
41 9
42 9
43 5
44 8
45 1
46 8
47 7
48 4
49 4
50 8
51 8
DEPOT_SECTION
1
-1
EOF
