NAME : mamut-hong_kong-n25-poi
COMMENT : Mamut2026 euclidean metric; city hong_kong; 3-decimal seconds/meters; ENU ref in mamut-hong_kong-n25-poi.vrp.json
TYPE : CVRP
DIMENSION : 26
EDGE_WEIGHT_TYPE : EXPLICIT
EDGE_WEIGHT_FORMAT : FULL_MATRIX
CAPACITY : 141
EDGE_WEIGHT_SECTION
0.000 11767.697 6450.054 7043.420 2306.881 2633.788 5106.500 7417.182 7122.616 12206.462 4467.760 3683.197 7653.554 7128.471 10943.634 12168.194 7018.869 10460.162 6853.302 8823.748 12292.709 4690.432 3374.466 6860.172 4391.222 6960.694
11767.697 0.000 6290.085 18801.001 13415.080 14056.535 15346.677 19171.379 18886.728 14099.030 13538.778 8629.069 19410.834 18843.556 7449.626 14157.784 18693.879 22041.315 18232.457 19733.061 537.746 14478.948 15098.805 9853.673 16157.151 18716.261
6450.054 6290.085 0.000 13145.207 7541.475 8250.220 9141.506 13700.709 13368.384 14222.348 7279.133 2790.440 13742.734 13485.874 5055.252 14234.954 13412.912 16877.379 13301.144 13544.507 6734.578 8248.971 9777.519 8473.912 10677.298 13246.480
7043.420 18801.001 13145.207 0.000 5629.772 4902.588 5420.047 1110.524 768.413 16206.384 7112.306 10389.363 610.158 1570.489 16852.506 16129.506 1915.167 4416.602 3391.358 4412.755 19322.705 6184.394 3864.685 12448.413 2710.993 998.597
2306.881 13415.080 7541.475 5629.772 0.000 742.645 2819.450 6290.808 5930.188 14347.637 2664.125 4833.677 6218.259 6184.827 11328.365 14302.670 6196.550 9639.211 6543.125 6617.989 13921.167 2539.762 2934.462 9147.850 3408.727 5850.079
2633.788 14056.535 8250.220 4902.588 742.645 0.000 2814.528 5548.852 5189.509 14341.188 3140.975 5517.573 5495.502 5443.653 12070.252 14291.062 5460.012 8898.089 5852.275 6190.394 14567.257 2780.219 2312.504 9326.637 2679.130 5107.615
5106.500 15346.677 9141.506 5420.047 2819.450 2814.528 0.000 6418.677 6020.699 17131.740 1971.331 6780.858 5863.156 6589.731 11922.997 17083.872 6760.591 9832.117 7658.463 4403.224 15821.982 929.763 4741.592 11962.726 4482.811 6077.547
7417.182 19171.379 13700.709 1110.524 6290.808 5548.852 6418.677 0.000 398.092 15700.142 8019.336 10918.441 1110.010 629.570 17603.830 15618.509 1007.874 3441.270 2528.837 5448.679 19699.395 7135.496 4076.620 12292.512 3036.263 456.859
7122.616 18886.728 13368.384 768.413 5930.188 5189.509 6020.699 398.092 0.000 15707.421 7625.189 10590.524 952.922 810.500 17232.949 15627.698 1171.663 3836.139 2682.393 5169.281 19413.223 6738.276 3811.936 12165.453 2731.670 290.665
12206.462 14099.030 14222.348 16206.384 14347.637 14341.188 17131.740 15700.142 15707.421 0.000 16664.979 13261.494 16644.326 15083.569 18988.309 110.284 14724.227 16499.240 13322.305 19888.113 14499.061 16859.967 13085.070 5870.882 14070.165 15418.799
4467.760 13538.778 7279.133 7112.306 2664.125 3140.975 1971.331 8019.336 7625.189 16664.979 0.000 5121.161 7612.847 8086.358 9966.055 16628.686 8194.013 11460.597 8845.672 6319.612 14000.217 1042.224 5444.158 11171.003 5589.266 7631.887
3683.197 8629.069 2790.440 10389.363 4833.677 5517.573 6780.858 10918.441 10590.524 13261.494 5121.161 0.000 10991.114 10696.514 7372.714 13253.098 10622.488 14087.526 10534.786 11129.932 9123.846 5961.388 6988.549 7396.629 7890.723 10463.431
7653.554 19410.834 13742.734 610.158 6218.259 5495.502 5863.156 1110.010 952.922 16644.326 7612.847 10991.114 0.000 1711.807 17406.514 16565.419 2089.600 4043.494 3614.169 4374.211 19932.390 6661.040 4461.334 12996.839 3313.680 1243.018
7128.471 18843.556 13485.874 1570.489 6184.827 5443.653 6589.731 629.570 810.500 15083.569 8086.358 10696.514 1711.807 0.000 17512.883 15001.331 379.991 3454.437 1905.217 5979.097 19374.210 7250.648 3756.509 11758.785 2819.293 584.593
10943.634 7449.626 5055.252 16852.506 11328.365 12070.252 11922.997 17603.830 17232.949 18988.309 9966.055 7372.714 17406.514 17512.883 0.000 19011.962 17514.013 20966.997 17675.690 16076.827 7582.116 11002.790 14020.402 13399.709 14718.380 17169.715
12168.194 14157.784 14234.954 16129.506 14302.670 14291.062 17083.872 15618.509 15627.698 110.284 16628.686 13253.098 16565.419 15001.331 19011.962 0.000 14641.386 16403.997 13236.422 19822.612 14560.130 16817.373 13021.560 5866.786 14002.541 15338.912
7018.869 18693.879 13412.912 1915.167 6196.550 5460.012 6760.591 1007.874 1171.663 14724.227 8194.013 10622.488 2089.600 379.991 17514.013 14641.386 0.000 3472.595 1525.594 6327.883 19226.043 7388.217 3646.195 11468.869 2795.742 916.592
10460.162 22041.315 16877.379 4416.602 9639.211 8898.089 9832.117 3441.270 3836.139 16499.240 11460.597 14087.526 4043.494 3454.437 20966.997 16403.997 3472.595 0.000 3866.794 8050.690 22576.399 10571.054 7100.742 14199.318 6259.261 3839.031
6853.302 18232.457 13301.144 3391.358 6543.125 5852.275 7658.463 2528.837 2682.393 13322.305 8845.672 10534.786 3614.169 1905.217 17675.690 13236.422 1525.594 3866.794 0.000 7779.918 18769.014 8160.256 3668.322 10419.347 3257.497 2407.917
8823.748 19733.061 13544.507 4412.755 6617.989 6190.394 4403.224 5448.679 5169.281 19888.113 6319.612 11129.932 4374.211 5979.097 16076.827 19822.612 6327.883 8050.690 7779.918 0.000 20213.318 5307.698 6811.514 15367.961 5832.966 5411.291
12292.709 537.746 6734.578 19322.705 13921.167 14567.257 15821.982 19699.395 19413.223 14499.061 14000.217 9123.846 19932.390 19374.210 7582.116 14560.130 19226.043 22576.399 18769.014 20213.318 0.000 14948.718 15627.926 10351.328 16683.032 19244.071
4690.432 14478.948 8248.971 6184.394 2539.762 2780.219 929.763 7135.496 6738.276 16859.967 1042.224 5961.388 6661.040 7250.648 11002.790 16817.373 7388.217 10571.054 8160.256 5307.698 14948.718 0.000 4965.038 11531.157 4916.738 6767.817
3374.466 15098.805 9777.519 3864.685 2934.462 2312.504 4741.592 4076.620 3811.936 13085.070 5444.158 6988.549 4461.334 3756.509 14020.402 13021.560 3646.195 7100.742 3668.322 6811.514 15627.926 4965.038 0.000 8739.758 1166.577 3623.826
6860.172 9853.673 8473.912 12448.413 9147.850 9326.637 11962.726 12292.512 12165.453 5870.882 11171.003 7396.629 12996.839 11758.785 13399.709 5866.786 11468.869 14199.318 10419.347 15367.961 10351.328 11531.157 8739.758 0.000 9882.070 11905.425
4391.222 16157.151 10677.298 2710.993 3408.727 2679.130 4482.811 3036.263 2731.670 14070.165 5589.266 7890.723 3313.680 2819.293 14718.380 14002.541 2795.742 6259.261 3257.497 5832.966 16683.032 4916.738 1166.577 9882.070 0.000 2579.563
6960.694 18716.261 13246.480 998.597 5850.079 5107.615 6077.547 456.859 290.665 15418.799 7631.887 10463.431 1243.018 584.593 17169.715 15338.912 916.592 3839.031 2407.917 5411.291 19244.071 6767.817 3623.826 11905.425 2579.563 0.000
NODE_COORD_SECTION
1 1438.942575 -1211.855723
2 606.034796 10526.327715
3 3450.936963 4916.363532
4 2412.065493 -8187.728259
5 3264.032303 -2622.794823
6 3014.637515 -3322.311967
7 5763.251601 -3927.862086
8 1392.931499 -8628.895293
9 1657.151202 -8331.127986
10 -10408.836804 1725.461763
11 5843.925895 -1958.182873
12 2844.425478 2192.634833
13 2490.775824 -8792.788096
14 846.798385 -8315.690576
15 7561.666621 7858.721942
16 -10396.118462 1615.913891
17 497.007702 -8167.233631
18 -525.316509 -11485.933225
19 -934.915477 -7640.894735
20 6824.799442 -8201.209743
21 687.515044 11057.865037
22 5775.898317 -2998.184849
23 1064.730310 -4565.508184
24 -4551.942348 2130.487420
25 1603.968974 -5599.975802
26 1413.584964 -8172.503541
DEMAND_SECTION
1 0
2 1
3 9
4 7
5 4
6 9
7 71
8 84
9 100
10 1
11 1
12 82
13 8
14 1
15 4
16 3
17 5
18 8
19 79
20 87
21 3
22 4
23 99
24 5
25 3
26 4
DEPOT_SECTION
1
-1
EOF
