NAME : mamut-lyon-n10-hyb
COMMENT : Mamut2026 shortest metric; city lyon; 3-decimal seconds/meters; ENU ref in mamut-lyon-n10-hyb.vrp.json
TYPE : CVRP
DIMENSION : 11
EDGE_WEIGHT_TYPE : EXPLICIT
EDGE_WEIGHT_FORMAT : FULL_MATRIX
CAPACITY : 86
EDGE_WEIGHT_SECTION
0.000 3636.323 1478.708 4622.269 1463.942 993.854 3862.839 4542.726 3506.495 6157.178 5679.783
3749.968 0.000 2716.033 7712.616 2353.234 3963.264 5614.785 7719.048 4788.686 9117.644 8240.579
2083.974 2678.211 0.000 5429.864 1071.883 2318.808 3053.771 6001.266 2223.708 6834.891 5846.301
5114.662 8115.302 5691.188 0.000 5942.921 4573.143 5688.712 5060.550 6340.280 1671.106 4487.146
1695.027 2172.381 1163.829 5983.625 0.000 1908.322 4062.580 5704.629 3351.931 7452.425 6678.775
976.484 4129.127 2446.708 4731.132 1980.082 0.000 4830.838 4093.418 4474.495 6402.239 6351.909
4369.130 5655.980 3124.147 6024.043 3938.148 4666.752 0.000 8053.725 1215.137 5062.224 3570.805
4515.202 7726.896 5985.426 4910.378 5577.851 3973.683 8028.540 0.000 7712.356 6581.484 8410.382
3828.786 4825.917 2294.084 6280.777 3108.085 4126.407 1213.616 7649.319 0.000 5816.092 4324.673
6785.768 9504.039 6959.951 1671.106 7591.246 6244.249 5148.964 6731.656 5904.353 0.000 3947.398
5878.905 8508.378 5964.290 4539.075 6595.585 6176.527 3458.924 8650.373 4214.312 3470.666 0.000
NODE_COORD_SECTION
1 135.757630 21.597263
2 3126.301013 -320.961717
3 1031.708687 -934.078618
4 -2716.863800 -1126.865821
5 1218.816766 -103.602618
6 192.304429 726.757575
7 -455.388500 -3116.914840
8 -2169.781890 2614.729357
9 314.521719 -2797.145236
10 -3221.170322 -2460.636246
11 -1721.289846 -4599.490878
DEMAND_SECTION
1 0
2 4
3 2
4 7
5 7
6 7
7 1
8 10
9 7
10 8
11 3
DEPOT_SECTION
1
-1
EOF
