NAME : poryos-paris-n25-hyb
COMMENT : Poryos2026 euclidean metric; city paris; 3-decimal seconds/meters; ENU ref in poryos-paris-n25-hyb.vrp.json
TYPE : CVRP
DIMENSION : 26
EDGE_WEIGHT_TYPE : EXPLICIT
EDGE_WEIGHT_FORMAT : FULL_MATRIX
CAPACITY : 122
EDGE_WEIGHT_SECTION
0.000 6126.558 718.261 868.269 4657.984 1639.292 1729.869 6155.905 2803.061 3615.477 5219.225 1982.817 7270.665 4285.601 2500.561 5295.689 2584.396 5570.426 6800.084 5403.237 8853.943 272.425 6969.695 4467.785 5646.538 5298.941
6126.558 0.000 5429.657 6723.842 2938.958 6363.709 4457.682 5938.250 6006.087 9741.833 5761.649 4232.820 13256.577 10216.419 7291.426 5219.566 8682.463 11518.695 5248.341 10813.783 13158.828 5863.798 2388.238 2625.932 548.248 4871.095
718.261 5429.657 0.000 1357.962 3966.307 1642.566 1011.616 5667.483 2534.994 4319.719 4760.868 1385.215 7987.700 4886.341 2657.058 4773.425 3301.876 6183.795 6220.577 6049.392 9375.661 495.000 6256.608 3906.270 4942.275 4742.149
868.269 6723.842 1357.962 0.000 4926.704 1119.880 2266.970 5956.583 2431.505 3131.267 4992.023 2738.581 6964.217 3532.354 1732.799 5166.997 2271.473 4832.462 6749.937 5473.984 9153.671 1103.735 7324.440 5256.345 6218.898 5230.191
4657.984 2938.958 3966.307 4926.704 0.000 4183.532 3015.758 3170.986 3411.895 8051.741 2843.562 3443.743 11877.421 8101.074 4899.540 2341.417 7165.743 9364.922 2899.013 9995.800 13080.146 4461.055 2440.738 3860.990 2429.282 2022.066
1639.292 6363.709 1642.566 1119.880 4183.532 0.000 2117.394 4862.928 1316.823 3969.204 3894.168 2881.605 7879.018 3933.649 1049.566 4106.673 3277.998 5217.251 5716.952 6576.067 10272.730 1733.196 6622.714 5331.383 5830.118 4200.720
1729.869 4457.682 1011.616 2266.970 3015.758 2117.394 0.000 5078.564 2488.338 5318.861 4245.190 906.916 8997.591 5780.846 3158.831 4144.001 4313.017 7083.921 5465.067 6981.111 10147.348 1494.631 5255.645 3217.688 3957.281 4050.169
6155.905 5938.250 5667.483 5956.583 3170.986 4862.928 5078.564 0.000 3556.859 8670.074 970.980 5857.287 12576.472 8063.783 4935.346 949.607 8123.971 9128.190 1325.030 11430.567 15009.785 6080.884 4356.407 6967.881 5490.621 1170.050
2803.061 6006.087 2534.994 2431.505 3411.895 1316.823 2488.338 3556.859 0.000 5165.980 2586.150 3390.660 9087.024 4832.032 1558.481 2843.910 4567.614 6044.682 4476.744 7892.342 11573.262 2812.600 5812.233 5544.168 5457.919 2981.500
3615.477 9741.833 4319.719 3131.267 8051.741 3969.204 5318.861 8670.074 5165.980 0.000 7706.014 5554.492 3921.253 1730.055 3744.360 8009.250 1146.019 2540.016 9642.431 3507.243 7547.913 3878.402 10455.682 7920.027 9260.906 8139.792
5219.225 5761.649 4760.868 4992.023 2843.562 3894.168 4245.190 970.980 2586.150 7706.014 0.000 5068.721 11616.566 7144.125 3978.577 612.163 7153.023 8240.188 2068.285 10465.447 14070.643 5157.197 4547.354 6433.828 5267.011 973.359
1982.817 4232.820 1385.215 2738.581 3443.743 2881.605 906.916 5857.287 3390.660 5554.492 5068.721 0.000 9029.403 6253.932 3930.366 4910.914 4465.990 7545.704 6117.755 6741.074 9640.566 1710.418 5438.213 2521.149 3792.164 4776.959
7270.665 13256.577 7987.700 6964.217 11877.421 7879.018 8997.591 12576.472 9087.024 3921.253 11616.566 9029.403 0.000 4795.999 7641.411 11929.803 4712.215 4356.363 13563.626 3206.250 5899.389 7503.937 14235.455 11100.874 12821.093 12060.551
4285.601 10216.419 4886.341 3532.354 8101.074 3933.649 5780.846 8063.783 4832.032 1730.055 7144.125 6253.932 4795.999 0.000 3273.775 7555.244 2533.466 1303.231 9185.716 5171.976 9197.696 4555.747 10541.567 8753.375 9697.562 7755.435
2500.561 7291.426 2657.058 1732.799 4899.540 1049.566 3158.831 4935.346 1558.481 3744.360 3978.577 3930.366 7641.411 3273.775 0.000 4329.294 3347.600 4492.005 5968.769 6778.263 10644.683 2657.980 7327.601 6375.992 6749.794 4504.059
5295.689 5219.566 4773.425 5166.997 2341.417 4106.673 4144.001 949.607 2843.910 8009.250 612.163 4910.914 11929.803 7555.244 4329.294 0.000 7384.663 8688.568 1639.704 10629.022 14139.969 5203.175 3936.198 6061.122 4739.150 366.172
2584.396 8682.463 3301.876 2271.473 7165.743 3277.998 4313.017 8123.971 4567.614 1146.019 7153.023 4465.990 4712.215 2533.466 3347.600 7384.663 0.000 3581.287 8991.097 3437.719 7379.517 2833.421 9527.987 6789.551 8215.472 7472.496
5570.426 11518.695 6183.795 4832.462 9364.922 5217.251 7083.921 9128.190 6044.682 2540.016 8240.188 7545.704 4356.363 1303.231 4492.005 8688.568 3581.287 0.000 10301.683 5549.652 9448.948 5841.828 11802.975 10036.071 10998.832 8911.429
6800.084 5248.341 6220.577 6749.937 2899.013 5716.952 5465.067 1325.030 4476.744 9642.431 2068.285 6117.755 13563.626 9185.716 5968.769 1639.704 8991.097 10301.683 0.000 12181.643 15588.175 6678.772 3319.905 6738.957 4878.589 1519.853
5403.237 10813.783 6049.392 5473.984 9995.800 6576.067 6981.111 11430.567 7892.342 3507.243 10465.447 6741.074 3206.250 5171.976 6778.263 10629.022 3437.719 5549.652 12181.643 0.000 4040.687 5561.507 12169.258 8425.401 10444.930 10668.112
8853.943 13158.828 9375.661 9153.671 13080.146 10272.730 10147.348 15009.785 11573.262 7547.913 14070.643 9640.566 5899.389 9197.696 10644.683 14139.969 7379.517 9448.948 15588.175 4040.687 0.000 8936.798 14952.978 10548.708 12914.742 14117.809
272.425 5863.798 495.000 1103.735 4461.055 1733.196 1494.631 6080.884 2812.600 3878.402 5157.197 1710.418 7503.937 4555.747 2657.980 5203.175 2833.421 5841.828 6678.772 5561.507 8936.798 0.000 6747.385 4197.820 5387.417 5188.782
6969.695 2388.238 6256.608 7324.440 2440.738 6622.714 5255.645 4356.407 5812.233 10455.682 4547.354 5438.213 14235.455 10541.567 7327.601 3936.198 9527.987 11802.975 3319.905 12169.258 14952.978 6747.385 0.000 4727.291 2287.706 3574.369
4467.785 2625.932 3906.270 5256.345 3860.990 5331.383 3217.688 6967.881 5544.168 7920.027 6433.828 2521.149 11100.874 8753.375 6375.992 6061.122 6789.551 10036.071 6738.957 8425.401 10548.708 4197.820 4727.291 0.000 2474.477 5797.835
5646.538 548.248 4942.275 6218.898 2429.282 5830.118 3957.281 5490.621 5457.919 9260.906 5267.011 3792.164 12821.093 9697.562 6749.794 4739.150 8215.472 10998.832 4878.589 10444.930 12914.742 5387.417 2287.706 2474.477 0.000 4397.564
5298.941 4871.095 4742.149 5230.191 2022.066 4200.720 4050.169 1170.050 2981.500 8139.792 973.359 4776.959 12060.551 7755.435 4504.059 366.172 7472.496 8911.429 1519.853 10668.112 14117.809 5188.782 3574.369 5797.835 4397.564 0.000
NODE_COORD_SECTION
1 -500.874011 70.822412
2 4532.192554 3564.094497
3 166.984340 335.141569
4 -588.944601 -792.968899
5 4120.443653 654.122726
6 415.314351 -1288.544346
7 1105.266364 713.285891
8 5163.088515 -2340.546063
9 1662.220133 -1711.921113
10 -3498.227137 -1950.945654
11 4204.133521 -2188.207592
12 799.973175 1567.271729
13 -7412.432748 -2185.927410
14 -2811.179308 -3538.729095
15 227.780222 -2321.220408
16 4505.568424 -1655.403667
17 -2850.446418 -1005.567118
18 -3710.334449 -4482.090006
19 6130.390267 -1434.990247
20 -5875.321694 627.847685
21 -8626.614990 3587.161089
22 -324.785551 278.688697
23 6228.987345 1883.450036
24 1919.382643 3826.279340
25 4278.097632 3078.283647
26 4615.996590 -1306.279882
DEMAND_SECTION
1 0
2 2
3 3
4 2
5 8
6 4
7 4
8 10
9 8
10 3
11 65
12 2
13 61
14 8
15 57
16 1
17 10
18 99
19 7
20 51
21 7
22 5
23 2
24 4
25 71
26 95
DEPOT_SECTION
1
-1
EOF
