NAME : mamut-paris-n10-hyb
COMMENT : Mamut2026 fastest metric; city paris; 3-decimal seconds/meters; ENU ref in mamut-paris-n10-hyb.vrp.json
TYPE : CVRP
DIMENSION : 11
EDGE_WEIGHT_TYPE : EXPLICIT
EDGE_WEIGHT_FORMAT : FULL_MATRIX
CAPACITY : 100
EDGE_WEIGHT_SECTION
0.000 170.485 492.485 290.373 252.070 82.780 346.470 204.575 372.138 220.018 332.941
223.900 0.000 611.073 196.728 158.425 251.203 300.474 180.556 394.753 253.201 416.659
414.253 558.783 0.000 643.411 640.367 431.344 499.154 477.164 780.191 405.767 650.867
355.261 216.348 730.429 0.000 181.365 382.564 358.192 264.651 417.693 359.235 518.626
313.758 174.846 673.153 190.310 0.000 341.061 263.396 244.156 240.839 336.480 403.478
142.720 252.372 456.564 335.232 296.929 0.000 428.357 272.385 429.164 239.758 255.344
347.486 296.084 502.453 288.348 266.033 374.789 0.000 189.512 458.821 271.277 583.609
186.601 200.002 512.600 215.112 221.082 259.806 169.413 0.000 457.410 94.585 477.482
415.484 370.811 812.729 386.275 264.084 417.521 474.539 442.091 0.000 532.445 391.496
228.410 306.740 472.450 345.818 346.398 258.382 290.961 135.096 582.726 0.000 513.725
341.803 406.239 709.086 453.078 414.775 256.666 602.435 490.516 417.845 496.424 0.000
NODE_COORD_SECTION
1 -500.874011 70.822412
2 204.844649 -2048.531555
3 -8173.220824 2231.991929
4 211.356527 -3429.149073
5 1164.497986 -4043.880396
6 -15.266374 1335.414020
7 -3805.380107 -3591.508254
8 -2347.624106 -2030.626921
9 4983.648261 -3650.532722
10 -3362.947156 -786.627030
11 3425.238281 1785.987140
DEMAND_SECTION
1 0
2 9
3 5
4 5
5 54
6 3
7 3
8 9
9 76
10 6
11 75
DEPOT_SECTION
1
-1
EOF
