NAME : poryos-tokyo-n50-poi
COMMENT : Poryos2026 fastest metric; city tokyo; 3-decimal seconds/meters; ENU ref in poryos-tokyo-n50-poi.vrp.json
TYPE : CVRP
DIMENSION : 51
EDGE_WEIGHT_TYPE : EXPLICIT
EDGE_WEIGHT_FORMAT : FULL_MATRIX
CAPACITY : 177
EDGE_WEIGHT_SECTION
0.000 496.412 127.583 317.847 186.250 188.709 224.808 420.553 334.388 728.987 397.066 161.955 178.753 448.739 406.324 218.732 459.317 405.870 543.846 421.217 131.492 184.628 309.528 138.273 223.796 407.134 734.455 159.512 602.453 214.572 107.758 442.677 199.693 241.529 376.685 533.977 158.119 375.832 472.968 235.942 458.397 201.788 728.993 316.196 529.240 307.765 204.471 252.285 150.856 223.458 426.292
492.793 0.000 424.575 253.865 341.221 547.483 345.828 374.605 719.706 264.680 588.011 477.213 537.527 785.202 749.045 436.238 650.261 269.257 880.309 293.567 490.266 407.244 300.474 514.466 572.641 499.154 270.148 518.286 165.320 364.541 471.214 383.848 558.467 299.653 567.629 809.805 493.562 735.502 809.431 379.793 86.188 560.562 264.687 280.827 236.392 303.643 425.745 637.603 459.122 424.668 769.907
120.173 425.522 0.000 233.766 101.522 238.824 152.645 411.209 395.220 658.097 411.160 206.204 228.868 527.953 494.568 209.387 473.410 345.444 632.090 360.790 181.607 175.283 249.102 189.980 273.912 397.789 663.565 209.627 535.574 126.977 157.873 433.333 249.808 178.983 390.778 564.652 208.234 436.664 561.213 175.516 374.317 251.903 658.103 255.770 445.160 224.169 195.127 313.116 188.112 214.113 476.407
323.361 273.993 237.560 0.000 173.769 360.469 158.813 446.759 532.692 506.568 585.279 290.199 350.512 665.425 665.596 383.506 647.529 364.119 780.951 379.429 303.251 349.402 277.842 327.452 389.008 544.947 512.036 331.271 386.350 197.090 284.199 456.001 371.452 141.671 564.897 619.938 309.930 545.635 702.889 251.511 219.219 373.547 506.574 284.510 290.062 120.278 369.246 450.588 272.108 388.232 580.040
183.890 336.579 98.051 169.127 0.000 272.390 89.603 411.965 444.614 569.154 469.461 202.120 262.434 577.347 549.478 267.688 531.711 325.129 687.000 344.636 215.173 233.584 235.662 239.374 300.930 455.512 574.622 243.193 446.631 48.991 196.121 421.208 283.374 90.040 449.079 560.569 221.851 464.361 614.811 162.076 297.400 285.469 569.160 242.330 380.521 161.128 253.428 362.510 184.029 272.414 498.767
199.661 558.915 259.912 363.590 283.266 0.000 255.177 589.664 294.809 791.490 566.176 119.731 50.540 442.667 472.765 387.842 628.427 526.560 533.756 546.067 91.451 353.738 459.327 136.627 101.432 576.244 796.958 77.661 671.272 330.087 114.903 611.788 35.757 355.350 502.310 450.850 93.351 227.085 455.694 386.325 504.140 50.309 791.496 457.064 551.819 292.575 373.582 135.547 156.673 392.568 262.715
208.760 346.155 134.767 150.831 73.845 238.435 0.000 428.312 410.659 578.730 520.590 168.166 228.479 543.392 543.562 318.817 582.840 341.476 658.918 360.983 181.218 284.713 274.242 205.419 266.975 471.253 584.198 209.238 458.513 120.665 162.166 437.555 249.419 143.919 500.208 525.909 187.896 430.407 580.856 221.952 291.381 251.514 578.736 271.979 362.224 136.151 304.556 328.555 150.074 323.543 464.812
422.537 380.294 421.115 432.379 414.426 580.981 449.345 0.000 675.592 553.284 310.508 536.565 571.025 629.228 590.699 278.906 372.774 170.045 724.335 85.924 523.764 249.912 225.152 526.176 616.068 218.252 558.752 551.784 345.041 416.669 500.030 22.142 591.965 328.704 343.461 895.014 550.391 763.456 653.458 310.519 353.934 594.060 553.291 205.505 531.607 465.319 268.413 639.908 518.474 267.336 818.564
324.382 711.214 395.671 515.889 435.565 288.402 415.336 665.250 0.000 943.789 558.396 321.844 296.138 212.412 357.310 463.429 657.178 673.448 327.937 676.462 282.172 429.324 572.669 217.906 361.059 651.831 949.257 288.213 823.571 473.708 276.478 687.374 256.461 507.649 486.320 677.128 303.903 219.393 249.875 503.520 656.439 259.316 943.795 583.774 727.283 489.064 449.168 168.580 319.577 468.155 355.484
725.886 263.769 657.667 486.958 574.313 780.576 578.921 557.707 952.799 0.000 714.401 710.306 770.620 1018.294 982.137 669.331 776.667 432.679 1113.402 493.613 723.358 640.337 533.566 747.559 805.734 622.145 19.051 751.378 257.518 597.634 704.307 561.183 791.559 532.746 758.020 1042.898 726.655 968.594 1042.524 612.886 319.281 793.655 13.589 513.920 439.845 536.736 658.838 870.696 692.215 657.761 1003.000
396.932 589.722 418.707 580.546 470.397 555.376 536.709 303.839 568.521 710.034 0.000 528.622 545.420 454.991 334.239 276.723 172.457 371.280 550.099 342.040 498.158 262.318 410.646 468.941 590.463 264.996 715.502 526.178 501.790 489.427 474.424 315.647 538.837 462.899 97.667 900.644 524.785 669.153 479.221 431.680 531.725 541.692 710.040 394.994 709.398 586.655 276.889 576.083 517.522 277.383 785.119
147.678 468.909 200.749 273.584 193.260 96.042 165.171 523.390 318.140 701.483 514.194 0.000 86.086 458.357 475.388 335.859 576.444 436.554 573.882 456.061 39.469 301.755 369.320 121.798 131.129 524.262 706.951 66.844 581.266 240.081 62.921 532.633 107.025 265.344 462.329 441.310 48.091 297.994 495.820 296.319 414.134 109.121 701.490 367.057 484.978 227.971 321.599 195.118 68.632 340.586 333.625
162.855 522.109 223.106 326.784 246.460 51.361 218.371 552.858 281.799 754.684 529.370 82.925 0.000 422.015 452.114 351.036 591.621 489.754 537.541 509.261 47.436 316.932 422.521 105.739 117.413 539.438 760.152 49.294 634.466 293.281 78.097 574.982 70.684 318.544 472.832 440.842 64.984 265.620 459.479 349.519 467.334 72.779 754.690 420.258 528.977 264.208 336.776 158.777 119.867 355.762 301.250
446.548 786.499 539.969 660.188 579.864 439.487 559.634 625.132 212.570 1019.074 454.983 472.928 447.223 0.000 175.626 481.620 553.811 640.490 126.357 636.241 433.257 447.516 590.860 362.205 487.691 611.713 1024.542 439.298 837.073 618.007 420.777 647.256 407.546 610.947 409.343 766.192 454.987 298.792 55.480 587.489 725.216 410.401 1019.080 588.486 871.581 633.362 467.359 342.428 463.875 486.346 434.883
406.411 753.155 504.414 662.153 549.173 468.134 561.599 583.286 365.266 985.729 335.520 488.157 475.870 173.535 0.000 461.664 434.347 607.146 268.642 602.897 457.694 428.447 571.792 383.656 540.791 544.442 991.197 467.945 781.237 582.452 433.959 595.094 436.193 591.879 340.636 859.493 483.635 451.849 197.764 568.421 691.872 439.048 985.735 555.141 869.545 635.327 448.291 414.334 465.840 462.324 587.940
227.841 439.363 226.420 388.259 278.110 386.285 344.422 277.894 480.897 671.938 275.716 359.532 376.329 487.894 461.396 0.000 337.966 293.354 598.553 289.105 329.068 55.217 235.735 331.480 421.373 264.475 677.406 357.088 489.937 297.140 305.334 300.018 397.269 270.612 255.334 731.554 355.695 568.760 525.358 232.364 378.081 399.364 671.944 241.350 555.753 394.368 37.586 445.212 348.432 40.156 623.868
458.816 651.665 480.591 642.430 532.281 617.260 598.593 365.782 664.397 771.976 161.873 590.506 607.303 550.928 430.176 338.607 0.000 433.222 646.036 403.983 560.042 324.202 472.530 552.835 652.347 299.959 777.444 588.062 563.733 551.311 536.308 377.590 622.731 524.783 193.543 962.528 586.669 765.029 575.158 493.564 593.609 625.586 771.983 456.878 771.282 648.539 338.773 666.567 579.406 339.267 854.843
426.215 284.514 358.519 366.455 343.704 536.113 378.623 172.271 702.996 404.826 370.919 465.843 526.157 657.883 621.726 308.920 433.185 0.000 752.990 100.312 478.895 279.926 161.042 503.096 564.653 278.663 410.294 506.915 196.583 345.947 459.844 175.748 547.096 257.982 414.538 824.292 485.574 728.084 682.113 246.409 270.383 549.192 404.832 141.396 448.056 394.597 298.427 626.233 447.752 297.350 762.489
519.352 859.303 617.355 755.591 662.114 531.881 655.037 697.936 307.973 1091.878 527.787 568.331 542.626 103.153 248.430 568.438 626.615 713.294 0.000 709.045 528.660 542.919 680.200 457.608 573.600 684.517 1097.346 534.701 909.877 695.393 516.180 720.060 502.949 706.350 482.147 852.101 550.391 384.701 127.383 682.892 798.020 505.804 1091.884 661.289 966.984 728.765 562.762 428.337 559.278 569.099 520.792
418.110 303.409 350.414 360.164 342.210 534.620 377.130 81.038 686.249 494.645 341.594 464.350 524.663 638.527 602.369 289.563 403.860 93.159 733.634 0.000 477.402 260.569 152.937 501.603 563.160 249.338 500.113 505.422 286.402 344.454 458.350 90.281 545.603 256.488 362.473 822.799 484.081 726.591 662.756 238.303 281.719 547.698 494.652 133.290 459.392 393.104 279.070 624.739 446.259 277.993 760.996
134.624 493.878 194.875 298.553 218.229 96.091 190.140 524.626 290.876 726.452 501.139 69.338 86.135 431.093 461.191 322.805 563.390 461.523 546.618 481.030 0.000 288.701 394.289 108.743 131.178 511.207 731.920 66.894 606.235 265.050 49.866 546.751 103.346 290.313 449.275 441.359 65.501 292.903 468.557 321.288 439.103 105.441 726.459 392.026 509.947 253.344 308.544 169.356 91.636 327.531 333.674
194.032 397.395 192.610 354.449 244.300 352.476 310.612 235.926 447.087 629.970 254.413 325.722 342.519 454.084 436.764 50.401 316.664 251.386 569.610 247.137 295.258 0.000 200.843 297.670 387.563 222.507 635.438 323.278 447.969 263.330 271.524 258.050 363.459 236.802 234.032 697.744 321.885 534.950 491.548 197.472 336.113 365.554 629.976 199.382 513.785 360.558 39.908 411.403 314.622 38.831 590.059
308.900 311.500 241.205 259.829 236.925 448.108 292.539 233.413 581.316 544.075 418.146 378.272 438.151 588.314 570.993 225.242 480.396 150.737 703.839 166.083 390.890 191.138 0.000 399.263 477.082 344.219 549.543 418.910 347.320 237.563 367.156 242.655 459.091 154.708 397.764 736.721 398.003 640.513 625.777 129.094 250.218 461.186 544.081 25.574 427.090 291.324 210.982 522.400 360.181 229.968 674.918
136.652 514.606 199.063 319.282 238.957 135.197 218.728 524.608 229.195 747.181 468.679 134.069 132.815 361.928 384.529 322.787 553.546 482.251 477.454 501.758 103.605 288.683 399.226 0.000 195.910 511.189 752.649 121.454 626.964 277.101 79.871 546.733 103.255 311.042 396.603 506.090 130.232 270.639 399.392 325.640 459.832 106.111 747.187 405.894 530.675 292.456 308.526 147.091 122.969 327.513 349.537
227.210 571.877 287.461 364.478 298.482 103.162 266.330 617.212 369.093 804.452 593.725 147.280 111.195 493.321 547.049 415.391 655.976 541.776 581.627 561.283 119.000 381.287 474.543 201.329 0.000 603.793 809.920 91.300 684.234 345.303 142.452 637.855 110.040 370.566 541.861 400.158 120.900 274.955 503.565 401.541 517.103 124.593 804.458 472.280 539.195 293.063 401.130 209.830 184.222 420.117 310.586
445.733 497.989 444.312 559.809 476.086 604.177 524.967 249.892 698.788 618.301 300.223 577.424 594.221 652.424 580.414 302.102 322.324 279.546 747.532 250.307 546.960 273.109 372.085 549.372 639.265 0.000 623.769 574.980 410.057 490.944 523.226 261.700 615.161 442.162 343.842 949.445 573.587 786.652 676.654 431.132 508.666 617.256 618.307 362.284 686.339 565.918 291.609 663.104 565.553 290.532 841.760
733.031 270.914 664.813 494.103 581.459 787.721 586.066 564.852 959.944 19.051 721.547 717.451 777.765 1025.440 989.283 676.476 783.812 439.825 1120.547 500.758 730.504 647.482 540.712 754.704 812.879 629.290 0.000 758.524 264.663 604.779 711.452 568.329 798.705 539.891 765.165 1050.043 733.800 975.740 1049.669 620.031 326.426 800.800 19.057 521.065 446.991 543.881 665.983 877.841 699.360 664.906 1010.145
157.103 516.357 217.354 321.033 240.708 66.618 212.619 547.106 297.048 748.932 523.619 77.173 56.662 437.265 467.363 345.284 585.869 484.002 552.790 503.509 48.894 311.180 416.769 120.988 102.724 533.687 754.400 0.000 628.715 287.529 72.346 569.230 85.933 312.793 471.754 421.242 50.794 260.257 474.728 343.768 461.583 88.028 748.938 414.506 513.543 250.017 331.024 174.026 114.115 350.011 295.887
616.047 185.499 548.518 388.455 464.475 682.073 480.418 366.380 854.297 255.294 523.074 611.804 672.117 859.857 803.265 510.894 585.340 241.352 954.965 302.286 624.856 481.900 363.016 649.057 707.232 430.818 260.762 652.876 0.000 487.795 605.804 369.856 693.057 422.746 566.693 944.395 628.153 870.092 884.087 448.383 241.011 695.152 255.300 343.370 361.575 438.234 500.401 772.193 593.712 499.324 904.497
223.261 380.605 132.370 213.153 58.002 325.386 142.012 421.816 495.669 613.179 496.560 255.117 315.430 628.402 595.017 294.787 558.811 334.980 732.539 354.487 268.169 260.683 246.254 290.429 353.926 479.757 618.647 296.189 490.657 0.000 249.117 431.059 336.370 121.742 476.179 613.566 274.847 517.358 661.662 186.322 341.425 338.465 613.186 252.922 424.546 213.536 280.527 413.565 237.025 299.514 551.763
106.300 478.457 166.551 283.132 202.808 105.746 182.579 496.303 285.660 711.032 472.816 78.993 95.790 418.393 434.411 294.481 535.066 446.102 533.918 465.609 48.529 260.377 366.715 80.420 140.833 482.884 716.500 76.549 590.814 244.589 0.000 518.427 116.730 274.892 420.951 451.014 75.156 307.699 455.857 293.128 423.683 118.825 711.038 373.383 494.526 256.307 280.221 196.989 86.820 299.208 343.329
446.411 377.102 419.437 429.187 411.234 603.643 446.153 30.409 699.466 538.804 303.710 533.373 593.687 653.102 583.901 302.780 365.976 160.378 748.209 82.732 546.425 273.786 221.960 550.050 632.183 211.454 544.272 574.445 330.560 413.477 523.903 0.000 614.626 325.512 347.329 891.822 553.104 787.329 677.332 307.327 350.742 616.722 538.810 202.313 528.415 462.127 292.287 663.782 515.282 291.210 830.019
201.171 560.425 261.422 365.100 284.776 31.941 256.687 591.173 259.053 792.999 538.629 121.241 61.340 406.910 437.008 389.352 623.496 528.070 518.502 547.577 85.752 355.248 460.836 100.871 104.598 577.754 798.467 83.389 672.782 331.597 116.413 613.297 0.000 356.860 466.553 454.015 103.300 211.831 440.440 387.835 505.650 14.552 793.006 458.573 554.984 302.524 375.091 99.790 158.183 394.078 247.461
261.994 297.143 194.298 130.235 115.697 362.004 160.349 351.675 534.228 529.718 482.224 291.735 352.048 628.963 611.642 280.451 544.475 264.839 744.488 284.346 304.787 246.347 181.839 328.988 390.544 441.892 535.186 332.807 409.500 139.018 285.735 360.918 372.988 0.000 461.843 624.326 311.465 550.023 666.426 143.995 242.369 375.083 529.724 188.507 341.628 136.616 266.191 452.124 273.643 285.178 584.428
376.207 572.283 397.982 559.822 449.672 498.700 515.985 343.461 496.443 751.626 97.665 476.651 493.448 416.568 341.134 255.998 196.447 412.871 511.675 375.386 446.187 241.594 389.922 396.862 538.492 306.588 757.094 474.207 543.382 468.702 422.453 357.239 466.758 442.175 0.000 848.672 472.814 597.075 440.798 410.956 511.001 469.613 751.632 374.270 688.673 565.931 256.165 504.004 462.373 256.658 713.040
533.864 814.929 568.005 610.429 560.515 446.535 512.311 890.646 675.228 1047.504 900.379 450.228 450.297 765.647 860.997 722.045 962.630 803.809 853.953 823.316 425.654 687.940 736.576 507.983 404.092 910.447 1052.972 404.116 927.286 607.336 449.106 899.888 453.414 632.599 848.514 0.000 426.989 539.874 775.891 663.574 760.155 467.966 1047.510 734.313 712.099 539.014 707.784 553.204 468.166 726.771 527.986
179.167 512.294 239.418 304.895 238.899 105.556 206.747 569.029 335.986 744.868 545.683 69.421 95.600 476.203 506.301 367.348 607.933 482.193 587.288 501.700 70.958 333.244 414.959 153.287 113.751 555.750 750.336 57.583 624.651 285.720 94.409 578.272 115.701 310.983 493.818 423.932 0.000 280.616 509.226 341.958 457.519 126.966 744.875 412.696 498.248 233.479 353.088 212.964 120.976 372.074 316.247
375.746 737.527 447.034 533.978 476.500 227.049 435.860 762.958 219.658 970.102 664.524 312.965 256.448 298.843 448.672 561.136 763.306 719.794 387.148 739.301 284.686 527.032 647.197 269.270 268.768 749.539 975.570 247.559 849.884 523.321 308.138 785.082 213.758 548.585 592.448 538.400 286.585 0.000 309.087 573.611 682.752 226.945 970.108 650.298 703.743 462.562 546.876 164.106 349.907 565.863 174.441
462.409 802.360 560.412 690.783 605.171 449.126 590.229 640.994 243.165 1034.935 470.844 503.524 477.818 46.211 191.487 511.496 569.672 656.351 134.874 652.102 463.852 478.111 621.455 392.800 490.845 627.574 1040.403 469.636 852.934 638.450 451.372 663.118 435.835 641.542 425.204 769.347 485.583 301.946 0.000 618.084 741.078 440.996 1034.941 604.347 902.177 663.958 497.955 345.583 494.470 512.156 438.037
235.312 364.773 167.616 228.496 163.336 374.519 237.488 304.860 512.093 597.347 429.593 304.683 364.563 584.331 567.011 221.259 491.843 222.184 699.856 237.530 317.301 187.155 125.842 325.674 403.493 373.149 602.815 345.321 418.767 168.913 293.567 314.102 385.503 98.262 409.211 663.132 324.414 566.924 621.794 0.000 303.490 387.598 597.354 132.510 439.890 234.877 206.999 448.811 286.592 225.985 601.329
448.432 87.437 370.832 200.123 296.289 493.741 292.086 339.648 665.964 320.011 520.897 423.471 483.785 718.088 681.931 369.124 583.147 242.112 813.195 265.723 436.523 340.130 233.360 460.724 518.899 459.585 325.479 464.543 220.651 319.610 417.472 348.890 504.724 245.911 500.515 756.062 439.820 681.759 742.318 312.679 0.000 506.820 320.018 213.713 206.884 249.901 358.631 583.861 405.380 357.554 716.165
198.564 557.818 258.815 362.494 282.169 43.802 254.080 588.567 266.246 790.393 545.823 118.634 70.400 414.104 444.202 386.745 627.330 525.463 529.048 544.970 83.146 352.641 458.230 108.064 123.489 575.148 795.861 85.004 670.176 328.990 113.807 610.691 18.891 354.254 473.747 472.906 100.693 229.542 450.986 385.229 503.044 0.000 790.399 455.967 564.686 299.917 372.485 106.983 155.576 391.472 265.173
725.973 263.856 657.754 487.045 574.400 780.663 579.008 557.794 952.886 11.993 714.488 710.393 770.707 1018.381 982.224 669.418 776.754 432.766 1113.489 493.700 723.445 640.424 533.653 747.646 805.821 622.232 19.138 751.465 257.605 597.721 704.393 561.270 791.646 532.833 758.107 1042.984 726.742 968.681 1042.611 612.973 319.368 793.742 0.000 514.007 439.932 536.823 658.925 870.783 692.302 657.848 1003.087
308.553 300.927 240.857 259.482 236.577 447.760 292.191 222.840 585.334 533.502 416.795 377.925 437.804 601.753 577.829 238.682 479.046 140.164 709.093 155.510 390.543 204.577 27.742 398.916 476.734 345.333 538.970 418.563 336.747 237.216 366.809 232.083 458.744 154.361 396.413 736.373 397.655 640.166 638.216 128.747 239.645 460.839 533.508 0.000 417.317 290.977 224.421 522.052 359.833 243.408 674.571
526.773 235.598 440.972 263.877 377.181 547.051 362.225 524.400 736.104 442.071 705.649 493.611 538.560 868.837 866.683 553.877 767.900 426.865 984.363 450.475 506.663 524.883 418.112 530.864 550.262 644.338 447.539 495.812 342.577 400.501 487.611 533.643 553.930 345.082 685.268 758.646 482.563 704.534 906.301 454.923 204.064 568.482 442.077 398.466 0.000 298.668 543.384 653.720 475.519 542.307 738.939
312.608 321.116 226.807 113.717 165.884 290.109 126.880 477.950 507.080 553.691 602.585 242.550 280.153 639.814 639.984 400.812 664.836 391.114 755.339 410.620 255.510 366.708 308.114 301.840 303.235 562.253 559.159 255.922 433.473 212.704 258.587 487.193 309.424 159.202 582.204 547.125 224.156 466.666 677.277 268.818 266.342 311.519 553.697 314.782 314.720 0.000 386.552 397.517 233.109 405.538 501.071
205.646 430.416 204.224 366.064 255.914 364.090 322.226 268.947 458.701 662.991 277.203 337.336 354.134 465.698 448.378 37.586 339.454 284.407 581.224 280.158 306.872 33.021 213.539 309.285 399.177 255.527 668.459 334.892 480.990 274.944 283.138 291.071 375.073 248.416 256.822 709.358 333.499 546.564 503.162 210.168 369.134 377.169 662.997 232.403 546.806 372.172 0.000 423.017 326.236 46.049 601.673
251.446 638.277 322.734 442.953 362.629 131.731 338.936 638.658 166.426 870.852 574.677 209.334 161.100 340.922 406.962 436.836 667.595 605.923 429.228 625.429 171.147 402.732 522.897 144.970 204.388 625.239 876.320 175.703 750.635 400.772 197.505 660.782 99.790 434.713 502.600 553.805 191.393 164.106 351.166 449.311 583.503 102.645 870.858 529.565 654.346 390.616 422.576 0.000 240.432 441.563 274.809
162.401 450.498 182.338 255.173 174.849 137.430 154.619 504.979 342.246 683.072 528.917 77.134 127.474 474.980 465.375 350.582 591.167 418.143 590.505 437.650 80.213 316.478 350.909 137.006 172.518 510.704 688.540 108.233 562.855 221.670 84.881 514.222 148.414 246.933 460.398 469.728 103.953 339.383 512.443 277.908 395.723 150.509 683.079 348.646 466.567 228.348 336.322 231.154 0.000 355.309 375.013
222.181 427.793 220.760 382.599 272.450 380.625 338.762 266.324 475.237 660.368 276.109 353.872 370.669 482.234 461.789 40.156 338.359 281.784 597.759 277.535 323.408 49.557 230.075 325.820 415.713 252.905 665.836 351.428 478.367 291.480 299.674 288.448 391.609 264.952 255.727 725.894 350.035 563.100 519.698 226.704 366.511 393.704 660.374 229.780 544.183 388.708 46.049 439.552 342.772 0.000 618.209
422.290 766.921 482.541 563.372 505.895 256.444 465.254 812.292 351.318 999.496 781.456 342.360 285.842 425.730 579.338 610.471 851.056 749.189 508.033 768.696 314.080 576.366 681.955 343.697 298.163 798.873 1004.964 276.954 879.279 552.716 337.532 834.416 243.152 577.979 709.380 522.199 315.980 173.010 429.770 608.954 712.147 257.379 999.502 679.692 733.137 491.957 596.210 270.564 379.301 615.197 0.000
NODE_COORD_SECTION
1 -2164.012052 1974.697434
2 -5087.277454 -6646.439595
3 -2131.163637 662.944799
4 -1659.138693 -3221.103177
5 -2036.193986 -634.850627
6 796.484039 3127.187234
7 -987.657983 -914.652342
8 -8606.806781 -1734.789608
9 -1364.297900 6831.993073
10 -9129.645538 -10709.052133
11 -10225.782234 3153.303468
12 347.156668 1598.076144
13 534.294528 2793.208664
14 -3512.534173 9758.414541
15 -6793.910415 9072.810546
16 -6006.083515 1392.104674
17 -11710.107948 3135.728816
18 -8387.132609 -3699.459739
19 -3862.635543 11399.423650
20 -8262.652509 -2553.647330
21 234.515358 2165.654220
22 -6007.185202 1235.217504
23 -5843.819927 -1976.669524
24 -822.402702 3225.294712
25 1821.905496 2533.759282
26 -11183.197788 -1187.245048
27 -8917.975132 -10707.813180
28 891.654407 2291.339450
29 -7079.513642 -7287.988299
30 -2292.616649 -584.260266
31 -286.878723 2027.185956
32 -8741.350582 -1871.962467
33 657.253962 3474.405007
34 -3136.090038 -1724.553617
35 -8888.298069 3918.577632
36 9005.475551 585.276842
37 734.742942 1742.838297
38 1588.028860 7466.188644
39 -3297.959726 9930.223062
40 -4229.306074 -1130.359347
41 -4028.447077 -5851.145743
42 489.515740 3424.398505
43 -9074.136494 -10858.903987
44 -5871.334584 -2136.001671
45 -2404.398160 -8692.474531
46 -723.909738 -2609.513868
47 -5950.893340 1341.938881
48 -185.354904 5033.426437
49 -120.703705 1337.463162
50 -6046.193160 1322.553059
51 3402.000850 7801.546696
DEMAND_SECTION
1 0
2 1
3 80
4 9
5 6
6 9
7 8
8 8
9 6
10 7
11 8
12 4
13 9
14 3
15 3
16 3
17 1
18 5
19 3
20 3
21 10
22 6
23 9
24 4
25 1
26 7
27 9
28 5
29 2
30 100
31 2
32 10
33 5
34 4
35 8
36 69
37 7
38 10
39 3
40 10
41 9
42 7
43 1
44 8
45 10
46 60
47 9
48 3
49 9
50 5
51 5
DEPOT_SECTION
1
-1
EOF
