NAME : poryos-san_francisco-n100-poi
COMMENT : Poryos2026 shortest metric; city san_francisco; 3-decimal seconds/meters; ENU ref in poryos-san_francisco-n100-poi.vrp.json
TYPE : CVRP
DIMENSION : 101
EDGE_WEIGHT_TYPE : EXPLICIT
EDGE_WEIGHT_FORMAT : FULL_MATRIX
CAPACITY : 182
EDGE_WEIGHT_SECTION
0.000 7311.219 15160.978 2405.907 9568.965 2286.562 20877.208 1197.404 995.753 12813.245 1010.820 1499.185 4089.140 2362.886 2727.858 1755.590 10893.064 3932.487 1813.724 2569.969 2157.676 2300.692 5118.339 1451.186 25742.221 8297.049 24054.778 2114.851 3104.225 583.618 14937.118 6052.094 3382.628 14247.967 14945.487 19292.625 1296.506 25847.915 2880.211 2093.203 2451.482 23313.883 5050.246 2125.629 12596.667 1717.689 3317.508 883.459 2484.075 15589.567 14685.141 4997.741 3457.715 24255.094 1964.991 2232.834 2465.357 2742.234 8270.923 2175.155 2370.654 24464.684 6039.362 17576.294 14200.098 830.240 4623.687 3326.191 428.633 16481.141 21971.160 466.705 2539.349 1257.611 8390.335 12636.574 12868.682 2002.502 2788.245 15749.187 2562.331 5746.057 3722.527 23431.064 3282.970 6723.717 12806.983 4051.955 4200.139 1424.385 963.363 1801.901 1550.433 4392.988 5630.138 14362.533 9714.705 2226.132 2076.323 1423.872 1616.509
7123.365 0.000 11250.251 9384.360 2319.266 9268.284 27545.749 7606.437 7522.574 9058.999 7896.323 6093.944 7744.158 9341.557 6135.481 8737.313 6671.685 7210.379 6728.872 5813.031 9139.399 9282.414 3520.840 7846.472 32410.762 5511.161 22437.460 8776.946 6401.445 7565.340 21605.659 3399.339 9763.339 12630.649 10740.365 25961.166 7963.012 32516.456 4981.454 9074.925 9433.204 21696.565 3631.998 8859.220 6449.623 8699.412 10230.638 6997.033 9464.707 22258.108 21353.682 3400.242 6492.296 30923.635 8946.714 9211.505 9443.809 7093.760 8677.820 8249.348 6463.467 31133.225 1447.113 14652.106 20868.638 6943.814 3745.562 4781.654 7460.072 23149.682 20353.843 7521.609 5512.250 8262.328 1141.758 8786.629 9113.226 8981.173 5937.066 11754.963 5903.407 8722.037 7963.736 21813.746 4685.360 2793.925 9992.807 7781.342 4095.987 6779.369 7994.802 6662.728 8528.400 8036.017 9621.527 10752.716 4480.478 9207.854 8847.746 7325.396 8583.667
14936.819 11284.412 0.000 17024.482 12388.514 16905.137 34587.955 15547.271 15345.620 2780.288 15862.345 13841.227 16856.370 16670.671 12496.483 16374.165 5217.664 11370.111 13926.345 12722.238 16776.251 16919.267 13869.247 14888.678 39452.968 7974.268 32918.841 16761.045 12121.459 15075.565 28647.865 13880.721 16805.545 23112.030 2777.434 33003.372 15940.140 39558.662 12743.054 16711.778 17070.057 32177.947 13980.405 15901.426 9094.034 16336.264 18177.606 14810.487 17102.650 29300.313 28395.887 13748.649 11763.589 37965.840 16583.566 16540.619 17083.932 13729.762 8711.925 16363.598 15286.132 38175.431 11371.331 4436.083 27910.844 14757.268 14093.969 14587.462 15096.924 30191.888 30835.224 15343.930 13088.848 15925.902 10394.503 3189.385 3180.830 16310.288 12433.060 889.409 12741.710 11122.527 12708.758 32295.128 12334.841 13275.307 3087.645 16819.186 14194.456 15097.283 15631.655 13860.201 16209.963 11839.437 11672.959 1461.040 7136.512 16844.707 16045.220 14522.869 16284.800
2589.125 9197.324 17025.761 0.000 11433.748 555.605 20799.720 2025.906 2243.711 14678.028 1839.082 3363.969 2846.577 2024.355 4592.641 1399.509 12757.847 5797.271 3676.155 4434.753 939.138 1868.896 5895.278 3071.653 25664.733 10161.832 22819.038 987.330 4969.008 2204.085 14859.630 7133.412 3341.434 13012.226 16810.271 19215.137 1492.372 25770.427 4744.994 874.664 1535.630 22078.143 5746.368 2801.711 14461.451 1428.845 1533.011 2845.853 348.579 15512.079 14607.652 6032.405 5322.499 24177.605 1080.513 2061.040 114.645 4596.874 10135.706 1174.272 3224.464 24387.196 7904.146 19441.077 14122.609 2792.634 5761.355 4958.699 2098.817 16403.653 20735.420 2134.842 4404.133 1427.260 10255.118 14501.357 14733.466 2124.891 4653.028 17613.971 4427.114 7507.253 5577.167 22195.324 5147.753 7804.928 14671.767 2809.392 5358.293 3088.204 1635.431 3664.332 1299.943 6251.476 7363.436 16227.316 11579.488 956.983 2220.582 3284.822 867.245
9435.677 2414.978 12550.865 11696.672 0.000 11586.450 29821.714 9918.749 9834.886 10005.111 10208.635 8428.534 10056.470 11654.129 8203.927 11055.479 8058.409 9278.825 9004.836 7898.260 11457.565 11600.581 5833.152 10122.436 34686.726 7545.665 23617.411 11089.258 8469.891 9883.506 23881.623 4683.795 12039.304 13810.600 9875.087 28237.130 10275.324 34792.420 7066.683 11393.092 11751.370 22876.517 5944.310 11135.184 5302.811 11017.578 12542.950 9309.345 11777.018 24534.072 23629.646 5712.554 8560.743 33199.599 11264.880 11524.078 11756.121 9178.988 10619.423 10561.660 8775.779 33409.189 3718.102 15769.000 23144.603 9256.126 6057.874 7093.966 9778.238 25425.646 21533.794 9833.921 7788.214 10574.640 2918.162 10000.519 9542.243 11293.746 8005.512 13055.576 7988.635 10756.541 10032.182 22993.698 6753.807 4004.517 11379.530 10093.654 6408.299 9091.681 10312.968 8938.692 10840.712 10104.463 11656.031 12007.706 6023.449 11526.020 11123.711 9601.360 10895.979
2386.314 9028.629 16803.739 694.115 11211.726 0.000 20407.524 1910.404 2124.118 14456.006 1723.581 3141.947 3428.593 1632.159 4370.619 1007.313 12535.825 5575.249 3446.352 4212.731 529.198 1476.700 5842.923 2841.137 25272.537 9939.811 23326.104 1533.716 4746.987 1982.063 14467.434 7081.057 2949.238 13519.293 16588.249 18822.941 1376.870 25378.231 4522.972 464.725 1143.435 22585.210 5694.013 2409.515 14239.429 1127.420 2007.190 2623.831 345.536 15119.883 14215.457 5980.050 5100.477 23785.410 688.318 1668.844 579.471 4342.882 9913.684 1595.166 3111.397 23995.000 7682.124 19219.056 13730.414 2570.612 5673.391 4845.743 1876.795 16011.457 21242.487 2014.375 4182.111 1308.790 10033.096 14279.336 14511.444 1732.695 4431.006 17391.949 4205.093 7276.737 5323.175 22702.391 4925.731 7752.572 14449.745 3391.409 5249.843 2973.089 1512.796 3434.530 1181.473 6020.960 7132.920 16005.294 11357.466 564.788 1828.386 3054.895 748.775
21448.472 27828.580 34904.991 21472.708 30007.721 21277.722 0.000 21798.192 21856.710 32557.259 21611.369 22190.306 24193.840 19917.125 22525.397 20477.198 30637.077 23593.282 21246.345 22516.404 20879.999 20235.952 26004.120 20347.488 7963.899 28041.063 44091.352 22352.761 22845.719 20816.306 6457.154 26981.581 20260.039 34284.541 34689.501 1975.697 21714.393 8069.593 23143.966 20815.526 20386.742 43350.457 25846.112 20048.630 32860.423 20627.667 22772.438 21672.190 21182.011 5625.010 6420.766 25927.228 23348.458 6495.677 20580.102 19618.603 21358.063 21787.166 28006.446 22436.630 23001.693 6705.267 26482.075 37320.308 7784.131 21618.971 25553.175 24271.391 20925.154 4496.103 42007.735 21327.662 22803.105 21196.443 28829.091 32380.588 32612.696 20220.361 22716.511 35493.201 22426.029 24739.145 22767.459 43467.638 23546.725 27653.205 32550.997 24156.656 25129.626 22286.389 21245.419 21320.289 21069.126 23524.278 24595.329 34106.546 29978.460 20519.699 20197.028 21321.861 21160.951
1149.417 7243.758 15446.745 2113.050 9510.348 2012.642 21238.858 0.000 615.571 13099.012 608.716 1784.953 2920.216 2640.475 3013.625 1764.629 11178.831 4218.255 2099.680 2855.737 1894.802 2574.597 4236.807 2600.452 26103.871 8582.817 22887.624 1506.291 3389.993 1732.884 15298.768 5309.120 3760.126 13080.813 15231.255 19654.275 686.271 26209.565 3165.978 1830.328 2725.386 22146.730 4078.800 2862.144 12882.435 1661.641 2994.033 1023.085 2193.397 15951.216 15046.790 4254.767 3743.483 24616.743 1972.920 2511.839 2172.499 3051.695 8556.691 979.706 1203.501 24826.334 6227.731 17862.062 14561.747 969.866 3880.714 2937.847 1577.899 16842.791 20804.007 928.629 2825.117 1158.457 8335.283 12922.342 13154.450 2363.206 3074.012 16034.955 2848.099 6032.013 4031.988 22263.911 3568.737 5980.744 13092.751 2883.031 3457.165 1066.642 1282.309 2087.857 1240.794 4678.945 5939.599 14648.300 10000.473 2233.947 2458.897 2134.997 1306.431
931.745 7059.508 15229.074 2313.637 9326.099 2212.989 21230.282 493.989 0.000 12881.341 809.064 1567.282 3094.241 2714.512 2795.954 1962.880 10961.160 4000.584 1882.009 2638.066 2093.052 2648.633 4191.116 2382.932 26095.295 8365.145 23059.878 1707.740 3172.322 1515.363 15290.192 5124.871 3751.550 13253.067 15013.584 19645.699 886.859 26200.989 2948.307 2028.579 2799.423 22318.984 4123.023 2645.051 12664.764 1653.066 3195.483 805.414 2393.984 15942.641 15038.215 4070.518 3525.812 24608.168 2171.171 2584.961 2373.087 2834.024 8339.019 1181.156 1375.755 24817.758 6043.482 17644.390 14553.171 752.195 3696.465 2753.598 1360.378 16834.215 20976.261 711.147 2607.446 1149.881 8151.034 12704.670 12936.779 2354.630 2856.341 15817.284 2630.427 5814.342 3814.317 22436.165 3351.066 5796.494 12875.080 3057.056 3272.916 848.971 1064.826 1870.186 1441.141 4461.274 5721.928 14430.629 9782.801 2432.198 2450.321 1917.326 1506.778
12574.785 8587.829 2775.180 14662.449 9790.687 14543.103 32225.921 13185.237 12983.586 0.000 13500.312 11479.194 14494.336 14308.638 10134.449 14012.132 2521.081 9008.077 11564.311 10360.205 14414.218 14557.233 11172.664 12526.644 37090.934 5612.235 30222.259 14399.011 9759.425 12713.531 26285.831 11184.138 14443.511 20415.448 2522.198 30641.338 13578.107 37196.628 10381.020 14349.744 14708.023 29481.364 11283.822 13539.392 6496.207 13974.231 15815.572 12448.453 14740.616 26938.280 26033.854 11052.066 9401.555 35603.807 14221.533 14178.586 14721.898 11367.729 6349.891 14001.565 12924.098 35813.397 8674.748 5782.515 25548.811 12395.234 11397.387 11890.879 12734.891 27829.854 28138.642 12981.897 10726.814 13563.869 7697.921 503.167 550.075 13948.254 10071.026 3338.074 10379.677 8760.493 10346.724 29598.545 9972.807 10578.724 1665.917 14457.152 11497.873 12735.249 13269.621 11498.167 13847.930 9477.404 9310.926 2021.221 4439.929 14482.673 13683.186 12160.836 13922.767
792.431 7506.525 15515.947 1966.492 9773.116 1865.791 20881.671 648.668 447.017 13168.214 0.000 1854.154 3541.257 2365.901 3082.827 1614.268 11248.033 4287.456 2168.693 2924.938 1744.441 2300.022 4638.133 2243.265 25746.684 8652.018 23506.895 1650.580 3459.194 1375.697 14941.581 5571.888 3402.939 13700.084 15300.456 19297.088 832.235 25852.378 3235.180 1679.968 2450.812 22766.001 4570.040 2504.957 12951.636 1304.454 2853.237 1172.617 2046.839 15594.030 14689.603 4517.534 3812.684 24259.556 1822.560 2236.350 2025.941 3097.203 8625.892 1626.448 1822.772 24469.147 6394.331 17931.263 14204.560 1119.398 4143.481 3200.614 1220.712 16485.604 21423.278 571.442 2894.318 801.270 8598.050 12991.543 13223.651 2006.019 3143.214 16104.156 2917.300 6101.026 4077.496 22883.181 3637.939 6243.511 13161.952 3504.073 3719.933 1295.988 925.122 2156.870 1093.943 4747.957 5985.107 14717.502 10069.674 2083.587 2101.710 1778.841 1159.580
1309.689 6137.293 13912.403 3397.352 8320.390 3278.007 21865.602 1920.141 1718.490 11564.671 2235.215 0.000 3964.070 3351.279 1568.165 2747.035 9644.489 2772.794 1041.856 1321.395 3149.121 3292.137 4982.611 2368.111 26730.615 7048.475 23929.707 3133.915 1944.532 1575.063 15925.512 5916.366 4371.021 14122.896 13696.913 20281.019 2313.010 26836.309 1631.636 3084.648 3442.927 23188.813 4914.518 3114.023 11348.093 2709.134 4550.476 1183.357 3475.520 16577.960 15673.534 4862.013 2209.141 25243.487 2956.436 3221.227 3456.802 2037.788 7040.947 2630.809 2245.584 25453.078 4790.788 16327.720 15188.491 1130.138 4487.960 3190.242 1469.794 17469.535 21846.090 1716.800 1290.775 2298.772 7141.760 11388.000 11620.108 2990.896 1539.670 14500.613 1313.757 4893.725 3182.506 23305.994 2034.395 6587.990 11558.409 3926.885 4064.411 1299.315 2004.525 1030.033 2582.833 3514.170 5090.117 13113.958 8466.131 3217.577 3064.717 1546.376 2657.670
3913.034 7548.206 16783.172 2779.040 9814.797 3243.396 23433.772 3228.849 3445.034 14435.439 3222.060 3993.768 0.000 4658.406 5246.965 4033.561 12515.258 6451.595 4767.090 4765.692 3627.549 4502.948 4242.039 5364.220 28298.785 9591.674 20029.781 2007.805 5623.333 4496.652 17493.682 5480.173 5975.486 10222.970 16567.682 21849.188 2875.349 28404.479 4174.373 3563.076 4169.682 19288.886 4093.129 5435.762 13890.830 4207.885 2503.549 3786.702 3036.370 18146.130 17241.704 4379.166 5749.848 26811.657 3714.565 4695.092 2893.684 5763.023 10120.270 1971.315 1983.687 27021.247 6532.180 19198.489 16756.661 3733.484 4108.116 3315.928 4341.667 19037.705 17946.164 3692.435 4256.580 3973.872 8639.732 14258.769 14490.877 4758.943 5080.378 17371.382 4856.067 8434.127 6794.575 19406.067 4577.132 6151.689 14429.178 37.184 3709.176 3013.163 4046.115 4755.267 3846.556 7200.342 8702.186 15984.727 11008.868 3591.035 4854.634 4897.584 3409.828
2576.087 9216.315 16689.753 1980.579 11399.412 1785.593 19383.625 2440.549 2514.707 14342.020 2253.726 3329.633 4701.712 0.000 4248.142 1060.701 12421.839 5452.772 3239.663 4211.507 1388.583 330.664 6587.623 2618.341 24248.638 9825.825 24599.223 2860.632 4624.510 1955.633 13443.535 7639.578 1498.536 14792.412 16474.263 17799.042 2224.102 24354.332 4710.658 1324.109 595.236 23858.329 6429.615 1644.404 14427.115 1270.024 3082.238 2811.517 1689.882 14095.984 13191.558 6585.224 5099.253 22761.511 1088.077 644.945 1865.934 4108.851 9791.208 2944.501 3644.050 22971.101 7869.810 19105.070 12706.514 2758.298 6211.171 5268.304 2064.481 14987.558 22515.606 2398.950 4369.797 1838.800 10220.782 14165.350 14397.458 862.718 4429.782 17277.963 4131.321 7060.831 5089.144 23975.509 5113.417 8311.201 14335.759 4664.527 5787.623 3357.677 1903.385 3227.840 1711.483 5805.999 6917.014 15891.308 11545.152 1027.570 1223.370 2848.206 1670.660
2746.932 6201.960 12590.459 4834.596 8176.215 4715.251 22497.223 3357.384 3155.733 10242.726 3672.459 1610.716 5246.503 4566.041 0.000 4184.279 8322.545 1456.808 1822.231 495.193 4586.365 4729.381 6125.088 2797.946 27362.236 5726.530 25118.733 4571.159 629.440 2970.935 16557.132 7058.843 4714.813 15311.922 12374.969 20912.639 3750.254 27467.930 1517.868 4521.892 4880.171 24377.839 6056.995 3810.694 10699.721 4146.378 5987.720 2620.601 4912.764 17209.581 16305.155 6004.490 860.107 25875.108 4393.680 4435.989 4894.045 1643.209 5691.913 4173.712 3528.018 26084.698 4855.455 15005.775 15820.112 2567.382 5630.437 4342.668 2907.038 18101.156 23035.116 3154.044 1375.642 3736.016 6997.585 10066.055 10298.164 4205.658 191.114 13178.669 487.555 3700.400 2191.580 24495.020 1612.813 7709.166 10236.465 5209.319 5223.610 2910.031 3441.768 1756.087 4020.077 2281.850 4098.128 11792.014 7817.758 4654.821 3941.106 2418.755 4094.914
2317.171 8959.486 16734.596 1116.281 11142.583 827.847 19933.059 1795.966 2013.715 14386.863 1609.143 3072.804 3837.414 1158.438 4301.476 0.000 12466.682 5506.106 3367.804 4143.588 428.039 1002.979 5737.982 2759.801 24798.072 9870.668 23734.925 1996.334 4677.844 1912.920 13992.969 6976.117 2475.517 13928.114 16519.106 18348.476 1262.432 24903.766 4453.829 363.566 1071.953 22994.031 5589.072 1932.639 14170.286 901.517 2416.011 2554.688 825.584 14645.418 13740.991 5875.110 5031.334 23310.944 234.369 1194.379 1001.636 4250.311 9844.541 2080.204 2996.959 23520.535 7612.981 19149.912 13255.948 2501.469 5560.608 4731.305 1807.652 15536.992 21651.308 1903.971 4112.968 1194.352 9963.953 14210.192 14442.301 1255.820 4361.863 17322.806 4135.949 7197.328 5230.604 23111.212 4856.588 7647.632 14380.602 3800.229 5137.059 2860.155 1402.523 3355.981 1067.035 5941.551 7053.512 15936.151 11288.323 495.509 1351.511 2976.347 708.990
10669.803 6651.000 5411.347 12757.466 8029.395 12638.121 30320.939 11280.255 11078.604 2856.349 11595.329 9574.211 12589.354 12403.656 8229.467 12107.149 0.000 7103.095 9659.329 8455.222 12509.235 12652.251 9235.835 10621.662 35185.952 3517.003 28285.429 12494.029 7854.443 10808.549 24380.849 9247.309 12538.529 18478.618 5050.727 28736.356 11673.124 35291.646 8476.038 12444.762 12803.041 27544.535 9346.993 11634.410 6187.872 12069.248 13910.590 10543.471 12835.634 25033.298 24128.871 9115.237 7496.573 33698.824 12316.550 12273.604 12816.916 9462.746 4766.060 12096.582 11019.116 33908.415 6737.919 8324.966 23643.828 10490.252 9460.557 9954.049 10829.909 25924.872 26201.812 11076.915 8821.832 11658.886 5761.091 2583.979 2910.576 12043.272 8166.044 5916.058 8474.694 6926.470 8441.742 27661.715 8067.825 8641.894 3633.788 12552.170 9561.044 10830.267 11364.639 9593.185 11942.947 7572.421 7476.902 4760.193 2503.099 12577.691 11778.204 10255.853 12017.785
3666.600 7067.641 11336.392 5754.264 9041.895 5634.918 23218.846 4277.052 4075.401 8988.659 4592.127 2832.205 6462.497 5400.453 1226.264 5103.947 7068.478 0.000 2561.047 1718.636 5506.033 5649.049 7137.807 3519.569 28083.859 4472.463 26324.429 5490.826 851.240 3805.346 17278.756 8065.966 5436.436 16517.617 11120.902 21634.263 4669.922 28189.553 2721.705 5441.559 5799.838 25583.534 7069.714 4532.317 9703.020 5066.046 6907.387 3540.268 5832.431 17931.205 17026.779 7017.208 732.876 26596.732 5313.348 5270.401 5813.713 2360.653 4437.846 5093.380 4744.012 26806.322 5721.135 13751.708 16541.735 3487.050 6643.155 5548.363 3826.706 18822.779 24240.811 4073.712 2591.380 4655.684 7251.799 8811.988 9044.096 5040.069 1402.347 11924.602 1630.252 2243.682 1345.284 25700.715 2635.469 8709.512 8982.397 6425.313 6331.900 4066.765 4361.436 2494.902 4939.745 825.638 2658.076 10537.947 6821.058 5574.488 4679.921 3157.571 5014.582
1593.281 6724.022 13880.556 3680.547 8903.163 3561.202 20997.727 2203.733 2002.082 11532.824 2518.807 1117.616 4936.019 3234.476 1460.934 3004.073 9612.642 2568.847 0.000 1434.489 3407.144 3549.175 5956.522 1406.181 25862.740 7016.628 24901.657 3417.507 1821.284 1653.967 15057.637 6890.277 3344.454 15094.846 13665.066 19413.144 2596.602 25968.434 2039.409 3342.671 3699.965 24160.763 5888.429 2242.962 11755.865 2969.630 4833.671 1466.949 3758.715 15710.085 14805.659 5835.923 2318.912 24375.612 3213.474 2870.811 3739.997 995.932 6982.011 3180.911 3217.534 24585.202 5377.517 16295.873 14320.616 1413.730 5461.870 4164.152 1752.990 16601.660 22818.040 2000.393 1698.547 2581.968 7724.533 11356.153 11588.261 2874.093 1649.441 14468.766 1344.113 3932.333 2140.650 24277.943 2442.167 7561.900 11526.562 4898.835 5038.322 2271.265 2287.720 73.944 2866.029 2579.265 4048.261 13082.111 8873.903 3474.615 2196.842 674.491 2940.866
2349.753 5753.611 12683.937 4437.416 7727.865 4318.071 22134.742 2960.205 2758.554 10336.204 3275.279 1213.536 4752.913 4168.862 514.703 3787.099 8416.023 1719.303 1425.051 0.000 4189.185 4332.201 5631.498 2435.465 26999.755 5820.009 24625.143 4173.979 891.071 2573.755 16194.652 6565.253 4352.332 14818.332 12468.447 20550.159 3353.074 27105.449 1024.278 4124.712 4482.991 23884.249 5563.405 3448.213 10565.851 3749.198 5590.540 2223.421 4515.584 16847.101 15942.675 5510.900 985.759 25512.628 3996.500 4038.810 4496.866 1280.728 5817.566 3776.532 3034.428 25722.218 4407.106 15099.254 15457.631 2170.202 5136.847 3849.078 2509.858 17738.675 22541.526 2756.864 882.052 3338.836 6549.235 10159.534 10391.642 3808.478 316.289 13272.147 90.375 3864.140 2450.221 24001.430 1252.153 7215.576 10329.943 4715.729 4730.020 2512.851 3044.589 1358.907 3622.897 2541.822 4356.768 11885.492 7683.889 4257.641 3543.926 2021.575 3697.734
2048.490 8690.805 16465.915 810.674 10873.902 401.270 20414.518 1572.580 1786.294 14118.182 1385.757 2804.123 3585.797 1642.269 4032.795 928.629 12198.001 5237.425 3108.529 3874.907 0.000 1486.810 5505.099 2503.313 25279.531 9601.987 23483.308 1649.957 4409.163 1644.239 14474.428 6743.233 2959.348 13676.497 16250.425 18829.935 1039.046 25385.225 4185.148 324.781 1202.474 22742.414 5356.189 2092.444 13901.605 789.596 2164.394 2286.007 598.783 15126.877 14222.451 5642.226 4762.653 23792.404 718.200 1675.838 696.280 4005.059 9575.861 1711.407 2773.573 24001.994 7344.300 18881.232 13737.407 2232.788 5335.567 4507.919 1538.971 16018.451 21399.691 1676.551 3844.287 970.966 9695.272 13941.512 14173.620 1590.723 4093.182 17054.125 3867.269 6938.913 4985.352 22859.594 4587.907 7414.748 14111.921 3548.612 4912.019 2635.265 1174.972 3096.706 843.649 5683.136 6795.096 15667.470 11019.643 623.827 1686.415 2717.072 410.951
2944.633 9584.860 17058.298 2232.972 11767.957 2037.986 19752.171 2809.094 2883.252 14710.565 2622.271 3698.178 4954.105 368.545 4616.687 1425.764 12790.384 5821.317 3608.208 4580.052 1753.645 0.000 6952.685 2986.886 24617.183 10194.370 24851.616 3113.025 4993.055 2324.178 13812.080 8008.123 1667.709 15044.805 16842.808 18167.587 2589.164 24722.877 5079.203 1689.172 960.298 24110.721 6794.678 2012.950 14795.660 1638.569 3140.196 3180.062 1942.275 14464.529 13560.103 6953.769 5467.798 23130.056 1453.139 1013.491 2118.327 4420.213 10159.753 3196.894 4012.595 23339.646 8238.355 19473.615 13075.060 3126.843 6579.716 5636.849 2433.026 15356.103 22767.999 2767.495 4738.342 2207.345 10589.327 14533.895 14766.003 1231.263 4798.327 17646.508 4499.866 7429.376 5400.506 24227.902 5481.962 8679.746 14704.304 4916.920 6156.168 3726.222 2271.930 3596.385 2080.029 6174.544 7285.559 16259.853 11913.697 1392.632 1591.915 3216.751 2035.722
5022.447 3403.628 13874.325 5999.989 5670.219 5919.697 25264.898 4622.828 4603.916 11683.072 4623.096 5040.218 4358.407 6654.854 6076.959 5779.008 9292.894 7260.082 5872.588 5662.138 5825.166 6588.976 0.000 6473.633 30129.911 7345.925 20143.557 5391.195 6443.544 5606.064 19324.808 1337.410 7884.908 10336.746 13364.438 23680.315 4614.486 30235.605 4831.361 5760.693 6730.376 19402.663 243.549 6746.818 9803.018 5677.942 6844.887 4896.115 6080.336 19977.256 19072.830 216.686 6534.395 28642.783 5903.284 6526.218 6059.439 6868.520 10126.831 4863.597 3351.390 28852.373 2604.610 16993.775 18587.787 4842.896 692.364 2059.753 5451.079 20868.831 18059.940 4812.914 5147.058 5304.998 4495.153 11410.702 11737.299 6487.988 5878.545 14379.036 5752.514 9197.509 7900.915 19519.844 4626.839 2009.033 12224.464 4395.591 1057.467 4133.642 5166.594 5860.765 5255.173 8085.721 9808.526 13376.790 7104.551 6151.729 6583.679 6003.925 5235.141
1809.077 7991.115 15059.888 3061.532 10170.256 2942.187 19813.742 2503.091 2301.552 12712.156 2316.268 2352.615 5394.945 2614.716 2680.294 2384.314 10791.974 3748.179 1408.880 2678.300 2787.385 2929.415 6424.144 0.000 24678.755 8195.960 25360.583 3420.294 3000.616 1046.683 13873.652 7357.899 2069.786 15553.772 14844.398 18229.159 2601.954 24784.449 3306.501 2722.912 3080.205 24619.688 6356.051 1127.213 13022.958 2349.871 4236.212 1891.814 3139.700 14526.101 13621.674 6303.546 3503.355 23191.627 2593.715 2251.051 3120.982 1607.487 8161.343 3480.603 3676.459 23401.218 6644.610 17412.128 13136.631 1838.596 5929.493 4631.996 1155.530 15417.675 23276.966 1772.504 2965.640 1984.508 8991.626 12535.485 12767.593 2254.333 2871.408 15648.098 2587.924 4639.208 2587.780 24736.869 3709.260 8029.522 12705.894 5357.760 5505.944 2730.190 1690.260 1482.824 2247.013 3679.175 4495.391 14261.443 10140.996 2854.855 1577.082 1483.176 2343.406
25771.008 32151.115 39227.527 25795.243 34330.256 25600.257 8178.846 26120.727 26179.246 36879.794 25933.904 26512.841 28516.376 24239.661 26847.933 24799.733 34959.613 27915.817 25568.880 26838.940 25202.535 24558.487 30326.655 24670.023 0.000 32363.598 48413.887 26675.296 27168.255 25138.841 12331.275 31304.117 24582.574 38607.076 39012.036 7738.511 26036.928 129.557 27466.501 25138.061 24709.277 47672.993 30168.647 24371.165 37182.958 24950.202 27094.973 25994.725 25504.546 11558.774 12249.685 30249.763 27670.993 2354.406 24902.637 23941.139 25680.598 26109.701 32328.981 26759.165 27324.228 2013.878 30804.610 41642.843 13623.132 25941.507 29875.710 28593.927 25247.689 10400.164 46330.270 25650.197 27125.640 25518.978 33151.626 36703.123 36935.231 24542.896 27039.046 39815.736 26748.564 29061.681 27089.994 47790.173 27869.260 31975.740 36873.532 28479.191 29452.162 26608.924 25567.954 25642.824 25391.662 27846.814 28917.864 38429.082 34300.995 24842.234 24519.563 25644.397 25483.486
8069.700 5547.446 8057.810 10157.364 7486.027 10038.018 27720.836 8680.152 8478.501 5710.077 8995.227 6953.405 9602.225 9803.553 5629.364 9507.047 3510.701 4502.992 7059.227 5855.120 9909.133 10052.149 7213.658 8021.559 32585.849 0.000 26690.700 9893.926 5254.340 8208.446 21780.746 7603.462 9938.426 16883.889 7842.320 26136.253 9073.022 32691.543 5433.996 9844.659 10202.938 25949.806 7324.815 9034.307 6144.943 9469.146 11310.487 7943.368 10235.531 22433.195 21528.769 7093.059 4896.471 31098.722 9716.448 9673.501 10216.813 6862.644 3244.906 9496.480 8165.824 31308.312 4715.741 10473.126 21043.726 7890.150 7438.380 7496.301 8229.806 23324.769 24607.083 8476.812 6221.730 9058.784 4722.846 5533.406 5765.515 9443.169 5565.941 8646.020 5874.592 4309.280 5841.639 26066.987 5021.159 7531.476 5703.816 9639.410 7538.867 8202.534 8764.536 6993.082 9342.845 4972.319 4973.737 7259.365 2668.130 9977.588 9178.101 7655.751 9417.682
23576.231 21999.650 32470.347 22454.098 23102.051 22918.454 43108.830 22893.817 23110.002 30279.095 22887.514 23652.217 19731.261 24333.465 24835.258 23708.619 27891.781 26027.316 24430.287 24322.158 23302.608 24178.006 19721.864 25027.417 47973.843 26388.476 0.000 21673.260 25204.018 24159.849 37168.740 19533.755 25650.544 10882.938 31960.460 41524.247 22540.804 48079.537 23493.437 23238.134 23844.741 1265.890 19752.415 25110.821 27838.203 23882.944 22061.404 23449.899 22711.429 37821.189 36916.763 19858.992 25297.008 46486.716 23389.624 24370.150 22568.743 25426.219 29169.381 21636.770 21647.133 46696.306 21647.160 35872.202 36431.720 23396.680 20307.466 21219.565 24004.863 38712.763 5672.520 23355.632 23807.078 23639.327 23091.176 30006.725 30333.322 24434.001 24636.844 32975.058 24412.533 27968.969 26457.771 1491.287 23405.001 19529.106 31212.903 19768.445 20673.092 22676.360 23709.312 24418.464 23512.010 26852.955 28365.382 31972.812 25700.574 23266.094 24529.692 24560.781 23075.282
1974.023 8579.197 16697.539 987.330 10845.788 1400.110 21676.002 1410.803 1628.609 14349.806 1223.980 3035.746 2001.257 2900.636 4264.419 2275.791 12429.625 5469.049 3350.285 4106.530 1782.195 2745.178 5273.614 3423.884 26541.015 9833.610 21973.718 0.000 4640.786 2556.316 15735.912 6511.749 4217.716 12166.907 16482.049 20091.419 877.270 26646.709 4416.772 1717.722 2411.912 21232.823 5124.704 3674.462 14133.229 2266.011 1490.506 2354.209 1278.600 16388.360 15483.934 5410.742 4994.276 25053.887 1956.795 2937.322 1101.975 4278.795 9807.484 547.884 2607.366 25263.478 7563.171 19112.855 14998.891 2300.991 5139.691 4341.467 2401.330 17279.935 19890.100 1753.034 4075.911 1973.867 9670.722 14173.135 14405.244 3001.173 4324.806 17285.749 4098.892 7282.618 5259.089 21350.004 4819.531 7183.264 14343.545 1964.072 4740.167 2471.351 2105.740 3338.462 1846.550 5929.550 7166.699 15899.094 11251.266 1833.265 3096.864 2960.433 1409.822
2838.338 6405.852 12088.221 4926.002 8380.107 4806.656 22491.270 3448.790 3247.139 9740.489 3763.865 2003.942 5636.632 4572.191 398.002 4275.685 7820.307 851.240 1827.864 892.366 4677.770 4820.786 6410.554 2791.993 27356.283 5224.293 25504.867 4662.564 0.000 2977.084 16551.180 7342.573 4708.860 15698.056 11872.731 20906.687 3841.660 27461.977 1902.144 4613.297 4971.576 24763.973 6342.461 3804.741 10415.214 4237.784 6079.125 2712.006 5004.169 17203.629 16299.202 6289.956 506.611 25869.155 4485.085 4442.139 4985.451 1633.077 5189.676 4265.118 3918.146 26078.746 5059.347 14503.538 15814.159 2658.787 5915.903 4728.802 2998.444 18095.203 23421.250 3245.450 1765.515 3827.422 7201.477 9563.818 9795.926 4211.807 576.481 12676.431 801.990 3094.833 1597.100 24881.154 1816.705 7986.120 9734.227 5599.447 5513.136 3238.503 3533.174 1761.720 4111.483 1676.282 3500.457 11289.776 7533.251 4746.226 3946.739 2424.389 4186.320
1266.555 7908.870 15392.801 2116.437 10091.967 1997.092 20385.109 1876.332 1674.793 13045.068 1689.509 2022.188 4769.034 1870.787 2951.190 1466.120 11124.887 4155.819 1946.589 2914.554 1868.206 2011.222 5865.909 1342.087 25250.122 8528.872 24734.671 2793.535 3327.557 0.000 14445.019 6799.664 2891.465 14927.860 15177.310 18800.526 1975.195 25355.816 3403.213 1803.733 2162.012 23993.777 5797.816 1634.467 13119.670 1428.219 3609.453 1504.072 2194.605 15097.468 14193.041 5745.311 3802.300 23762.994 1675.521 1740.735 2175.887 2867.308 8494.255 2853.844 3050.548 23972.585 6562.365 17808.117 13707.998 1450.853 5371.258 4089.474 757.036 15989.042 22651.054 1145.745 3062.352 1357.750 8913.337 12868.397 13100.505 1510.403 3132.830 15981.010 2834.369 5777.687 3847.601 24110.958 3805.972 7471.287 13038.806 4731.849 4947.709 2104.472 1063.502 1934.766 1301.918 4521.910 5633.870 14594.356 10237.707 1936.662 1584.224 1555.256 1581.726
15577.059 21957.166 29033.578 15601.294 24136.307 15406.308 6463.542 15926.778 15985.297 26685.845 15739.955 16318.892 18322.427 14045.712 16653.984 14605.785 24765.664 17721.868 15374.931 16644.991 15008.586 14364.538 20132.706 14476.074 11906.496 22169.649 38219.938 16481.347 16974.306 14944.892 0.000 21110.168 14388.625 28413.127 28818.088 4937.316 15842.979 12012.190 17272.552 14944.113 14515.328 37479.044 19974.699 14177.216 26989.009 14756.253 16901.024 15800.777 15310.597 929.460 1239.446 20055.814 17477.044 10419.369 14708.688 13747.190 15486.649 15915.752 22135.032 16565.217 17130.279 10628.959 20610.661 31448.894 1650.663 15747.558 19681.761 18399.978 15053.740 2067.475 36136.321 15456.249 16931.691 15325.029 22957.677 26509.174 26741.282 14348.947 16845.097 29621.788 16554.615 18867.732 16896.045 37596.224 17675.311 21781.791 26679.583 18285.242 19258.213 16414.975 15374.005 15448.875 15197.713 17652.865 18723.915 28235.133 24107.047 14648.285 14325.614 15450.448 15289.537
5971.471 3331.147 13801.843 7209.651 4471.411 7129.359 26312.665 5598.131 5552.941 11610.591 5844.663 5989.243 5568.069 7796.894 7025.984 7000.575 9223.278 8209.107 6821.612 6611.163 7034.828 7731.016 1379.126 7422.657 31177.677 7692.998 19976.791 6600.857 7392.568 6555.089 20372.574 0.000 8833.932 10169.980 13291.957 24728.081 5824.148 31283.371 5780.385 6970.355 7881.805 19235.897 1472.798 7695.843 9207.563 6757.207 8054.549 5845.139 7289.998 21025.023 20120.597 1259.230 7483.419 29690.550 7112.946 7667.344 7269.100 7817.545 10473.904 6073.259 4455.161 29900.140 2951.683 17203.698 19635.554 5791.920 1641.389 3008.777 6400.104 21916.597 17893.174 5761.938 6096.082 6254.023 4422.672 11338.221 11664.818 7437.012 6827.569 14306.555 6701.538 10146.534 8849.940 19353.078 5575.863 671.623 12544.399 5605.253 2006.492 5082.667 6115.618 6809.789 6476.740 9034.745 10757.551 13304.309 7032.070 7361.391 7532.704 6952.949 6444.803
3342.707 9404.895 16352.978 3404.199 11584.036 3149.918 19308.223 3497.754 3296.540 14005.245 3310.930 3983.722 6125.332 1609.826 3973.384 2362.042 12085.064 5041.268 2942.105 3971.389 2765.113 1928.652 7487.656 1811.266 24173.236 9489.049 26022.844 4284.253 4293.706 2714.781 13368.132 8421.411 0.000 16216.033 16137.487 17723.639 3596.616 24278.930 4720.281 2700.640 2079.442 25281.949 7419.563 1143.839 14436.738 2327.599 4396.790 3570.665 3113.503 14020.581 13116.155 7367.058 4796.444 22686.108 2511.235 1732.492 3289.555 2900.576 9454.432 4368.122 4672.295 22895.698 8058.390 18076.488 12631.112 3517.446 6993.005 6050.138 2823.629 14912.156 23939.227 3180.784 4379.420 2896.005 10405.406 13828.574 14060.682 1754.279 4164.497 16941.187 3881.014 5932.297 3880.869 25399.130 5123.040 9093.034 13998.983 6088.148 6569.456 4139.511 2685.218 3016.049 2768.688 4972.265 5788.480 15554.533 11554.775 2451.043 1611.395 3186.977 3046.044
14189.400 12612.820 23083.517 13067.268 13715.221 13531.624 33722.000 13506.987 13723.171 20892.264 13500.684 14265.387 10344.430 14946.635 15448.428 14321.789 18504.951 16640.486 15043.457 14935.328 13915.777 14791.176 10335.034 15640.587 38587.013 17001.645 10915.422 12286.430 15817.188 14773.018 27781.910 10146.924 16263.714 0.000 22573.630 32137.417 13153.974 38692.707 14106.607 13851.304 14457.910 10174.527 10365.585 15723.991 18451.372 14496.113 12674.574 14063.069 13324.598 28434.359 27529.932 10472.161 15910.177 37099.885 14002.793 14983.320 13181.912 16039.389 19782.551 12249.940 12260.303 37309.476 12260.330 26485.371 27044.889 14009.850 10920.636 11832.735 14618.033 29325.933 8831.804 13968.801 14420.247 14252.497 13704.346 20619.894 20946.492 15047.171 15250.013 23588.228 15025.703 18582.139 17070.941 10291.708 14018.171 10142.276 21826.072 10381.615 11286.262 13289.530 14322.481 15031.634 14125.180 17466.125 18978.552 22585.982 16313.743 13879.263 15142.862 15173.950 13688.452
14704.780 10733.163 2777.434 16792.444 9616.438 16673.098 34355.917 15315.232 15113.581 2540.575 15630.307 13609.189 16624.332 16438.633 12264.444 16142.127 4951.844 11138.072 13694.307 12490.200 16544.213 16687.229 13450.972 14656.639 39220.929 7742.230 32367.592 16529.006 11889.420 14843.526 28415.826 13329.471 16573.506 22560.781 0.000 32771.333 15708.102 39326.623 12511.015 16479.739 16838.018 31626.697 13562.130 15669.387 6321.959 16104.226 17945.567 14578.448 16870.611 29068.275 28163.849 13330.374 11531.551 37733.802 16351.528 16308.581 16851.893 13497.724 8479.887 16131.560 15054.093 37943.392 11105.511 6531.754 27678.806 14525.230 13675.695 14321.642 14864.886 29959.849 30283.975 15111.892 12856.810 15693.864 9831.439 2949.671 2748.912 16078.250 12201.021 3408.445 12509.672 10890.489 12476.719 31743.878 12102.802 12724.057 3299.599 16587.147 13928.637 14865.244 15399.616 13628.162 15977.925 11607.399 11440.921 2737.411 6674.772 16612.668 15813.181 14290.831 16052.762
19851.570 26231.677 33308.089 19875.805 28410.818 19680.820 1980.668 20201.290 20259.808 30960.356 20014.466 20593.403 22596.938 18320.223 20928.495 18880.296 29040.175 21996.380 19649.442 20919.502 19283.097 18639.050 24407.218 18750.586 7825.781 26444.161 42494.449 20755.859 21248.817 19219.404 4935.586 25384.679 18663.136 32687.638 33092.599 0.000 20117.490 7931.475 21547.063 19218.624 18789.839 41753.555 24249.210 18451.727 31263.520 19030.765 21175.535 20075.288 19585.108 4163.085 4899.199 24330.326 21751.555 6338.654 18983.199 18021.701 19761.161 20190.263 26409.544 20839.728 21404.790 6548.244 24885.172 35723.405 6262.564 20022.069 23956.273 22674.489 19328.251 3004.475 40410.832 19730.760 21206.202 19599.541 27232.188 30783.685 31015.794 18623.458 21119.609 33896.299 20829.127 23142.243 21170.556 41870.736 21949.822 26056.302 30954.095 22559.754 23532.724 20689.487 19648.517 19723.387 19472.224 21927.376 22998.426 32509.644 28381.558 18922.796 18600.125 19724.959 19564.048
1096.753 7720.996 15820.269 1851.337 9987.587 1750.636 20988.513 533.534 751.339 13472.536 346.710 2158.477 3031.890 2378.469 3387.149 1502.623 11552.355 4591.779 2473.015 3229.261 1632.796 2312.591 4503.431 2547.588 25853.526 8956.341 23004.351 1328.826 3763.517 1680.020 15048.423 5733.921 3677.335 13197.540 15604.779 19403.929 0.000 25959.220 3539.502 1568.323 2463.381 22263.457 4345.424 2806.705 13255.959 1401.556 2738.081 1476.940 1931.684 15700.871 14796.445 4640.559 4117.007 24366.398 1710.914 2249.833 1910.786 3401.526 8930.214 1092.832 1734.527 24575.988 6698.654 18235.586 14311.402 1423.721 4305.515 3468.873 1525.034 16592.446 20920.734 875.764 3198.641 1105.592 8812.522 13295.866 13527.974 2307.767 3447.536 16408.479 3221.623 6405.349 4381.819 22380.638 3942.261 6405.545 13466.275 2994.706 3881.966 1597.723 1229.444 2461.192 978.788 5052.280 6289.430 15021.824 10373.996 1971.941 2403.458 2083.163 1044.425
25802.194 32182.302 39258.713 25826.429 34361.442 25631.444 8210.033 26151.914 26210.432 36910.980 25965.091 26544.028 28547.562 24270.847 26879.119 24830.920 34990.799 27947.004 25600.066 26870.126 25233.721 24589.674 30357.842 24701.210 129.557 32394.785 48445.073 26706.483 27199.441 25170.028 12362.461 31335.303 24613.761 38638.262 39043.223 7769.697 26068.114 0.000 27497.688 25169.248 24740.464 47704.179 30199.834 24402.352 37214.144 24981.389 27126.159 26025.912 25535.733 11589.960 12280.871 30280.950 27702.180 2364.401 24933.823 23972.325 25711.785 26140.887 32360.168 26790.352 27355.415 2023.873 30835.796 41674.030 13654.319 25972.693 29906.897 28625.113 25278.876 10431.351 46361.456 25681.384 27156.826 25550.165 33182.812 36734.310 36966.418 24574.082 27070.233 39846.923 26779.751 29092.867 27121.180 47821.360 27900.447 32006.927 36904.719 28510.378 29483.348 26640.111 25599.141 25674.011 25422.848 27878.000 28949.051 38460.268 34332.182 24873.421 24550.750 25675.583 25514.673
2655.625 4929.943 12634.526 4743.289 6904.198 4623.944 22839.353 3266.077 3064.426 10286.793 3581.152 1519.409 4168.230 4671.769 1560.385 4092.972 8366.612 2752.410 2022.475 1047.285 4495.058 4638.074 4798.849 3140.076 27704.366 5443.028 23792.494 4479.852 1929.112 2920.999 16899.263 5732.604 5056.943 13985.683 12419.035 21254.769 3658.947 27810.060 0.000 4430.585 4788.864 23051.600 4730.756 4152.824 9742.183 4055.071 5896.413 2529.294 4821.456 17551.711 16647.285 4678.251 2022.101 26217.238 4302.373 4541.717 4802.738 2328.014 6058.958 4082.405 2731.828 26426.828 3583.438 15049.842 16162.242 2476.075 4304.198 3016.429 2815.731 18443.286 21708.877 3062.737 805.854 3644.709 5725.568 10110.122 10342.230 4311.385 1361.971 13222.735 1137.660 4694.063 3491.403 23168.781 428.486 6382.927 10280.531 4205.414 3897.371 2768.538 3350.461 1956.331 3928.770 3578.049 5397.950 11836.081 6860.221 4563.513 4141.350 2619.000 4003.607
2112.964 8755.278 16530.389 875.148 10938.376 465.743 20478.992 1637.053 1850.767 14182.656 1450.230 2868.596 3650.270 1706.742 4097.269 993.102 12262.474 5301.898 3173.002 3939.380 64.473 1551.283 5569.572 2567.786 25344.004 9666.460 23547.781 1714.430 4473.636 1708.712 14538.901 6807.707 3023.821 13740.970 16314.898 18894.408 1103.520 25449.698 4249.622 0.000 1266.947 22806.887 5420.662 2156.917 13966.078 854.070 2228.867 2350.480 663.256 15191.350 14286.924 5706.700 4827.126 23856.877 782.673 1740.312 760.753 4069.532 9640.334 1775.880 2838.046 24066.467 7408.773 18945.705 13801.881 2297.262 5400.041 4572.392 1603.444 16082.924 21464.164 1741.024 3908.760 1035.439 9759.745 14005.985 14238.093 1655.196 4157.655 17118.598 3931.742 7003.386 5049.825 22924.068 4652.380 7479.222 14176.394 3613.086 4976.492 2699.738 1239.445 3161.179 908.122 5747.609 6859.569 15731.943 11084.116 688.300 1750.888 2781.545 475.424
2870.169 9512.483 17287.593 1538.026 11695.580 1343.041 20071.694 2733.165 2807.323 14939.861 2546.342 3625.801 4259.159 857.327 4854.473 1318.123 13019.679 6059.103 3920.801 4696.585 1333.789 701.868 6838.888 3306.410 24936.707 10423.665 24156.670 2418.080 5230.841 2465.917 14131.604 7932.194 2112.562 14349.859 17072.103 18487.111 2372.835 25042.401 5006.826 1269.315 0.000 23415.776 6687.037 2332.473 14723.283 1562.640 2733.446 3107.685 1247.329 14784.053 13879.626 6877.841 5584.331 23449.579 1033.283 1333.014 1423.382 4796.920 10397.539 2501.949 3936.666 23659.170 8165.978 19702.910 13394.583 3054.467 6503.788 5560.921 2360.649 15675.627 22073.053 2691.567 4665.965 2131.416 10516.950 14763.190 14995.298 1550.786 4914.860 17875.803 4688.947 7748.900 5777.213 23532.957 5409.585 8603.817 14933.599 4221.975 6080.239 3650.293 2196.001 3908.978 2004.100 6494.067 7605.083 16489.148 11841.321 875.525 1904.508 3529.344 1744.739
22828.160 21251.580 31722.277 21706.028 22353.981 22170.384 42360.760 22145.747 22361.932 29531.025 22139.444 22904.147 18983.191 23585.395 24087.188 22960.549 27143.711 25279.246 23682.217 23574.088 22554.538 23429.936 18973.794 24279.347 47225.773 25640.406 1243.206 20925.190 24455.948 23411.778 36420.670 18785.684 24902.474 10134.867 31212.390 40776.177 21792.734 47331.467 22745.367 22490.064 23096.670 0.000 19004.345 24362.751 27090.132 23134.873 21313.334 22701.829 21963.359 37073.119 36168.693 19110.921 24548.937 45738.646 22641.553 23622.080 21820.673 24678.149 28421.311 20888.700 20899.063 45948.236 20899.090 35124.131 35683.649 22648.610 19559.396 20471.495 23256.793 37964.693 6052.238 22607.562 23059.007 22891.257 22343.106 29258.655 29585.252 23685.931 23888.773 32226.988 23664.463 27220.899 25709.701 417.904 22656.931 18781.036 30464.832 19020.375 19925.022 21928.290 22961.241 23670.394 22763.940 26104.885 27617.312 31224.742 24952.503 22518.023 23781.622 23812.710 22327.212
4912.358 3472.744 13943.441 5765.538 5739.335 5685.245 25021.349 4379.279 4493.828 11752.188 4379.547 4930.130 4123.956 6411.306 5966.871 5535.459 9362.010 7149.994 5762.499 5552.050 5590.715 6345.427 158.008 6363.544 29886.362 7415.041 20088.567 5156.743 6333.455 5495.976 19081.259 1415.729 7710.171 10281.756 13433.554 23436.766 4380.035 29992.056 4721.272 5526.241 6495.924 19347.673 0.000 6636.730 9872.134 5434.393 6610.436 4786.026 5845.885 19733.707 18829.281 295.135 6424.306 28399.234 5668.833 6282.669 5824.987 6758.432 10195.947 4629.145 3107.841 28608.825 2673.726 17062.891 18344.238 4732.807 555.051 1949.664 5340.991 20625.282 18004.950 4702.825 5036.969 5113.891 4564.269 11479.818 11806.415 6318.640 5768.456 14448.152 5642.425 9087.421 7790.827 19464.853 4516.750 2087.244 12293.580 4161.140 947.379 4023.554 5056.505 5750.676 5011.624 7975.632 9698.438 13445.906 7173.667 5917.277 6414.332 5893.836 5000.690
2263.254 8663.389 15739.801 2440.376 10842.530 2136.938 18952.220 2484.774 2283.561 13392.068 2297.951 3009.327 5161.509 1576.766 3360.207 1349.063 11471.887 4428.092 2081.154 3351.214 1752.134 1894.165 6474.677 1171.431 23817.233 8875.873 25059.020 3320.430 3680.529 1635.328 13012.130 7408.432 1457.094 15252.209 15524.311 17367.636 2583.637 23922.927 3978.776 1687.661 2044.954 24318.126 6406.584 0.000 13695.232 1314.620 3740.106 2491.212 2149.679 13664.578 12760.152 6354.079 4183.268 22330.105 1558.464 1201.382 2325.732 2661.940 8841.256 3404.299 3659.316 22539.695 7316.884 18155.118 12275.109 2437.993 5980.026 5037.159 1744.175 14556.153 22975.403 2142.444 3637.914 1883.026 9663.900 13215.398 13447.506 1218.376 3551.321 16328.011 3260.839 5613.920 3642.233 24435.307 4381.535 8080.055 13385.807 5124.325 5556.477 3101.171 1672.239 2155.099 1755.709 4359.088 5470.103 14941.356 10813.270 1819.604 531.942 2149.204 2033.065
12263.185 6572.772 9137.337 14350.848 5212.765 14231.503 32446.912 12873.637 12671.986 6527.451 13188.711 11126.968 13775.789 14279.328 10601.984 13700.531 6161.090 9649.761 11630.035 10439.137 14102.617 14245.633 10044.443 12747.635 37311.925 6114.465 28228.918 14087.411 10296.218 12528.559 26506.822 9295.302 14664.502 18422.107 6397.428 30862.329 13266.506 37417.619 9607.559 14038.144 14396.423 27488.023 10155.601 13760.383 0.000 13662.630 15503.972 12136.853 14429.016 27159.270 26254.844 9923.845 9855.733 35824.797 13909.932 14149.276 14410.297 11719.865 8885.254 13689.964 12339.388 36034.388 7791.065 12291.340 25769.801 12083.634 10269.165 11007.195 12423.290 28050.845 26145.301 12670.296 10413.413 13252.268 5431.014 6522.860 6064.584 13918.945 10389.267 9700.231 10529.512 10423.745 10991.248 27605.204 9257.904 8616.023 8089.941 13812.974 10614.190 12376.097 12958.021 11563.890 13536.329 10121.928 11088.202 8530.047 4289.280 14171.073 13748.909 12226.559 13611.166
1724.311 8366.626 16141.736 1313.551 10549.723 904.147 20142.196 1252.353 1462.115 13794.003 1065.530 2479.944 4088.673 1626.426 3708.616 776.461 11873.822 4913.246 2784.350 3550.728 892.131 1560.547 5489.161 2179.134 25007.209 9277.808 23986.185 2152.833 4084.984 1320.060 14202.106 6561.474 2663.464 14179.374 15926.246 18557.613 1351.216 25112.903 3860.969 827.658 1705.350 23245.290 5331.153 1768.265 13577.426 0.000 2667.271 1961.828 1101.660 14854.555 13950.129 5507.120 4438.474 23520.082 984.752 1496.876 1199.157 3680.879 9251.682 2214.284 2455.854 23729.672 7020.121 18557.053 13465.086 1908.609 5133.067 4190.200 1214.792 15746.129 21902.568 1352.372 3520.108 650.604 9371.093 13617.333 13849.441 1266.544 3769.003 16729.946 3543.090 6614.734 4661.173 23362.471 4263.728 7233.097 13787.742 4051.489 4709.519 2311.086 850.793 2772.527 523.288 5358.957 6470.917 15343.291 10695.464 1126.703 1362.236 2392.893 803.095
3462.558 10032.757 18085.643 1445.006 12299.348 1909.362 22099.738 2899.338 3117.143 15737.910 2712.515 4423.850 2516.348 3145.382 5652.523 2699.527 13817.729 6857.152 4738.389 5494.634 2293.515 3147.090 6726.590 4375.851 26964.751 11221.714 22301.734 1488.534 6028.890 3508.283 16159.648 7964.724 4318.498 12494.923 17870.152 20515.154 2365.804 27070.445 5804.876 2229.042 2808.822 21560.839 6577.680 4101.728 15521.332 2873.851 0.000 3842.744 1702.336 16812.096 15907.670 6863.717 6382.380 25477.623 2380.531 3361.058 1559.650 5666.899 11195.588 2034.892 4092.721 25687.213 8964.027 20500.959 15422.627 3789.525 6592.666 5808.514 3353.298 17703.671 20218.117 3056.699 5464.014 2835.353 11124.282 15561.239 15793.347 3424.909 5712.910 18673.852 5486.996 8670.722 6647.192 21678.020 6207.635 8636.239 15731.648 2479.164 6193.727 3957.715 3043.524 4726.566 2708.036 7317.653 8554.803 17287.198 12639.370 2257.001 3520.600 4348.537 2271.308
126.332 6949.288 14849.848 2532.239 9215.879 2412.894 21003.540 1243.302 1041.651 12502.115 1137.152 1188.055 4133.001 2489.218 2416.728 1881.922 10581.933 3621.357 1502.594 2258.839 2284.008 2427.024 5161.123 1577.518 25868.553 7985.919 24098.639 2241.183 2793.095 709.950 15063.450 6094.878 3508.960 14291.828 14634.357 19418.957 1422.838 25974.247 2569.081 2219.535 2577.814 23357.745 5093.030 2251.961 12285.537 1844.021 3443.839 0.000 2610.407 15715.899 14811.473 5040.525 3146.585 24381.426 2091.323 2359.166 2591.689 2431.104 7959.793 2221.083 2414.516 24591.016 5728.232 17265.164 14326.429 453.299 4666.471 3368.975 554.965 16607.473 22015.022 593.037 2228.219 1383.942 8040.813 12325.444 12557.552 2128.834 2477.115 15438.057 2251.201 5434.927 3411.397 23474.926 2971.839 6766.501 12495.853 4095.817 4242.923 1468.247 1089.695 1490.771 1676.765 4081.858 5319.008 14051.402 9403.575 2352.464 2202.655 1112.742 1742.841
2584.733 9227.047 17002.158 348.579 11410.145 343.463 20505.780 2108.314 2322.536 14654.425 1921.491 3340.365 3123.451 1730.414 4569.038 1105.569 12734.243 5773.667 3644.771 4411.149 727.617 1574.956 5980.144 3039.555 25370.793 10138.229 23020.963 1282.372 4945.405 2180.481 14565.689 7218.278 3047.494 13214.152 16786.667 18921.196 1574.781 25476.487 4721.391 663.143 1241.690 22280.068 5831.234 2507.770 14437.847 1325.839 1702.049 2822.249 0.000 15218.138 14313.712 6117.271 5298.895 23883.665 786.573 1767.100 233.935 4541.301 10112.103 1254.619 3308.968 24093.255 7880.542 19417.474 13828.669 2769.031 5846.220 5043.203 2075.213 16109.713 20937.346 2212.793 4380.529 1507.208 10231.514 14477.754 14709.862 1830.951 4629.424 17590.367 4403.511 7475.155 5521.594 22397.249 5124.149 7889.793 14648.163 3086.267 5443.159 3171.507 1711.214 3632.948 1379.891 6219.378 7331.338 16203.712 11555.885 663.043 1926.642 3253.314 947.193
16182.342 22562.449 29638.861 16206.577 24741.590 16011.591 5630.503 16532.061 16590.580 27291.128 16345.238 16924.175 18927.710 14650.995 17259.267 15211.068 25370.947 18327.151 15980.214 17250.274 15613.869 14969.821 20737.990 15081.358 11415.464 22774.932 38825.221 17086.631 17579.589 15550.176 929.460 21715.451 14993.908 29018.410 29423.371 4164.815 16448.262 11521.158 17877.835 15549.396 15120.611 38084.327 20579.982 14782.499 27594.292 15361.536 17506.307 16406.060 15915.880 0.000 908.693 20661.098 18082.327 9928.336 15313.971 14352.473 16091.932 16521.035 22740.315 17170.500 17735.562 10137.926 21215.944 32054.177 2256.438 16352.841 20287.044 19005.261 15659.023 1294.974 36741.604 16061.532 17536.974 15930.313 23562.960 27114.457 27346.566 14954.230 17450.380 30227.071 17159.899 19473.015 17501.328 38201.508 18280.594 22387.074 27284.867 18890.526 19863.496 17020.258 15979.289 16054.159 15802.996 18258.148 19329.198 28840.416 24712.330 15253.568 14930.897 16055.731 15894.820
15273.649 21653.756 28730.168 15297.884 23832.897 15102.898 6427.155 15623.368 15681.887 26382.435 15436.545 16015.482 18019.017 13742.302 16350.574 14302.375 24462.254 17418.458 15071.521 16341.581 14705.176 14061.128 19829.296 14172.664 11613.175 21866.239 37916.528 16177.937 16670.896 14641.482 1192.194 20806.758 14085.215 28109.717 28514.677 4900.929 15539.569 11718.869 16969.142 14640.702 14211.918 37175.634 19671.288 13873.806 26685.599 14452.843 16597.614 15497.366 15007.187 908.693 0.000 19752.404 17173.634 10126.047 14405.278 13443.780 15183.239 15612.342 21831.622 16261.806 16826.869 10335.637 20307.251 31145.484 2291.825 15444.148 19378.351 18096.568 14750.330 2031.088 35832.911 15152.838 16628.281 15021.619 22654.267 26205.764 26437.872 14045.537 16541.687 29318.377 16251.205 18564.322 16592.635 37292.814 17371.901 21478.381 26376.173 17981.832 18954.803 16111.565 15070.595 15145.465 14894.303 17349.455 18420.505 27931.723 23803.636 14344.875 14022.204 15147.038 14986.127
4859.807 3240.988 13711.685 6051.575 5507.579 5971.283 25201.000 4486.467 4441.276 11520.432 4674.682 4877.578 4409.993 6685.230 5914.319 5830.594 9130.254 7097.442 5709.948 5499.499 5876.752 6619.351 174.644 6310.993 30066.013 7183.286 20195.143 5442.781 6280.904 5443.425 19260.910 1174.770 7722.268 10388.332 13201.798 23616.417 4666.072 30171.707 4668.721 5812.279 6770.141 19454.249 295.135 6584.179 9640.379 5645.543 6896.474 4733.475 6131.922 19913.359 19008.933 0.000 6371.755 28578.886 5954.870 6555.679 6111.025 6705.881 9964.191 4915.183 3343.497 28788.476 2441.970 16831.135 18523.889 4680.256 529.724 1897.113 5288.439 20804.933 18111.526 4650.274 4984.418 5142.358 4332.514 11248.062 11574.659 6325.348 5715.905 14216.396 5589.874 9034.869 7738.276 19571.430 4464.199 1846.393 12061.824 4447.178 894.827 3971.002 5003.954 5698.125 5306.759 7923.081 9645.887 13214.150 6941.911 6203.315 6421.039 5841.285 5286.727
3237.499 6496.089 11730.352 5325.162 8470.344 5205.817 22973.447 3847.951 3646.300 9382.619 4163.025 2101.282 5729.621 5053.220 879.032 4674.845 7462.438 733.544 2308.894 985.759 5076.931 5219.947 6500.791 3274.169 27838.459 4866.423 25595.901 5061.725 506.611 3458.114 17033.356 7432.810 5191.036 15789.090 11514.861 21388.863 4240.820 27944.153 1993.178 5012.458 5370.737 24855.006 6432.698 4286.917 9908.992 4636.944 6478.286 3111.167 5403.330 17685.805 16781.379 6380.193 0.000 26351.332 4884.246 4923.168 5384.612 2115.254 4831.806 4664.278 4011.136 26560.922 5149.584 14145.668 16296.336 3057.948 6006.140 4819.835 3397.604 18577.379 23512.284 3644.610 1858.504 4226.582 7291.714 9205.948 9438.056 4692.837 669.471 12318.561 978.121 2878.380 1573.939 24972.187 1906.942 8076.357 9376.357 5692.436 5603.373 3400.597 3932.335 2242.750 4510.643 1559.182 3387.935 10931.907 7027.030 5145.387 4427.769 2905.418 4585.480
24298.977 30679.084 37755.496 24323.212 32858.225 24128.227 6478.758 24648.697 24707.215 35407.763 24461.873 25040.810 27044.345 22767.630 25375.902 23327.703 33487.582 26443.787 24096.849 25366.909 23730.504 23086.457 28854.625 23197.993 2459.657 30891.568 46941.856 25203.266 25696.224 23666.811 10859.244 29832.086 23110.543 37135.045 37540.006 6266.480 24564.897 2390.660 25994.470 23666.031 23237.246 46200.962 28696.617 22899.135 35710.927 23478.172 25622.942 24522.695 24032.515 10086.743 10777.654 28777.733 26198.962 0.000 23430.606 22469.108 24208.568 24637.670 30856.951 25287.135 25852.197 499.824 29332.579 40170.813 12151.101 24469.476 28403.680 27121.896 23775.658 8928.133 44858.239 24178.167 25653.609 24046.948 31679.595 35231.092 35463.201 23070.865 25567.016 38343.706 25276.534 27589.650 25617.963 46318.143 26397.229 30503.709 35401.502 27007.161 27980.131 25136.894 24095.924 24170.794 23919.631 26374.783 27445.833 36957.051 32828.965 23370.203 23047.532 24172.366 24011.455
2348.996 8991.311 16766.421 988.748 11174.408 700.313 20210.713 1873.086 2086.800 14418.688 1686.262 3104.629 3709.881 1435.347 4333.301 810.501 12498.507 5537.931 3409.034 4175.413 300.506 1279.888 5805.605 2803.819 25075.725 9902.492 23607.392 1868.801 4709.668 1944.745 14270.622 7043.739 2752.426 13800.581 16550.931 18626.129 1339.552 25181.419 4485.654 236.032 946.623 22866.497 5656.695 2212.703 14202.111 1090.102 2288.478 2586.513 698.051 14923.071 14018.645 5942.732 5063.159 23588.598 0.000 1472.033 874.103 4305.564 9876.366 1952.670 3074.079 23798.188 7644.806 19181.737 13533.602 2533.294 5636.073 4808.425 1839.477 15814.645 21523.775 1977.057 4144.793 1271.472 9995.778 14242.017 14474.126 1535.883 4393.688 17354.631 4167.774 7239.419 5285.857 22983.678 4888.413 7715.254 14412.427 3672.696 5212.525 2935.771 1475.478 3397.211 1144.155 5983.641 7095.602 15967.976 11320.148 367.976 1631.575 3017.577 711.456
2441.721 9077.225 16316.566 2452.450 11260.323 2239.653 18738.680 2587.489 2386.275 13968.833 2400.666 3190.543 5173.583 896.868 3894.150 1451.777 12048.652 5004.672 2726.702 3867.704 1854.849 1215.695 6577.391 1973.396 23603.693 9452.638 25071.094 3332.504 4257.110 1816.544 12798.590 7511.146 1427.502 15264.283 16101.076 17154.096 2686.352 23709.387 4405.787 1790.375 1366.485 24330.200 6509.298 999.459 14122.243 1417.334 3752.180 2672.428 2161.754 13451.038 12546.612 6456.793 4752.128 22116.565 1559.844 0.000 2337.806 3463.905 9418.021 3416.373 3762.031 22326.155 7730.720 18731.883 12061.569 2619.209 6082.740 5139.873 1925.391 14342.613 22987.477 2270.519 4064.925 1985.740 10081.693 13792.163 14024.271 844.014 4082.657 16904.776 3777.329 6415.885 4444.198 24447.381 4808.546 8182.770 13962.572 5136.399 5659.191 3229.246 1774.954 2714.879 1858.423 5161.053 6272.069 15518.121 11240.281 1499.442 710.409 2335.245 2135.779
2651.622 9259.820 17088.257 114.645 11496.244 440.960 20685.076 2088.402 2306.208 14740.525 1901.579 3426.465 2961.221 1909.710 4655.137 1284.864 12820.343 5859.767 3738.652 4497.249 825.114 1754.251 5957.775 3134.150 25550.088 10224.329 22904.317 1101.975 5031.505 2266.581 14744.985 7195.909 3226.790 13097.506 16872.767 19100.492 1554.868 25655.782 4807.490 760.640 1420.986 22163.423 5808.864 2687.066 14523.947 1423.336 1585.403 2908.349 233.935 15397.434 14493.008 6094.902 5384.995 24062.961 965.869 1946.396 0.000 4638.798 10198.203 1236.769 3286.960 24272.551 7966.642 19503.574 14007.965 2855.131 5823.851 5021.195 2161.313 16289.009 20820.700 2197.339 4466.629 1489.756 10317.614 14563.854 14795.962 2010.246 4715.524 17676.467 4489.611 7569.750 5619.091 22280.603 5210.249 7867.424 14734.263 2924.037 5420.790 3150.701 1697.927 3726.829 1362.440 6313.972 7425.933 16289.812 11641.985 842.339 2105.938 3347.318 929.741
2519.737 7034.674 13658.473 4592.270 9008.928 4472.925 21344.590 3130.189 2928.538 11310.740 3445.264 2037.884 5856.286 4145.455 1278.879 3915.052 9390.559 2346.763 996.267 1281.063 4318.123 4460.153 6876.789 1605.196 26209.603 6794.544 25821.924 4343.963 1599.201 2570.404 15404.500 7810.544 3288.800 16015.113 13442.982 19760.007 3523.059 26315.297 2305.341 4253.650 4610.943 25081.030 6808.696 2658.061 11846.914 3880.609 5755.878 2393.405 4670.438 16056.948 15152.522 6756.191 2101.939 24722.475 4124.453 3781.789 4651.720 0.000 6759.927 4107.367 4137.801 24932.065 5688.169 16073.789 14667.479 2340.186 6382.138 5084.419 2675.196 16948.523 23738.307 2926.849 2161.993 3504.174 7830.298 11134.069 11366.177 3785.071 1469.992 14246.682 1190.687 3392.973 1341.545 25198.211 2533.216 8482.167 11304.478 5819.102 5958.589 3191.532 3209.926 1070.211 3777.751 2277.760 3249.156 12860.028 8964.952 4385.593 3107.820 1599.532 3863.072
8021.186 8834.348 8697.386 10108.850 10598.597 9989.504 27672.322 8631.638 8429.987 6349.653 8946.713 6949.239 10105.095 9755.039 5580.850 9458.533 4806.433 4454.478 7010.712 5833.716 9860.618 10003.634 10009.641 7973.045 32537.335 3369.817 29486.684 9845.412 5205.826 8159.932 21732.232 10399.445 9889.912 19679.872 8481.896 26087.739 9024.508 32643.029 6128.585 9796.145 10154.424 28745.789 10120.798 8985.793 8896.452 9420.632 11261.973 7894.854 10187.017 22384.681 21480.255 9889.043 4847.956 31050.208 9667.933 9624.987 10168.299 6814.129 0.000 9447.966 8483.114 31259.798 7511.915 11112.703 20995.211 7841.635 9769.296 8937.101 8181.292 23276.255 27403.066 8428.298 6238.474 9010.270 7958.479 6172.983 6405.091 9394.655 5517.427 9285.596 5826.078 3928.457 5712.868 28862.970 6008.693 10817.810 6233.728 10067.911 9476.652 8246.909 8716.022 6944.568 9294.331 4923.805 4119.625 7898.941 5128.964 9929.074 9129.587 7607.237 9369.168
2000.787 8315.090 16590.208 1153.682 10581.681 1428.800 21739.808 1437.568 1655.373 14242.476 1250.744 2928.416 2243.357 2964.443 4157.088 2339.597 12322.294 5361.718 3243.143 3999.200 1810.886 2808.984 5013.045 3451.622 26604.821 9726.280 22215.817 541.515 4533.456 2584.054 15799.718 6251.179 4281.522 12409.006 16374.718 20155.225 904.034 26710.515 4309.441 1746.412 2475.719 21474.923 4864.135 3703.152 14025.898 2294.701 2030.723 2166.548 1234.029 16452.167 15547.741 5150.172 4886.946 25117.694 2020.602 3001.128 1213.131 4195.158 9700.154 0.000 2342.230 25327.284 7299.064 19005.525 15062.698 2113.329 4879.121 4076.465 2429.068 17343.741 20132.200 1779.798 3968.580 2002.557 9406.615 14065.805 14297.913 3064.979 4217.475 17178.418 3991.562 7175.477 5175.451 21592.104 4712.200 6922.694 14236.214 2206.172 4476.060 2205.971 2133.478 3231.320 1875.240 5822.408 7083.062 15791.763 11143.936 1897.072 3160.670 2987.197 1438.512
2123.373 6234.556 15262.983 3359.953 8501.146 3259.933 22282.878 1546.585 1659.591 12915.250 1858.884 2204.266 2133.040 3767.108 3457.464 3014.797 10995.069 4662.094 2977.429 2976.191 3143.855 3701.229 3366.163 3574.559 27147.891 8071.485 22097.387 2753.194 3833.832 2706.991 16342.788 4299.918 4804.146 12290.576 15047.493 20698.295 1933.175 27253.585 2654.184 3079.382 3852.019 21356.493 3276.747 3836.678 12370.641 2705.661 4238.615 1997.041 3440.300 16995.236 16090.810 3245.565 3960.347 25660.763 3221.973 3637.557 3419.402 3973.361 8474.154 2226.609 0.000 25870.354 5218.529 17678.299 15605.767 1943.822 2871.512 1928.645 2552.006 17886.811 20013.770 1902.774 2610.464 2202.477 7326.081 12738.579 12970.688 3407.226 3290.876 15851.193 3066.566 6695.833 5004.913 21473.673 3056.943 4971.542 12908.989 2095.855 2447.963 1223.502 2256.454 2965.606 2490.961 5410.841 6912.524 14464.538 9488.678 3482.984 3502.917 3107.923 2553.830
24509.918 30890.025 37966.437 24534.153 33069.166 24339.167 6689.699 24859.637 24918.156 35618.704 24672.814 25251.751 27255.286 22978.571 25586.843 23538.644 33698.523 26654.727 24307.790 25577.850 23941.445 23297.397 29065.565 23408.934 2119.128 31102.508 47152.797 25414.207 25907.165 23877.752 11070.185 30043.027 23321.484 37345.986 37750.947 6477.421 24775.838 2050.131 26205.411 23876.972 23448.187 46411.903 28907.558 23110.075 35921.868 23689.112 25833.883 24733.636 24243.456 10297.684 10988.595 28988.674 26409.903 499.824 23641.547 22680.049 24419.508 24848.611 31067.891 25498.076 26063.138 0.000 29543.520 40381.753 12362.042 24680.417 28614.620 27332.837 23986.599 9139.074 45069.180 24389.108 25864.550 24257.889 31890.536 35442.033 35674.142 23281.806 25777.956 38554.647 25487.474 27800.591 25828.904 46529.084 26608.170 30714.650 35612.443 27218.102 28191.072 25347.834 24306.865 24381.735 24130.572 26585.724 27656.774 37167.992 33039.906 23581.144 23258.473 24383.307 24222.396
5926.636 1447.113 11353.615 8041.125 3623.910 7921.779 26199.244 6469.260 6333.734 9162.362 6777.698 4747.439 6625.533 7995.052 4788.976 7390.808 6688.284 5863.874 5382.367 4466.526 7792.893 7935.909 2497.916 6499.967 31064.257 4741.315 21974.959 7658.320 5054.940 6218.835 20259.154 2887.720 8416.834 12168.148 11003.829 24614.661 6844.387 31169.951 3634.949 7728.420 8086.699 21234.065 2609.074 7512.715 7723.515 7352.907 9112.013 5800.304 8119.292 20911.603 20007.176 2377.318 5145.791 29577.129 7600.208 7865.000 8100.574 5747.255 7531.710 7130.722 5326.290 29786.720 0.000 14389.165 19522.133 5747.085 2722.638 3660.509 6113.567 21803.177 19891.342 6332.769 4165.745 6942.545 2445.917 8889.992 9216.590 7634.668 4590.561 11858.326 4556.902 7394.411 6617.230 21351.245 3338.855 3357.302 9619.854 6662.717 2993.493 5596.997 6648.297 5316.222 7226.606 6689.512 8293.901 10856.080 4920.887 7861.349 7501.241 5978.891 7301.443
17178.523 14049.029 4393.718 19266.187 15428.610 19146.841 36652.196 17788.975 17587.324 5656.549 18104.050 16082.932 19098.074 18912.376 14738.187 18615.870 7982.281 13611.815 16168.049 14963.943 19017.956 19160.971 16633.864 17130.382 41517.209 10215.973 35683.458 19002.749 14363.163 17317.269 30712.106 16645.338 18397.628 25876.647 6526.815 35067.613 18181.845 41622.903 14984.758 18953.482 19311.761 34942.564 16745.022 17954.901 12134.131 18577.969 20419.310 17052.191 19344.354 31364.555 30460.128 16513.266 14005.293 40030.081 18825.271 18782.324 19325.636 15971.467 10953.629 18605.303 17527.836 40239.672 14135.948 0.000 29975.085 16998.972 16858.586 17303.437 17338.629 32256.129 33599.841 17585.635 15330.552 18167.607 13159.120 6042.338 6185.539 18551.992 14674.764 4206.958 14983.415 13051.189 14823.088 35059.745 14576.545 16039.924 4865.271 19060.890 16959.073 17338.987 17873.359 16101.905 18451.668 14081.142 13222.243 4717.921 9901.129 19086.411 18286.924 16764.574 18526.505
14517.755 20897.863 27974.274 14541.990 23077.004 14347.005 7730.165 14867.475 14925.993 25626.541 14680.652 15259.589 17263.123 12986.408 15594.680 13546.481 23706.360 16662.565 14315.627 15585.687 13949.282 13305.235 19073.403 13416.771 13504.667 21110.346 37160.635 15422.044 15915.002 13885.589 1640.387 20050.864 13329.322 27353.823 27758.784 6254.019 14783.676 13610.361 16213.249 13884.809 13456.025 36419.740 18915.395 13117.913 25929.705 13696.950 15841.720 14741.473 14251.294 2246.163 2296.199 18996.511 16417.741 12017.540 13649.384 12687.886 14427.346 14856.448 21075.729 15505.913 16070.976 12227.130 19551.357 30389.591 0.000 14688.254 18622.458 17340.674 13994.437 3384.177 35077.017 14396.945 15872.387 14265.726 21898.373 25449.871 25681.979 13289.643 15785.794 28562.484 15495.312 17808.428 15836.741 36536.921 16616.008 20722.488 25620.280 17225.939 18198.909 15355.672 14314.702 14389.572 14138.409 16593.561 17664.612 27175.829 23047.743 13588.982 13266.311 14391.144 14230.234
554.679 6795.516 14852.008 2609.651 9062.107 2509.003 21246.060 790.003 588.352 12504.275 1105.077 1190.215 3681.505 2731.737 2418.888 2122.531 10584.094 3623.517 1504.943 2260.999 2387.728 2667.633 4709.792 2005.865 26111.073 7988.079 23647.143 2003.777 2795.255 1138.297 15305.970 5643.547 3757.078 13840.331 14636.517 19661.476 1182.872 26216.767 2571.241 2323.255 2818.423 22906.248 4641.699 2500.080 12287.697 1947.741 3491.519 428.347 2689.998 15958.418 15053.992 4589.194 3148.745 24623.945 2331.932 2601.685 2669.100 2456.957 7961.953 1767.783 1963.019 24833.535 5699.482 17267.324 14568.949 0.000 4215.141 2917.645 983.312 16849.993 21563.525 586.662 2230.379 1444.556 7887.041 12327.604 12559.712 2371.354 2479.275 15440.217 2253.361 5437.276 3437.251 23023.429 2974.000 6315.171 12498.013 3644.320 3791.592 1016.750 1150.309 1493.120 1737.155 4084.207 5344.861 14053.563 9405.735 2593.073 2445.175 1540.260 1802.792
4546.368 3467.090 13937.786 5832.000 5733.681 5751.707 24887.562 4173.028 4127.838 11746.534 4419.560 4564.140 4190.418 6371.791 5600.881 5575.472 9356.356 6784.004 5396.510 5186.060 5657.177 6305.913 494.651 5997.554 29752.575 7409.387 20515.086 5223.205 5967.465 5129.986 18947.472 1428.406 7408.829 10708.275 13427.900 23302.978 4446.496 29858.269 4355.282 5592.703 6456.703 19774.191 426.558 6270.740 9866.480 5332.105 6676.898 4420.036 5912.347 19599.920 18695.494 374.053 6058.317 28265.447 5735.295 6242.241 5891.449 6392.442 9915.981 4695.607 3030.058 28475.037 2668.072 17057.237 18210.451 4366.818 0.000 1583.675 4975.001 20491.495 18431.469 4336.836 4670.980 4828.920 4558.615 11474.164 11800.761 6011.910 5402.466 14442.498 5276.435 8721.431 7424.837 19891.372 4150.760 2100.030 12287.926 4227.602 581.389 3657.564 4690.516 5384.687 5051.637 7609.642 9332.448 13440.252 7168.013 5983.739 6107.601 5527.846 5067.152
3152.970 4740.457 14712.975 4729.069 7007.047 4629.049 23630.235 2915.701 2870.511 12521.722 3228.000 3170.742 3096.588 5114.464 4341.607 4383.913 10047.644 5533.666 4003.111 3828.507 4512.971 5048.586 2557.171 4604.156 28495.248 7836.057 22003.831 4122.310 4710.367 3736.588 17690.144 3490.926 6151.502 12197.020 14363.189 22045.651 3302.291 28600.942 2999.787 4448.498 5199.376 21262.937 2489.078 5013.413 11139.847 4074.777 5586.517 3026.638 4809.416 18342.593 17438.167 2436.573 4803.357 27008.120 4591.089 4984.914 4788.519 4999.044 8831.573 3595.725 1772.731 27217.710 3663.907 17505.356 16953.124 2973.419 2062.520 0.000 3581.603 19234.168 19920.214 3079.509 3313.427 3571.593 5831.982 12249.352 12575.949 4754.582 4143.193 15217.686 3918.882 7475.318 6031.439 21380.118 2911.350 4162.550 12736.045 3133.772 1638.971 2400.237 3433.188 3991.288 3860.077 6359.304 7939.050 14215.440 8280.247 4852.100 4850.274 4134.448 3922.946
653.547 7452.269 15227.379 1994.788 9635.366 1894.087 20630.481 1347.561 1146.021 12879.646 1160.737 1565.587 4239.414 2116.159 2794.259 1506.953 10959.465 3998.889 1880.125 2636.371 1772.150 2052.055 5268.614 1517.588 25495.494 8363.450 24205.052 2264.764 3170.626 650.019 14690.391 6202.369 3141.500 14398.241 15011.889 19045.898 1446.423 25601.188 2946.612 1707.676 2202.845 23464.158 5200.521 1884.502 12663.069 1332.163 3080.681 1031.874 2075.135 15342.840 14438.414 5148.015 3524.117 24008.367 1716.354 1986.107 2054.237 2808.636 8337.324 2325.073 2520.929 24217.957 6105.764 17642.695 13953.371 978.655 4773.962 3476.466 0.000 16234.414 22121.435 616.973 2605.751 828.978 8456.736 12702.975 12935.084 1755.775 2854.646 15815.589 2628.732 5812.458 3788.929 23581.339 3349.371 6873.992 12873.385 4202.230 4350.414 1574.660 534.730 1868.302 1121.800 4459.390 5696.540 14428.934 9781.106 1977.494 1829.596 1490.273 1187.876
17166.031 23546.138 30622.550 17190.266 25725.279 16995.281 4413.122 17515.751 17574.269 28274.817 17328.927 17907.864 19911.399 15634.684 18242.956 16194.757 26354.636 19310.841 16963.903 18233.963 16597.558 15953.511 21721.679 16065.047 10291.505 23758.622 39808.910 18070.320 18563.278 16533.865 2174.712 22699.140 15977.597 30002.099 30407.060 2916.042 17431.951 10397.199 18861.524 16533.085 16104.300 39068.016 21563.671 15766.189 28577.981 16345.226 18489.996 17389.749 16899.569 1402.211 2138.325 21644.787 19066.016 8804.378 16297.660 15336.162 17075.622 17504.724 23724.005 18154.189 18719.251 9013.968 22199.633 33037.866 3501.690 17336.530 21270.734 19988.950 16642.712 0.000 37725.293 17045.221 18520.663 16914.002 24546.649 28098.146 28330.255 15937.919 18434.070 31210.760 18143.588 20456.704 18485.017 39185.197 19264.283 23370.763 28268.556 19874.215 20847.185 18003.948 16962.978 17037.848 16786.685 19241.837 20312.887 29824.105 25696.019 16237.257 15914.586 17039.420 16878.509
21801.627 20225.046 30695.743 20679.494 21327.447 21143.850 41334.226 21119.213 21335.398 28504.491 21112.910 21877.613 17956.657 22558.861 23060.654 21934.015 26117.177 24252.712 22655.683 22547.554 21528.004 22403.402 17947.260 23252.813 46199.239 24613.872 5698.921 19898.656 23429.414 22385.244 35394.136 17759.150 23875.940 9108.334 30185.856 39749.643 20766.200 46304.933 21718.833 21463.530 22070.136 6088.354 17977.811 23336.217 26063.598 22108.339 20286.800 21675.295 20936.825 36046.585 35142.159 18084.387 23522.403 44712.112 21615.019 22595.546 20794.139 23651.615 27394.777 19862.166 19872.529 44921.702 19872.556 34097.597 34657.115 21622.076 18532.862 19444.961 22230.259 36938.159 0.000 21581.028 22032.473 21864.723 21316.572 28232.121 28558.718 22659.397 22862.240 31200.454 22637.929 26194.365 24683.167 6313.751 21630.397 17754.502 29438.299 17993.841 18898.488 20901.756 21934.707 22643.860 21737.406 25078.351 26590.778 30198.208 23925.969 21491.490 22755.088 22786.176 21300.678
554.613 7358.745 15278.129 2123.186 9625.336 2022.485 20860.586 830.293 628.642 12930.396 703.243 1616.336 3722.883 2344.816 2845.009 1733.835 11010.214 4049.638 1930.875 2687.120 1900.959 2278.937 4819.758 1771.431 25725.599 8414.200 23688.521 1807.274 3221.376 903.863 14920.496 5753.513 3381.854 13881.709 15062.638 19276.003 988.929 25831.293 2997.362 1836.486 2429.727 22947.626 4751.665 2222.108 12713.818 1460.972 3009.931 934.799 2203.533 15572.944 14668.518 4699.160 3574.866 24238.471 1943.236 2215.265 2182.635 2859.385 8388.074 1808.074 2004.397 24448.062 6156.513 17693.445 14183.475 881.580 4325.107 3165.254 748.877 16464.519 21604.903 0.000 2656.500 957.788 8450.270 12753.725 12985.833 1984.934 2905.396 15866.338 2679.482 5863.208 3839.678 23064.807 3400.120 6425.137 12924.134 3685.698 3901.558 1058.276 663.540 1919.052 1250.610 4510.139 5747.289 14479.683 9831.856 2204.377 2080.625 1541.023 1316.274
2055.525 5807.025 12903.723 4143.189 7834.994 4023.843 22033.499 2665.977 2464.326 10555.990 2981.052 919.309 4272.006 3969.083 1029.242 3492.872 8635.809 2233.871 1233.452 517.734 3894.958 4037.974 5272.430 2334.222 26898.512 6039.794 24237.644 3879.751 1405.609 2320.899 16093.409 6206.186 4251.089 14430.833 12688.232 20448.916 3058.847 27004.206 956.523 3830.485 4188.764 23496.749 5204.337 3346.970 10672.979 3454.971 5296.312 1929.193 4221.356 16745.858 15841.431 5151.832 1501.890 25411.384 3702.273 3839.031 4202.638 1786.276 6106.539 3482.305 2553.520 25620.975 4460.520 15319.039 15356.388 1875.975 4777.779 3480.061 2215.631 17637.432 22154.027 2462.637 0.000 3044.609 6656.363 10379.319 10611.427 3608.700 832.419 13491.932 608.109 4237.377 2959.858 23613.930 1359.282 6877.809 10549.728 4234.821 4354.231 2175.365 2750.361 1167.308 3328.670 3055.065 4866.405 12105.278 7791.017 3963.413 3352.327 1829.977 3403.507
1263.787 7923.423 15698.533 1709.800 10106.520 1590.454 20421.160 1121.034 919.525 13350.800 934.210 2036.741 4013.766 1905.389 3265.413 1294.409 11430.619 4470.043 2348.927 3107.525 1461.569 1839.511 5110.641 1744.425 25286.173 8834.605 23979.403 2038.236 3641.781 876.857 14481.069 6044.396 2942.427 14172.592 15483.043 18836.576 1219.896 25391.866 3417.766 1397.095 1990.301 23238.509 5042.548 1804.338 13134.223 1021.582 2854.154 1518.625 1787.967 15133.518 14229.092 4990.043 3995.271 23799.045 1503.810 1775.839 1769.249 3269.646 8808.479 2098.546 2295.280 24008.635 6576.918 18113.850 13744.049 1465.406 4615.990 3673.123 771.589 16025.093 21895.786 809.782 3076.905 0.000 8927.890 13174.130 13406.238 1545.507 3325.800 16286.743 3099.887 6180.025 4249.939 23355.690 3820.525 6716.019 13344.539 3976.581 4192.441 1768.496 308.203 2337.104 895.273 4924.248 6036.209 14900.088 10252.260 1764.950 1641.199 1957.594 961.349
8218.031 1141.758 10359.652 10428.551 2828.199 10309.206 28544.469 8701.103 8617.240 8168.400 8990.989 7168.127 8838.824 10376.885 6926.683 9778.235 5781.086 7224.414 7727.592 6621.016 10180.320 10323.336 4615.506 8845.192 33409.482 4697.632 23532.126 9871.612 7192.647 8606.262 22604.379 4494.005 10762.059 13725.315 9849.766 26959.886 9057.678 33515.176 5789.438 10115.847 10474.126 22791.231 4726.664 9857.940 5307.865 9740.333 11325.304 8091.699 10506.719 23256.828 22352.401 4494.908 7283.498 31922.354 9987.635 10246.833 10488.001 7901.744 7864.291 9344.014 7558.133 32131.945 2440.858 13761.507 21867.358 8038.480 4840.229 5876.320 8500.994 24148.402 21448.509 8616.276 6510.970 9329.972 0.000 7896.030 8222.627 10016.502 6728.268 10864.363 6711.391 8341.205 8565.901 22908.412 5476.562 3888.591 9102.208 8876.008 5190.653 7874.035 9035.724 7661.447 9614.033 7696.581 9240.695 9862.117 3589.879 10248.776 9846.466 8324.116 9678.333
12324.557 8337.601 3029.870 14412.220 9641.572 14292.875 31975.693 12935.009 12733.358 346.588 13250.083 11228.965 14244.108 14058.409 9884.221 13761.903 2270.853 8757.849 11314.083 10109.976 14163.989 14307.005 10922.436 12276.416 36840.706 5362.006 29972.030 14148.783 9509.197 12463.303 26035.603 10933.910 14193.283 20165.219 2776.888 30391.109 13327.878 36946.400 10130.792 14099.516 14457.795 29231.136 11033.594 13289.164 6347.093 13724.002 15565.344 12198.225 14490.388 26688.051 25783.625 10801.838 9151.327 35353.578 13971.304 13928.357 14471.669 11117.500 6099.663 13751.336 12673.870 35563.168 8424.520 6011.726 25298.582 12145.006 11147.158 11640.651 12484.662 27579.626 27888.413 12731.668 10476.586 13313.640 7447.692 0.000 328.959 13698.026 9820.798 3592.764 10129.448 8510.265 10096.495 29348.317 9722.579 10328.496 1734.897 14206.924 11247.645 12485.021 13019.393 11247.939 13597.701 9227.175 9060.697 2250.432 4189.701 14232.445 13432.958 11910.607 13672.538
12630.223 8642.056 3159.961 14717.886 9327.819 14598.541 32281.359 13240.675 13039.023 550.075 13555.749 11534.631 14549.774 14364.075 10189.887 14067.569 2575.308 9063.515 11619.749 10415.642 14469.655 14612.671 11226.892 12582.082 37146.372 5667.672 30276.486 14454.449 9814.863 12768.969 26341.269 11238.365 14498.949 20469.675 2768.773 30696.775 13633.544 37252.066 10436.458 14405.182 14763.461 29535.591 11338.049 13594.830 6033.340 14029.668 15871.010 12503.891 14796.054 26993.717 26089.291 11106.293 9456.993 35659.244 14276.970 14234.023 14777.335 11423.166 6405.329 14057.002 12979.535 35868.834 8728.975 6311.505 25604.248 12450.672 11451.614 11945.106 12790.328 27885.292 28192.869 13037.334 10782.252 13619.306 7752.148 483.365 0.000 14003.692 10126.464 3722.855 10435.114 8815.931 10402.161 29652.772 10028.245 10632.951 2040.563 14512.589 11552.101 12790.687 13325.059 11553.605 13903.367 9532.841 9366.363 2550.211 4494.156 14538.111 13738.624 12216.273 13978.204
2216.902 8857.129 16330.568 2160.327 11040.227 1965.342 19215.639 2358.100 2156.886 13982.835 2171.277 2970.447 4881.460 605.595 3888.957 1164.818 12062.654 5093.587 2881.689 3852.321 1567.619 924.422 6348.002 2273.686 24080.651 9466.639 24778.971 3040.381 4265.324 1596.447 13275.548 7281.758 1904.460 14972.160 16115.077 17631.055 2402.012 24186.345 4351.473 1503.146 1075.212 24038.077 6279.909 1304.505 14067.929 1187.945 3460.057 2452.331 1869.630 13927.997 13023.571 6227.404 4740.067 22593.524 1267.721 476.959 2045.683 3764.196 9432.022 3124.250 3532.642 22803.114 7510.624 18745.884 12538.528 2399.113 5853.351 4910.484 1705.295 14819.571 22695.354 2041.130 4010.611 1756.351 9861.596 13806.164 14038.272 0.000 4070.597 16918.777 3772.136 6711.213 4744.489 24155.258 4754.231 7953.381 13976.573 4844.276 5429.803 2999.857 1545.565 2869.866 1629.035 5455.436 6567.397 15532.123 11185.967 1207.318 865.396 2490.232 1848.570
2568.028 6010.866 12399.822 4655.692 7985.120 4536.346 22318.318 3178.480 2976.829 10052.089 3493.555 1431.812 5067.599 4387.137 290.221 4005.375 8131.908 1403.014 1643.326 316.289 4407.461 4550.476 5946.184 2619.041 27183.331 5535.894 24939.829 4392.254 576.481 2792.031 16378.228 6879.939 4535.908 15133.018 12184.332 20733.735 3571.350 27289.025 1338.964 4342.987 4701.266 24198.935 5878.090 3631.789 10508.626 3967.474 5808.815 2441.696 4733.859 17030.677 16126.251 5825.585 669.471 25696.204 4214.776 4257.085 4715.141 1464.304 5501.277 3994.808 3349.113 25905.794 4664.361 14815.139 15641.207 2388.477 5451.532 4163.764 2728.134 17922.251 22856.212 2975.140 1196.738 3557.112 6806.490 9875.419 10107.527 4026.754 0.000 12988.032 308.651 3547.851 2138.772 24316.115 1421.718 7530.261 10045.828 5030.414 5044.706 2731.127 3262.864 1577.182 3841.173 2228.548 4045.319 11601.377 7626.664 4475.916 3762.201 2239.851 3916.010
15529.142 11874.299 883.296 17616.805 13067.125 17497.460 35180.278 16139.594 15937.943 3428.537 16454.668 14433.550 17448.693 17262.995 13088.806 16966.488 5807.551 11962.434 14518.668 13314.561 17368.574 17511.590 14459.134 15481.001 40045.291 8566.591 33508.728 17353.368 12713.782 15667.888 29240.188 14470.608 17397.868 23701.917 3456.045 33595.695 16532.463 40150.985 13335.377 17304.101 17662.380 32767.834 14570.292 16493.749 9772.645 16928.587 18769.929 15402.810 17694.973 29892.637 28988.210 14338.536 12355.912 38558.163 17175.889 17132.943 17676.255 14322.085 9304.248 16955.921 15878.455 38767.754 11961.218 4542.973 28503.167 15349.591 14683.856 15177.349 15689.248 30784.211 31425.111 15936.254 13681.171 16518.225 10984.390 3814.327 3888.180 16902.611 13025.383 0.000 13334.033 11714.850 13301.081 32885.014 12927.164 13865.194 3376.119 17411.509 14784.343 15689.606 16223.978 14452.524 16802.286 12431.760 12265.282 2120.835 7726.398 17437.030 16637.543 15115.192 16877.124
2342.115 5843.986 12708.473 4429.778 7818.241 4310.433 22044.367 2952.566 2750.915 10360.740 3267.641 1205.898 4843.288 4078.486 425.623 3779.461 8440.559 1630.252 1334.676 90.375 4181.547 4324.563 5721.873 2345.090 26909.380 5844.544 24715.519 4166.341 801.990 2483.380 16104.277 6655.628 4261.957 14908.708 12492.983 20459.784 3345.436 27015.074 1114.654 4117.074 4475.353 23974.624 5653.780 3357.838 10656.226 3741.560 5582.902 2215.783 4507.946 16756.725 15852.299 5601.275 978.121 25422.252 3988.862 3948.434 4489.227 1190.353 5809.927 3768.894 3124.803 25631.843 4497.481 15123.789 15367.256 2162.564 5227.222 3939.453 2502.220 17648.300 22631.902 2749.226 972.427 3331.198 6639.611 10184.069 10416.178 3718.103 308.651 13296.683 0.000 3856.502 2359.845 24091.805 1342.529 7305.951 10354.479 4806.104 4820.396 2505.213 3036.950 1268.532 3615.259 2451.446 4266.393 11910.028 7774.264 4250.003 3453.550 1931.200 3690.096
5525.878 8841.887 11111.064 7497.550 10780.467 7378.204 24309.815 6136.330 5934.679 8763.331 6390.096 4836.069 8507.582 7050.734 3452.202 6820.331 6926.150 2226.027 3932.597 3862.301 7223.402 7365.433 9159.387 4628.135 29174.828 4313.978 28351.831 7350.104 3077.178 5471.522 18369.725 10087.546 6334.315 18545.020 10895.574 22725.232 6529.200 29280.522 4749.108 7158.929 7516.223 27610.936 9091.294 5640.883 10439.142 6785.888 8656.995 5399.546 7575.717 19022.174 18117.747 9038.789 2876.541 27687.700 7029.732 6687.068 7556.999 3405.536 3916.912 7016.331 6836.832 27897.291 7503.514 13135.256 17632.704 5346.327 8664.735 7575.766 5576.314 19913.748 26268.214 5845.981 4628.154 6405.292 8468.088 8586.661 8818.769 6690.350 3546.012 11699.274 3852.459 0.000 2121.122 27728.117 4662.872 10731.092 8757.070 8470.398 8359.303 5989.717 6111.044 3969.601 6683.031 1794.151 899.490 10312.619 6955.598 7290.872 6013.100 4607.089 6764.190
3488.910 7970.531 12652.199 5561.443 9944.786 5442.098 22313.763 4099.362 3897.711 10304.466 4414.437 3189.278 6977.841 5114.628 1962.531 4884.225 8384.285 1346.124 2147.661 2452.609 5287.296 5429.327 7975.233 2574.369 27178.776 5788.270 26943.479 5313.136 1596.650 3539.577 16373.673 8907.252 4257.973 17136.668 12436.709 20729.180 4492.232 27284.470 3466.823 5222.823 5580.116 26202.585 7907.140 3627.234 11045.348 4849.782 6725.051 3362.578 5639.611 17026.122 16121.695 7854.635 1573.489 25691.648 5093.626 4750.962 5620.893 1329.194 5738.714 5076.540 5259.356 25901.239 6624.026 14890.981 15636.652 3309.360 7480.582 6205.974 3644.369 17917.696 24859.862 3896.022 3330.194 4473.347 8594.127 10127.795 10359.904 4754.244 2141.160 13240.409 2362.234 2118.061 0.000 26319.766 3381.384 9550.799 10298.205 6940.657 7077.815 4313.087 4179.099 2221.606 4746.925 1211.087 1974.244 11853.754 8163.385 5354.766 4076.993 2568.705 4832.245
22948.789 21372.208 31842.905 21826.656 22474.609 22291.012 42481.388 22266.375 22482.560 29651.653 22260.072 23024.775 19103.819 23706.023 24207.816 23081.177 27264.339 25399.874 23802.845 23694.716 22675.166 23550.564 19094.422 24399.975 47346.401 25761.034 1464.797 21045.818 24576.576 23532.406 36541.298 18906.312 25023.102 10255.496 31333.018 40896.805 21913.362 47452.095 22865.995 22610.692 23217.298 417.904 19124.973 24483.379 27210.760 23255.501 21433.962 22822.457 22083.987 37193.747 36289.321 19231.549 24669.565 45859.274 22762.181 23742.708 21941.301 24798.777 28541.939 21009.328 21019.691 46068.864 21019.718 35244.759 35804.277 22769.238 19680.024 20592.123 23377.421 38085.321 6273.829 22728.190 23179.635 23011.885 22463.734 29379.283 29705.880 23806.559 24009.401 32347.616 23785.091 27341.527 25830.329 0.000 22777.559 18901.664 30585.460 19141.003 20045.650 22048.918 23081.869 23791.022 22884.568 26225.513 27737.940 31345.370 25073.131 22638.651 23902.250 23933.338 22447.840
3068.462 4618.853 12306.839 5156.126 6593.107 5036.780 23252.190 3678.914 3477.263 9959.107 3993.989 1932.246 4581.067 5084.606 1550.081 4505.809 8038.925 2633.243 2435.312 1244.414 4907.895 5050.911 4593.849 3552.913 28117.203 5014.542 23706.988 4892.688 1816.705 3333.836 17312.099 5525.868 5469.780 13900.177 12091.349 21667.606 4071.784 28222.897 412.837 4843.422 5201.701 22966.093 4525.756 4565.661 9377.263 4467.908 6309.249 2942.130 5234.293 17964.548 17060.122 4473.251 1907.556 26630.075 4715.210 4954.554 5215.575 2525.143 5922.738 4495.242 3144.665 26839.665 3272.348 14722.156 16575.079 2888.912 4099.198 2930.922 3228.568 18856.123 21623.371 3475.574 1218.691 4057.546 5414.477 9782.436 10014.544 4724.222 1351.667 12895.049 1334.790 4570.670 3378.996 23083.274 0.000 6169.415 9952.845 4618.251 3696.431 3181.375 3763.298 2369.168 4341.607 3458.882 5285.543 11508.394 6495.301 4976.350 4554.187 3031.837 4416.444
6434.002 2848.404 13319.101 7699.733 3988.602 7619.441 26775.196 6060.662 6015.472 11127.848 6307.194 6451.774 6058.151 8259.425 7488.515 7463.106 8740.535 8671.638 7284.144 7073.694 7524.910 8193.547 1841.657 7885.188 31640.209 7579.422 20021.119 7090.939 7855.099 7017.620 20835.105 679.278 9296.463 10214.308 12809.214 25190.612 6314.230 31745.903 6242.916 7460.437 8344.337 19280.225 1962.148 8158.374 8724.753 7219.738 8544.632 6307.670 7780.080 21487.554 20583.128 1721.761 7945.951 30153.081 7603.028 8129.875 7759.183 8280.076 10746.081 6563.341 4917.692 30362.671 3413.929 16720.955 20098.085 6254.452 2103.920 3471.309 6862.635 22379.129 17937.502 6224.470 6558.614 6716.554 3939.929 10855.478 11182.075 7899.543 7290.100 13823.812 7164.069 10609.065 9312.471 19397.406 6038.394 0.000 12061.656 6095.335 2469.023 5545.198 6578.149 7272.321 6939.271 9497.276 11220.082 12821.566 6549.327 7851.473 7995.235 7415.480 6934.885
12539.554 9817.758 3116.544 14627.218 11251.276 14507.872 32190.691 13150.006 12948.355 1750.873 13465.081 11443.963 14459.106 14273.407 10099.218 13976.901 3577.625 8972.847 11529.081 10324.974 14378.987 14522.003 12090.536 12491.414 37055.703 5577.004 31452.187 14363.780 9724.194 12678.301 26250.600 12414.067 14408.281 21645.376 3362.886 30606.107 13542.876 37161.397 10345.789 14314.514 14672.793 30711.293 12201.694 13504.162 8031.668 13939.000 15780.341 12413.222 14705.385 26903.049 25998.623 11969.938 9366.325 35568.576 14186.302 14143.355 14686.667 11332.498 6233.728 13966.334 12888.867 35778.166 9592.620 5016.328 25513.580 12360.004 12315.259 12664.468 12699.660 27794.623 29368.570 12946.666 10691.584 13528.638 8927.849 1864.447 2013.534 13913.024 10035.795 3383.779 10344.446 8725.263 10311.493 30828.474 9937.576 11808.653 0.000 14421.921 12415.745 12700.019 13234.390 11462.936 13812.699 9442.173 9275.695 1966.886 5669.858 14447.442 13647.955 12125.605 13887.536
3875.850 7585.391 16820.357 2741.855 9851.981 3206.212 23396.587 3191.665 3407.850 14472.624 3184.875 3956.583 37.184 4621.222 5209.781 3996.376 12552.443 6414.411 4729.906 4728.508 3590.365 4465.763 4279.224 5327.036 28261.600 9628.859 20066.965 1970.621 5586.148 4459.468 17456.497 5517.358 5938.301 10260.154 16604.866 21812.004 2838.165 28367.294 4211.558 3525.891 4132.498 19326.071 4130.313 5398.578 13928.014 4170.701 2466.365 3749.518 2999.186 18108.946 17204.520 4416.351 5712.664 26774.473 3677.381 4657.908 2856.500 5725.838 10083.085 1934.131 1946.503 26984.063 6569.364 19235.673 16719.477 3696.299 4145.300 3353.112 4304.482 19000.520 17983.348 3655.251 4219.395 3936.688 8676.916 14295.953 14528.061 4721.758 5043.193 17408.566 4818.883 8396.942 6757.390 19443.252 4614.317 6188.873 14466.362 0.000 3746.361 2975.979 4008.931 4718.083 3809.371 7163.158 8665.001 16021.912 11046.052 3553.851 4817.450 4860.400 3372.643
4130.268 3847.757 14073.979 5491.496 6114.348 5392.649 24471.462 3756.928 3711.738 11882.727 4003.460 4148.040 3851.295 5955.691 5184.781 5159.372 9408.648 6367.904 4980.409 4769.960 5280.829 5889.813 918.200 5581.454 29336.474 7461.680 20938.634 4884.083 5551.365 4713.886 18531.371 1851.955 6992.729 11131.823 13724.193 22886.878 4070.149 29442.168 3939.182 5216.356 6040.602 20197.740 850.107 5854.640 10247.147 4916.004 6337.775 4003.936 5571.843 19183.820 18279.394 797.602 5642.217 27849.347 5358.947 5826.141 5550.946 5976.342 9499.881 4356.485 2613.958 28058.937 2911.999 17109.529 17794.351 3950.717 423.549 1167.574 4558.901 20075.394 18855.017 3920.735 4254.879 4412.820 4939.282 11610.357 11936.954 5595.809 4986.366 14578.690 4860.335 8305.331 7008.737 20314.921 3734.660 2523.578 12340.219 3888.479 0.000 3241.464 4274.415 4968.586 4635.537 7193.542 8916.348 13576.444 7548.680 5615.711 5691.501 5111.746 4690.804
1174.958 6515.586 14779.249 3183.056 8782.177 3083.035 21822.926 1365.046 1164.493 12431.516 1679.981 1195.214 3104.104 3308.604 2448.412 2699.398 10511.335 3653.041 2026.461 2188.240 2963.967 3244.500 4114.244 2626.144 26687.939 7915.320 23069.742 2576.297 2824.779 1758.576 15882.836 5047.999 4333.945 13262.931 14563.759 20238.343 1756.277 26793.633 2498.482 2899.493 3395.289 22328.847 4046.151 3076.947 12214.939 2523.980 4064.039 1048.626 3263.403 16535.285 15630.859 3993.645 3075.986 25200.812 2908.799 3178.552 3242.505 3022.393 7907.793 2049.712 1385.618 25410.402 5437.147 17194.565 15145.815 995.408 3619.592 2322.096 1603.591 17426.859 20986.125 1163.529 2157.621 2020.795 7607.112 12254.845 12486.954 2948.220 2406.516 15367.459 2180.602 5829.533 4053.945 22446.028 2901.241 5719.622 12425.255 3066.919 3196.044 0.000 1727.171 2014.638 2312.059 4401.789 5961.556 13980.804 9332.976 3169.939 3022.041 2156.955 2376.933
1330.967 8045.170 15904.862 1560.833 10311.761 1460.132 20475.424 913.606 985.662 13557.129 726.782 2243.070 3830.176 1959.654 3471.742 1208.022 11636.948 4676.372 2557.608 3313.854 1338.195 1893.775 5150.413 2039.416 25340.437 9040.934 23801.230 1830.809 3848.110 1171.848 14535.334 6110.533 2996.692 13994.419 15689.372 18890.841 1012.468 25446.131 3624.095 1273.721 2044.565 23060.335 4992.405 2098.710 13340.552 898.208 2646.726 1709.357 1641.180 15187.783 14283.357 5056.179 4201.600 23853.310 1416.313 1830.103 1620.282 3486.119 9014.807 1891.118 2117.106 24062.900 6783.247 18320.178 13798.314 1656.139 4682.126 3739.259 1066.580 16079.357 21717.613 875.918 3283.234 395.023 9134.219 13380.458 13612.567 1599.772 3532.129 16493.072 3306.216 6475.016 4466.412 23177.516 4026.854 6782.156 13550.868 3792.991 4258.578 1834.633 0.000 2545.785 687.845 5136.873 6331.200 15106.417 10458.589 1677.340 1695.463 2167.756 753.921
1581.458 6650.078 13806.612 3668.724 8829.219 3549.379 20985.904 2191.910 1990.259 11458.879 2506.985 1048.232 4866.635 3222.653 1386.990 2992.250 9538.698 2494.902 73.944 1360.544 3395.322 3537.352 5887.137 1479.857 25850.917 6942.683 24832.272 3405.684 1747.340 1642.144 15045.814 6820.892 3418.399 15025.461 13591.122 19401.321 2584.779 25956.611 1965.464 3330.848 3688.142 24091.378 5819.044 2231.139 11681.921 2957.807 4821.848 1455.126 3746.892 15698.262 14793.836 5766.539 2244.968 24363.789 3201.651 2858.988 3728.174 1069.877 6908.066 3169.088 3148.149 24573.380 5303.573 16221.928 14308.793 1401.907 5392.486 4094.767 1741.167 16589.837 22748.655 1988.570 1624.603 2570.145 7650.589 11282.208 11514.317 2862.270 1575.497 14394.822 1270.169 3999.176 2214.594 24208.559 2368.223 7492.516 11452.618 4829.450 4968.937 2201.880 2275.897 0.000 2854.206 2646.107 4122.205 13008.167 8799.958 3462.792 2185.019 662.668 2929.043
1291.984 7972.823 15865.880 1376.293 10239.414 1275.592 20513.030 729.066 946.679 13518.147 542.242 2204.087 3645.636 1902.987 3432.760 1027.140 11597.966 4637.389 2518.626 3274.871 1157.313 1837.108 4965.873 2156.088 25378.043 9001.951 23616.690 1646.268 3809.127 1288.520 14572.940 6038.186 3201.852 13809.879 15650.389 18928.447 827.928 25483.737 3585.113 1092.840 1987.898 22875.795 4807.865 2331.222 13301.569 926.074 2462.186 1670.375 1456.640 15225.389 14320.963 4983.833 4162.617 23890.916 1235.432 1774.350 1435.742 3447.136 8975.825 1706.578 1932.566 24100.506 6744.264 18281.196 13835.919 1617.156 4609.780 3666.913 1133.535 16116.963 21533.073 836.936 3244.251 630.622 9064.348 13341.476 13573.584 1832.284 3493.147 16454.089 3267.233 6450.959 4427.429 22992.976 3987.872 6709.809 13511.885 3608.451 4186.231 1795.650 837.945 2506.803 0.000 5097.891 6335.040 15067.435 10419.607 1496.459 1927.975 2128.774 569.381
3833.403 7552.860 11796.014 5920.670 9527.114 5801.324 22796.476 4443.855 4242.204 9448.281 4758.930 3127.574 6915.718 5474.598 1710.277 5244.196 7528.100 485.219 2240.122 2200.369 5647.267 5789.297 7623.026 3097.199 27661.489 4932.085 26809.648 5657.629 1335.253 3894.090 16856.385 8551.185 5014.066 17002.837 11580.523 21211.892 4836.725 27767.183 3206.925 5582.794 5940.087 26068.754 7554.933 4109.947 10188.239 5209.753 7073.793 3707.071 5998.837 17508.834 16604.408 7502.428 1218.096 26174.361 5453.597 5110.933 5980.119 1938.283 4897.468 5307.836 5197.233 26383.951 6206.355 14211.330 16119.365 3653.853 7128.375 6033.583 3993.112 18400.409 24726.031 4240.515 3076.600 4822.090 7737.018 9271.610 9503.718 5114.215 1887.566 12384.223 2109.993 1810.552 874.179 26185.934 3120.689 9194.732 9442.019 6878.534 6817.120 4281.222 4527.842 2277.126 5106.151 0.000 2187.044 10997.569 7306.277 5714.737 4436.964 2914.614 5180.988
5334.725 9664.897 11542.385 7258.967 11603.535 7139.622 24071.233 5945.177 5743.526 9194.653 6151.513 5035.093 8823.656 6812.151 3807.310 6581.748 7357.471 2597.257 3993.476 4297.389 6984.820 7126.850 9735.064 4389.552 28936.245 4818.857 28789.294 7158.951 3441.021 5232.939 18131.142 10663.223 6103.788 18982.483 11326.895 22486.649 6338.047 29041.939 5311.603 6920.346 7277.640 28048.400 9666.971 5402.300 10944.021 6547.305 8418.413 5208.393 7337.134 18783.591 17879.165 9614.465 3328.499 27449.118 6791.149 6448.486 7318.416 3175.009 4139.594 6922.355 7105.171 27658.708 8318.392 13327.617 17394.122 5155.174 9240.412 8051.789 5337.731 19675.165 26705.677 5607.398 5174.974 6166.709 9291.155 9017.982 9250.090 6451.768 3985.940 12130.595 4207.014 823.067 1890.594 28165.581 5226.164 11306.769 9188.391 8786.472 8922.595 6158.902 5872.462 4067.421 6444.448 2163.958 0.000 10743.940 7454.220 7052.290 5774.517 4414.520 6525.607
14090.541 10438.134 1441.984 16178.204 11761.997 16058.859 33741.677 14700.993 14499.342 1989.936 15016.067 12994.949 16010.092 15824.393 11650.205 15527.887 4371.386 10523.833 13080.067 11875.960 15929.973 16072.989 13022.969 14042.400 38606.690 7127.990 32072.563 15914.767 11275.181 14229.287 27801.587 13034.443 15959.267 22265.752 2718.355 32157.094 15093.862 38712.384 11896.776 15865.500 16223.779 31331.669 13134.127 15055.148 8467.518 15489.986 17331.328 13964.209 16256.372 28454.035 27549.609 12902.371 10917.311 37119.562 15737.288 15694.341 16237.654 12883.484 7865.647 15517.320 14439.854 37329.153 10525.053 4794.583 27064.566 13910.990 13247.691 13741.184 14250.646 29345.610 29988.946 14497.652 12242.570 15079.624 9548.225 2375.726 2518.926 15464.010 11586.782 2124.587 11895.432 10276.249 11862.480 31448.850 11488.563 12429.029 1926.149 15972.908 13348.178 14251.005 14785.377 13013.923 15363.685 10993.159 10826.681 0.000 6290.234 15998.429 15198.942 13676.591 15438.522
9349.652 4489.057 7096.641 11437.315 6008.215 11317.970 29533.379 9960.104 9758.453 4905.388 10275.178 8213.435 10862.256 11365.795 7688.451 10786.998 2518.075 6736.228 8716.502 7525.604 11189.084 11332.100 7206.867 9834.102 34398.392 2606.445 26123.486 11173.878 7382.685 9615.026 23593.289 7085.365 11750.969 16316.675 6657.549 27948.796 10352.973 34504.086 6694.026 11124.611 11482.890 25382.592 7318.024 10846.850 4306.070 10749.097 12590.439 9223.320 11515.483 24245.738 23341.312 7086.268 6942.200 32911.265 10996.399 11235.743 11496.765 8806.332 5146.328 10776.431 9425.855 33120.855 4877.532 10498.495 22856.268 9170.101 7431.589 8093.663 9509.758 25137.312 24039.869 9756.764 7499.880 10338.735 3599.148 4633.018 4959.616 11005.412 7475.734 7601.352 7615.979 6915.725 8077.715 25499.772 6344.371 6479.951 5839.196 10899.441 7700.657 9462.565 10044.488 8650.358 10622.796 7208.395 7580.182 6599.106 0.000 11257.540 10835.376 9313.026 10697.634
2472.015 9114.329 16889.440 1111.610 11297.427 916.624 19842.737 2285.839 2409.169 14541.707 2099.016 3227.647 3832.743 1067.371 4456.320 731.749 12621.526 5660.950 3522.648 4298.431 713.259 911.913 6218.358 2914.645 24707.750 10025.511 23730.254 1991.663 4832.687 2067.764 13902.646 7456.492 2384.451 13923.443 16673.950 18258.153 1752.305 24813.444 4608.673 648.786 578.647 22989.360 6069.448 1953.927 14325.129 1118.281 2411.340 2709.532 820.913 14555.095 13650.669 6355.485 5186.177 23220.622 412.753 1104.057 996.965 4405.154 9999.385 2075.532 3486.832 23430.212 7767.824 19304.756 13165.626 2656.313 6048.826 5162.767 1962.495 15446.670 21646.637 2293.413 4267.811 1684.225 10118.797 14365.036 14597.144 1264.048 4516.707 17477.649 4290.793 7352.172 5385.447 23106.540 5011.432 8128.007 14535.445 3795.558 5625.278 3252.140 1797.847 3510.825 1556.908 6096.395 7208.355 16090.995 11443.167 0.000 1506.355 3131.191 1124.210
1737.060 8377.287 15850.725 1908.434 10560.384 1604.997 19432.174 1952.833 1751.619 13502.993 1766.010 2490.605 4629.567 1047.524 3409.115 817.121 11582.811 4613.744 2403.849 3372.479 1220.193 1362.223 5942.735 1797.830 24297.187 8986.797 24527.079 2788.488 3785.482 1116.605 13492.084 6876.490 1953.442 14720.268 15635.235 17847.591 2051.696 24402.881 3871.630 1155.719 1513.013 23786.184 5874.642 1211.527 13588.087 782.678 3208.165 1972.489 1617.738 14144.533 13240.107 5822.137 4260.225 22810.060 1026.522 787.251 1793.790 3288.340 8952.180 2872.357 3127.374 23019.650 7030.782 18266.042 12755.063 1919.270 5448.084 4505.217 1225.453 15036.107 22443.462 1616.249 3530.769 1351.084 9381.754 13326.322 13558.430 687.141 3590.754 16438.935 3292.294 6234.234 4268.633 23903.365 4274.389 7548.114 13496.731 4592.383 5024.535 2574.976 1140.297 2392.026 1223.767 4978.456 6090.417 15052.280 10706.125 1287.663 0.000 2012.392 1501.123
1385.499 7414.788 14640.954 3006.800 9593.929 2887.455 20323.236 2079.631 1877.980 12293.221 1893.047 1529.149 4971.366 2559.985 2218.538 2329.582 10373.040 3329.060 1051.090 2192.092 2732.653 2874.684 6000.283 888.625 25188.248 7777.025 24937.004 2997.078 2581.497 980.243 14383.145 6934.039 2825.469 15130.193 14425.464 18738.652 2178.733 25293.942 2730.174 2668.180 3025.473 24196.110 5932.190 1568.471 12446.631 2295.139 4159.946 1345.679 3084.968 15035.594 14131.168 5879.685 3076.515 23701.121 2538.983 2196.319 3066.250 1977.995 7742.408 3057.382 3252.881 23910.711 6068.283 17056.270 13646.125 1292.460 5505.632 4208.136 1079.265 15927.168 22853.387 1348.932 2389.313 1908.243 8415.299 12116.550 12348.659 2199.601 2407.045 15229.164 2101.717 4983.423 2958.288 24313.291 3132.933 7605.662 12286.960 4934.182 5082.084 2306.612 1613.995 1039.267 2192.282 3630.354 4842.160 13842.509 9564.669 2800.123 1522.350 0.000 2267.141
1811.606 8429.589 16246.352 827.165 10654.339 726.464 20526.952 1249.465 1467.214 13898.620 1062.642 2584.560 3389.228 1754.702 3813.232 1041.062 11978.438 5017.862 2896.747 3655.344 714.943 1599.243 5191.482 2292.245 25391.964 9382.424 23361.689 1388.758 4189.600 1424.676 14586.861 6429.616 3071.781 13554.878 16030.862 18942.368 715.932 25497.658 3965.585 650.470 1528.162 22620.795 5042.572 2348.447 13682.042 939.995 2089.282 2066.444 907.512 15239.310 14334.884 5328.609 4543.090 23904.837 830.633 1788.272 886.614 3817.466 9356.298 1450.208 2450.458 24114.427 7124.737 18661.669 13849.841 2013.226 5014.107 4184.804 1319.408 16130.884 21278.072 1357.471 3624.724 647.851 9475.709 13721.949 13954.057 1849.508 3873.619 16834.562 3647.706 6727.845 4797.759 22737.975 4368.344 7101.131 13892.358 3352.044 4590.559 2313.654 856.022 2884.924 520.535 5472.067 6584.028 15447.907 10800.080 949.515 1945.199 2505.413 0.000
NODE_COORD_SECTION
1 27567.380647 -311.862562
2 21720.339235 -2409.421625
3 22724.974895 -12595.029097
4 27928.917589 1558.435457
5 19582.344490 -2694.114315
6 28200.743123 1262.487987
7 38828.231545 11856.932752
8 27135.400867 360.586110
9 27161.261737 152.459480
10 22584.043814 -10378.199568
11 27402.801306 367.908953
12 27025.604802 -1089.953107
13 25607.406415 1788.115871
14 29346.423461 859.278355
15 27143.954009 -2428.957360
16 28466.501473 834.158070
17 22938.121683 -8225.204256
18 27296.890384 -3585.715310
19 27659.217973 -1440.885063
20 26890.033004 -2188.014757
21 28207.530144 962.696282
22 29300.221989 1093.065485
23 23169.655048 -239.752488
24 28622.625663 -1009.905598
25 33394.041210 15083.952312
26 24269.040924 -5902.080330
27 17452.866744 15697.268553
28 27188.256380 1551.639428
29 27195.973045 -2801.809607
30 28090.763563 -268.882736
31 38413.278540 6220.721145
32 22085.566096 -467.379640
33 29884.551591 -242.647260
34 21746.164591 8018.739685
35 21207.560420 -11436.443538
36 37810.714651 10557.121414
37 27329.666719 685.849907
38 33343.293475 15005.216995
39 26032.660769 -2193.554119
40 28271.166305 973.048146
41 29203.365749 1216.734302
42 18427.504327 15838.949320
43 23279.790117 -188.085604
44 29085.346784 -258.005679
45 20593.141732 -6689.767955
46 28324.348286 596.453371
47 27456.368684 2662.040853
48 27442.719656 -332.324126
49 28163.397969 1461.160268
50 38435.691307 6982.582219
51 38220.163224 6354.059053
52 23223.093852 -365.756421
53 27013.995501 -3117.893236
54 34750.674426 14667.280152
55 28504.124725 1010.989400
56 29256.720582 398.914578
57 28020.816155 1546.771434
58 28087.952077 -2018.350553
59 26712.723658 -7217.901238
60 26947.750804 1258.004426
61 26021.163413 113.305687
62 34541.649341 14782.822702
63 23027.572137 -2342.406560
64 26046.351677 -14311.645379
65 39039.572497 4939.638398
66 27343.250560 -307.104312
67 23511.376911 -381.532100
68 24821.386307 -312.569542
69 27917.490358 -183.818483
70 38283.780310 8030.819467
71 15870.746383 13414.917178
72 27567.761554 -43.990793
73 26702.547130 -1842.116571
74 27934.966675 309.948962
75 21624.889938 -3412.476845
76 22594.480429 -10137.198571
77 22285.185588 -10160.870936
78 28918.378940 602.524380
79 26960.147623 -2450.593907
80 23005.436467 -13217.152176
81 26980.121485 -2180.838716
82 28094.771952 -4980.315812
83 28314.622293 -3198.103167
84 18558.110903 15853.006480
85 25772.700966 -2491.243102
86 21553.927040 -512.874100
87 23631.235394 -10931.085856
88 25644.112806 1794.057231
89 23934.174484 -356.484390
90 26833.243226 -166.377428
91 27889.072210 302.767581
92 27607.017135 -1433.201857
93 27854.927745 478.054450
94 27774.116939 -3555.040742
95 28615.144198 -4884.137884
96 22868.125693 -11819.875103
97 22149.206578 -6295.165666
98 28647.340185 1137.230541
99 28754.505777 117.099332
100 28074.817409 -963.863912
101 27910.377166 859.836616
DEMAND_SECTION
1 0
2 2
3 10
4 10
5 4
6 1
7 7
8 5
9 6
10 56
11 76
12 2
13 57
14 6
15 2
16 8
17 5
18 8
19 7
20 2
21 88
22 6
23 7
24 2
25 8
26 8
27 5
28 4
29 7
30 4
31 1
32 3
33 3
34 6
35 8
36 6
37 1
38 10
39 1
40 8
41 10
42 6
43 2
44 4
45 1
46 8
47 6
48 9
49 2
50 10
51 1
52 10
53 1
54 9
55 10
56 6
57 62
58 7
59 7
60 9
61 5
62 72
63 1
64 7
65 3
66 3
67 9
68 10
69 81
70 4
71 1
72 5
73 9
74 85
75 1
76 6
77 1
78 10
79 3
80 5
81 3
82 10
83 62
84 6
85 9
86 4
87 1
88 76
89 2
90 4
91 10
92 7
93 2
94 6
95 6
96 7
97 8
98 8
99 5
100 4
101 8
DEPOT_SECTION
1
-1
EOF
