NAME : poryos-lyon-n100-hyb
COMMENT : Poryos2026 fastest metric; city lyon; 3-decimal seconds/meters; ENU ref in poryos-lyon-n100-hyb.vrp.json
TYPE : CVRP
DIMENSION : 101
EDGE_WEIGHT_TYPE : EXPLICIT
EDGE_WEIGHT_FORMAT : FULL_MATRIX
CAPACITY : 166
EDGE_WEIGHT_SECTION
0.000 320.139 255.992 242.278 260.195 65.513 197.190 199.544 335.045 282.289 165.553 237.309 59.470 117.501 298.146 189.152 65.331 132.764 177.749 89.979 259.076 174.245 260.332 97.582 165.084 310.357 100.775 278.422 101.663 181.521 122.740 129.464 79.742 272.220 135.363 200.050 145.704 178.796 117.074 90.006 161.842 91.495 193.616 162.458 207.577 92.272 148.506 139.912 247.096 204.059 155.973 315.468 222.154 271.407 208.031 298.069 346.402 224.707 363.988 214.927 310.592 165.763 186.749 206.440 227.474 371.373 169.947 308.392 276.758 346.102 398.818 234.344 92.399 335.904 283.077 274.253 121.120 389.272 292.758 312.186 254.870 269.577 315.582 273.912 219.715 336.578 191.037 261.534 277.658 285.655 307.991 211.018 194.248 307.433 152.173 275.553 377.208 205.026 329.795 267.194 253.290
358.435 0.000 282.475 270.854 457.478 377.606 524.650 527.004 662.505 579.492 484.762 537.220 386.930 416.793 314.647 516.612 301.107 460.224 343.846 359.266 261.818 433.763 496.107 315.887 484.292 505.291 429.781 514.198 384.827 417.296 450.200 388.981 395.281 599.680 446.139 459.568 405.221 344.893 442.711 415.643 489.303 351.013 364.624 398.233 535.037 404.365 408.024 465.549 505.190 365.228 391.748 256.163 393.162 560.921 443.806 392.220 582.177 552.168 599.764 542.387 449.147 425.281 422.525 378.973 554.934 566.307 268.227 615.796 604.218 52.209 198.099 260.826 421.406 551.379 610.537 478.073 448.580 483.423 524.581 221.555 392.930 505.353 617.738 581.315 319.409 60.381 518.497 76.558 559.796 578.889 635.451 470.536 357.549 201.498 188.664 600.476 581.027 532.486 451.244 166.742 164.053
279.313 292.793 0.000 375.647 211.310 272.718 347.178 355.276 471.814 361.314 410.528 462.986 284.330 342.559 431.515 344.883 226.873 326.503 125.668 285.033 285.458 226.344 421.874 250.994 410.059 471.899 350.660 439.964 310.593 343.062 331.869 275.245 321.047 471.608 361.854 351.606 264.061 126.714 343.565 339.891 315.231 239.754 354.413 323.999 353.382 299.478 249.686 366.403 430.956 337.381 317.515 106.177 382.951 342.743 369.572 147.229 507.944 371.447 525.530 414.316 202.980 268.154 348.291 132.806 363.052 532.914 303.317 423.202 423.498 318.756 464.646 25.360 342.284 333.201 429.817 435.795 301.798 238.432 454.300 355.410 146.762 431.119 514.971 388.722 76.113 277.693 336.843 234.189 485.563 360.711 444.959 329.376 114.253 165.237 182.417 382.298 538.749 350.831 206.253 148.370 129.642
236.695 272.900 377.052 0.000 466.608 273.170 404.848 407.202 542.702 489.947 369.188 421.646 267.128 301.219 168.098 396.810 185.533 340.422 365.131 243.693 382.471 380.658 380.534 241.524 368.719 309.718 308.041 398.624 269.253 301.722 330.398 335.877 279.707 479.877 330.566 406.464 352.117 366.178 324.340 297.273 369.500 297.908 169.051 224.398 415.235 299.930 354.920 347.178 389.616 169.655 222.900 436.528 197.589 479.064 328.232 419.129 425.759 432.365 443.346 422.585 491.499 372.176 306.951 412.796 435.132 370.733 72.654 516.050 484.416 233.400 234.739 355.404 299.666 542.318 490.734 282.499 328.777 510.332 329.008 302.449 448.398 389.779 502.165 481.569 366.929 305.603 398.695 321.780 444.223 493.313 515.648 417.431 384.639 430.829 275.569 483.211 385.453 412.683 478.153 390.589 376.686
237.779 426.012 206.736 436.696 0.000 226.531 300.990 309.088 368.346 246.070 399.584 417.612 238.142 353.753 492.563 298.696 286.526 280.315 89.018 326.231 364.949 178.287 481.527 271.727 399.115 531.552 333.100 499.617 335.693 402.716 285.681 220.566 315.993 425.420 315.667 296.927 216.005 90.065 297.377 308.043 269.044 185.075 414.066 383.653 277.406 253.290 195.007 320.216 481.126 398.429 377.168 273.509 442.604 227.499 429.226 224.236 567.597 325.260 585.183 368.128 172.758 220.097 407.944 100.059 259.584 592.568 364.365 307.957 365.366 451.975 593.236 191.953 319.890 217.956 371.685 495.448 255.610 304.240 513.953 439.061 117.035 490.772 468.783 273.477 130.985 442.451 290.655 367.407 457.962 245.467 329.715 281.319 105.517 331.007 258.046 267.053 598.403 242.848 191.960 314.140 295.412
81.565 364.777 299.577 297.306 264.304 0.000 200.589 208.687 335.196 282.440 245.592 277.541 82.340 197.539 353.173 198.295 145.370 155.634 181.859 170.017 303.714 144.508 340.370 142.221 245.123 390.395 177.298 358.460 181.701 261.559 145.610 99.726 159.780 295.089 175.596 153.675 115.966 182.906 157.306 162.984 168.642 61.758 273.654 242.496 207.728 63.295 118.769 180.145 327.134 259.087 236.011 360.106 302.192 271.558 288.069 317.077 426.440 224.859 444.027 237.797 314.702 136.026 266.788 210.550 227.625 451.411 224.975 308.543 276.909 390.740 453.846 278.982 164.088 340.014 283.228 354.292 143.989 408.280 372.797 356.825 258.980 349.616 338.452 274.063 223.825 381.216 191.188 306.173 317.891 285.806 308.142 181.281 198.357 352.072 196.811 275.704 457.246 205.177 333.905 311.832 297.928
111.692 430.304 366.157 327.433 351.249 147.552 0.000 123.523 328.771 271.733 181.589 199.617 91.926 180.682 383.300 113.130 156.958 62.320 269.184 155.752 369.241 284.410 278.327 202.597 181.120 335.313 136.004 296.418 117.698 199.516 67.686 214.837 145.515 207.426 97.672 301.227 255.869 270.231 79.383 90.049 85.479 201.660 285.242 241.768 213.541 174.312 258.671 102.221 263.132 289.214 235.283 425.633 313.780 263.426 226.026 404.402 364.397 187.494 381.984 150.133 401.646 275.928 211.705 298.899 221.200 396.328 255.102 364.546 254.877 456.267 483.973 344.509 173.674 368.135 265.791 299.209 37.616 495.605 317.714 422.352 345.924 287.573 250.788 330.065 311.151 446.743 247.191 371.699 239.967 275.099 297.038 268.114 285.683 417.599 262.338 264.997 402.163 261.179 420.849 377.359 363.455
153.497 472.108 325.710 369.237 290.057 143.613 125.550 0.000 245.303 188.265 219.438 183.658 133.730 223.236 425.105 50.658 198.762 93.987 207.992 198.307 411.046 250.345 320.881 244.402 218.969 377.867 178.559 338.972 160.253 242.070 103.147 179.536 188.069 165.977 104.403 282.074 221.804 209.039 121.571 132.603 24.287 184.482 327.047 284.322 130.073 170.372 244.635 134.158 297.876 331.018 277.837 392.483 355.585 179.958 268.580 343.210 406.951 95.817 424.538 98.154 340.454 231.267 254.259 237.707 137.732 438.882 296.906 284.806 163.200 498.072 525.777 310.927 215.479 284.667 182.323 341.763 80.170 434.413 360.268 464.156 284.732 330.127 209.340 250.326 249.959 488.548 185.999 413.504 224.007 191.631 213.570 206.922 224.491 449.982 304.143 181.529 444.717 199.988 359.657 419.163 405.260
337.629 656.241 484.213 553.370 328.181 326.381 348.002 286.783 0.000 221.923 442.840 407.060 335.620 445.689 609.237 276.391 400.652 316.439 407.397 420.759 595.178 389.478 543.334 428.534 442.371 600.319 401.011 561.424 382.705 464.523 325.599 361.398 410.521 410.789 327.805 464.842 360.937 408.444 344.389 355.055 246.739 366.344 528.937 497.779 163.629 353.141 426.497 357.560 521.279 515.151 491.294 551.316 557.475 213.616 491.032 518.428 629.404 243.855 646.990 353.496 446.797 370.400 476.711 387.241 114.664 661.335 481.039 318.464 273.010 682.204 709.910 469.760 417.369 318.325 248.666 564.215 302.622 578.280 582.720 648.289 390.580 552.579 454.151 283.984 441.556 672.680 325.132 597.637 447.410 225.289 165.661 346.054 417.304 608.815 488.275 191.185 667.170 290.446 466.000 591.948 573.219
274.029 589.779 370.503 489.769 288.808 262.781 284.402 223.183 224.746 0.000 379.240 343.460 272.020 382.088 545.637 212.791 337.052 252.839 252.785 357.158 528.716 248.105 479.733 364.934 378.771 536.719 337.410 497.824 319.105 400.922 261.999 297.798 346.921 347.188 264.205 401.242 219.564 253.832 280.789 291.455 183.139 302.744 465.337 434.178 100.029 289.541 341.559 293.960 457.678 451.550 427.693 437.276 493.875 37.048 427.432 388.003 565.803 180.255 583.390 289.896 348.211 229.027 413.111 263.826 148.584 597.734 417.439 141.896 209.409 615.742 646.309 355.720 353.768 141.757 215.728 500.615 239.022 479.206 519.120 584.688 292.489 488.979 390.551 107.416 294.752 606.218 182.719 531.175 383.810 7.181 102.866 227.719 269.284 494.775 421.813 40.205 603.569 130.228 367.414 477.908 459.179
172.493 466.427 400.968 363.516 406.482 208.968 249.643 202.459 407.707 350.669 0.000 82.848 170.322 184.611 419.383 192.066 186.569 135.679 324.037 163.664 405.364 320.533 151.189 238.680 2.440 300.053 168.081 169.279 121.627 72.378 153.205 275.752 154.697 211.795 103.371 346.338 291.992 325.084 121.660 152.999 164.757 237.783 314.854 245.696 292.477 235.728 294.794 134.247 84.452 325.297 239.212 460.443 325.700 342.362 199.538 443.044 237.259 266.430 254.846 208.613 456.880 312.051 200.045 352.728 300.136 361.069 291.185 443.824 333.813 492.390 520.056 379.319 191.352 447.071 344.727 263.950 204.263 534.247 273.750 458.474 401.158 200.174 192.054 409.343 366.003 482.866 326.469 407.822 117.874 354.035 375.974 347.392 340.535 453.721 298.461 343.933 366.904 340.458 476.083 413.481 399.578
205.644 499.578 434.119 396.667 439.634 242.120 260.309 213.124 418.373 361.335 97.204 0.000 203.473 223.016 452.534 202.732 219.720 146.345 357.188 198.086 438.515 353.684 226.108 271.831 96.735 358.110 201.232 244.198 160.032 147.297 163.871 308.903 187.848 128.948 114.037 379.489 325.143 358.235 132.326 186.150 175.423 270.934 348.005 284.101 303.143 268.879 327.945 144.913 155.131 358.448 277.616 493.594 365.643 353.028 257.406 476.195 307.608 277.096 325.195 125.765 490.031 345.202 254.038 385.879 310.802 419.126 324.336 454.490 344.479 525.541 553.207 412.471 224.503 457.737 334.494 322.007 214.929 567.399 337.456 491.625 434.309 263.880 128.242 420.009 399.154 516.017 337.135 440.973 81.262 364.701 386.640 358.058 373.687 486.872 331.612 354.599 424.961 351.123 509.234 446.633 432.729
19.766 338.378 274.232 235.507 264.936 55.627 187.304 189.658 325.159 272.403 183.793 244.786 0.000 135.741 291.374 179.266 83.571 122.878 182.871 108.218 277.315 192.484 278.571 110.672 183.324 328.596 119.014 296.662 119.902 199.760 112.854 122.912 97.981 262.334 142.840 209.301 163.943 183.918 124.551 108.246 151.957 109.734 211.856 180.697 197.691 82.386 166.746 147.389 265.336 197.288 174.212 333.707 240.394 261.521 226.270 316.308 364.641 214.822 382.228 205.041 315.333 184.003 204.989 212.586 217.588 389.612 163.176 298.506 266.872 364.341 392.047 252.583 110.639 331.630 273.191 292.493 111.234 407.511 310.998 330.426 259.611 287.817 305.697 264.026 224.837 354.817 181.151 279.774 285.136 275.769 298.105 202.074 199.370 325.673 170.412 265.667 395.447 195.140 334.536 285.433 271.530
133.419 405.648 339.564 302.112 367.409 169.895 247.573 249.927 439.427 386.672 177.459 257.398 131.248 0.000 357.980 239.535 125.166 183.147 284.963 64.424 344.585 281.459 270.530 177.277 176.990 326.126 129.007 288.620 108.511 191.719 173.123 236.678 80.978 322.603 159.282 307.265 252.918 286.010 140.993 113.926 212.225 198.709 253.450 193.609 311.959 196.654 255.721 163.831 259.002 263.893 187.124 399.040 275.151 375.789 218.229 381.641 356.600 313.898 374.187 265.310 417.806 272.978 202.518 313.654 331.856 387.141 229.782 412.774 378.809 431.611 458.652 317.916 152.278 443.119 385.127 290.022 171.503 472.844 308.527 397.696 362.084 279.775 341.746 378.294 326.930 422.087 295.420 347.044 292.424 390.037 412.373 316.342 301.462 392.943 237.682 379.936 392.976 309.408 437.009 352.703 338.799
316.213 362.442 456.570 219.061 546.126 352.689 484.366 486.720 622.221 569.465 448.706 501.165 346.646 380.737 0.000 476.328 265.051 419.940 444.649 323.211 379.699 460.176 460.052 321.042 448.237 389.236 387.560 478.142 348.771 381.241 409.916 415.395 359.226 559.396 410.084 485.982 431.635 445.696 403.858 376.791 449.018 377.426 248.569 303.916 494.753 379.448 434.438 426.697 469.134 249.173 302.418 497.228 277.107 558.583 407.751 498.647 505.278 511.883 522.864 502.103 571.017 451.695 386.469 492.314 514.650 450.251 152.172 595.568 563.934 322.942 326.940 434.922 379.184 621.836 570.253 362.017 408.296 589.850 408.526 276.935 527.917 469.297 581.683 561.088 446.447 395.145 478.213 378.304 523.741 572.831 595.167 496.950 464.157 437.273 330.764 562.729 464.972 492.202 557.671 402.516 394.352
163.889 482.501 336.102 379.629 300.449 154.005 135.942 10.392 255.695 198.657 229.830 194.050 144.122 233.629 435.497 0.000 209.155 104.379 218.384 208.699 421.438 260.737 331.274 254.794 229.361 388.259 188.951 349.364 170.645 252.462 113.539 189.928 198.461 176.370 114.795 292.466 232.196 219.431 131.963 142.995 34.679 194.874 337.439 294.714 140.465 180.764 255.027 144.550 308.269 341.410 288.229 402.875 365.977 190.350 278.972 353.602 417.344 106.209 434.930 108.546 350.847 241.659 264.651 248.099 148.124 449.275 307.299 295.198 173.592 508.464 536.169 321.319 225.871 295.059 192.715 352.155 90.562 444.805 370.660 474.548 295.124 340.519 219.732 260.718 260.351 498.940 196.391 423.896 234.400 202.023 223.962 217.314 234.883 460.374 314.535 191.921 455.110 210.380 370.049 429.556 415.652
107.644 325.858 259.774 220.324 341.235 144.120 248.184 244.120 413.652 360.897 183.655 236.113 131.859 115.686 276.192 233.728 0.000 177.340 247.854 58.159 264.795 255.285 195.000 119.589 183.186 245.026 129.618 213.091 83.720 116.189 173.734 210.504 94.174 317.337 145.033 281.090 226.744 248.901 141.604 114.536 206.418 172.535 162.237 97.126 286.184 170.879 229.546 164.442 204.083 196.482 90.641 319.250 178.668 350.014 142.699 301.851 281.070 303.315 298.657 265.153 374.221 246.803 121.418 287.480 306.081 306.041 147.994 386.999 355.365 351.821 376.864 238.126 152.889 416.944 361.684 208.922 172.113 393.054 227.427 317.906 331.121 204.246 316.631 352.519 249.651 342.297 269.644 267.254 258.690 364.262 386.598 290.567 267.361 313.153 157.892 354.160 311.876 283.633 360.876 272.913 259.009
128.246 446.858 334.162 343.987 298.509 152.065 117.625 70.441 275.689 218.651 182.951 147.170 108.480 197.237 399.854 60.049 173.512 0.000 216.445 172.307 385.795 258.797 294.882 219.152 182.482 351.867 152.559 312.972 134.253 216.070 20.098 187.988 162.069 150.899 67.915 290.526 230.256 217.491 85.084 106.603 32.739 192.934 301.797 258.322 160.459 178.824 253.087 97.671 261.389 305.768 251.837 400.935 330.335 210.344 242.580 351.662 380.952 134.412 398.538 93.607 348.907 239.719 228.259 246.159 168.118 412.883 271.656 311.806 201.795 472.821 500.527 319.379 190.228 315.053 212.709 315.763 72.246 442.865 334.268 438.906 293.184 304.127 194.262 277.326 258.411 463.297 194.451 388.254 187.520 222.017 243.956 215.374 232.943 434.153 278.892 211.915 418.718 208.440 368.109 393.913 380.010
182.926 364.636 171.752 376.076 136.480 171.678 246.137 254.235 379.809 248.503 344.731 362.759 183.289 298.900 431.944 243.843 227.302 225.462 0.000 271.378 303.573 125.303 422.302 225.366 344.262 472.328 278.247 440.393 280.840 343.491 230.828 174.204 261.140 370.567 260.814 250.566 163.021 1.047 242.524 253.190 214.191 138.714 354.842 324.428 252.342 198.437 148.645 265.363 426.273 337.810 317.943 238.525 383.380 229.932 370.001 189.252 508.372 270.407 525.959 313.275 186.877 167.113 348.720 82.725 272.239 533.343 303.746 310.391 322.458 390.599 532.616 156.969 265.037 220.389 328.776 436.224 200.757 280.455 454.729 377.685 131.155 431.548 413.930 275.910 96.001 381.075 235.802 306.032 403.109 247.900 332.148 228.335 70.533 296.024 196.670 269.486 539.178 245.281 206.080 279.156 260.428
126.079 398.308 332.225 294.773 360.069 162.555 240.233 242.587 432.087 379.332 165.480 245.419 123.908 79.967 350.640 232.195 117.826 175.807 277.623 0.000 337.245 274.119 248.007 169.937 165.011 303.602 121.667 266.097 85.988 169.195 165.783 229.338 58.455 315.263 151.797 299.925 245.578 278.670 133.653 106.586 204.885 191.369 246.110 176.743 304.619 189.314 248.381 156.491 247.023 256.554 170.259 391.700 258.285 368.449 195.705 374.301 334.077 306.558 351.663 257.970 410.466 265.638 179.995 306.314 324.516 364.618 222.442 405.434 371.469 424.271 451.312 310.576 144.938 435.779 377.787 267.499 164.163 465.504 286.004 390.356 354.744 257.252 334.406 370.954 319.590 414.747 288.080 339.704 280.445 382.697 405.033 309.002 294.122 385.603 230.342 372.596 370.453 302.068 429.669 345.363 331.459
210.974 212.006 195.819 307.308 323.895 230.145 377.189 379.544 515.044 434.869 337.301 389.759 239.469 269.332 363.175 369.151 153.646 312.764 199.223 211.805 0.000 286.302 348.646 168.426 336.832 398.671 282.320 366.737 237.366 269.835 302.740 241.521 247.820 452.219 298.679 312.107 257.761 200.269 295.250 268.182 341.842 203.552 281.186 250.772 387.576 256.905 260.563 318.088 357.729 269.041 244.287 229.204 309.724 416.298 296.345 299.440 434.716 404.707 452.303 394.927 341.374 277.820 275.064 249.554 407.473 459.687 234.977 468.335 456.758 237.970 383.859 174.171 273.945 406.756 463.076 362.568 301.119 390.643 381.073 239.855 285.157 357.892 470.277 433.855 203.687 228.446 371.037 153.402 412.336 434.266 487.990 323.075 218.730 199.301 44.041 455.553 465.522 385.025 358.465 159.061 145.158
208.530 484.147 282.743 424.270 212.739 197.282 281.599 289.697 370.654 219.623 372.556 398.221 209.304 324.504 480.138 279.304 272.334 260.924 165.025 296.982 423.084 0.000 467.335 261.591 372.087 517.360 304.263 485.425 308.666 388.524 266.290 160.343 286.744 406.029 296.275 286.791 37.717 166.072 277.986 288.652 249.652 137.023 400.619 369.460 243.186 224.042 187.751 300.824 454.099 386.052 362.976 349.516 429.157 201.051 415.034 300.243 553.405 297.576 570.991 348.737 263.136 41.810 393.752 178.750 263.083 578.376 351.940 238.037 318.116 510.110 580.810 267.960 291.053 279.433 324.434 481.256 236.219 391.446 499.761 476.195 207.414 476.580 449.392 203.556 206.992 500.586 152.621 425.543 438.571 219.020 303.267 103.032 181.524 407.015 316.181 240.606 584.211 162.474 282.339 390.148 371.419
252.023 511.110 445.027 406.571 486.012 288.498 329.456 282.272 487.520 430.482 160.911 200.175 249.852 232.413 462.439 271.880 230.628 215.492 403.567 194.397 450.047 400.063 0.000 282.739 160.442 177.016 247.611 38.426 147.064 71.846 233.018 355.282 207.344 329.123 183.184 425.868 371.522 404.614 201.474 232.529 244.570 317.313 335.541 276.429 372.290 315.258 374.324 214.061 136.423 369.356 269.945 504.502 241.552 422.175 209.552 487.103 97.694 346.243 115.281 303.305 536.410 391.581 210.059 432.258 379.949 238.031 334.240 523.637 413.626 537.073 563.111 423.379 270.882 526.884 424.540 135.527 284.077 578.307 139.394 503.158 480.688 98.973 300.036 489.157 434.904 527.549 406.282 452.506 214.346 433.848 455.787 427.205 420.065 498.405 343.145 423.746 243.866 420.271 546.128 458.165 444.262
122.533 273.539 209.393 218.867 296.613 154.506 290.686 293.040 428.540 374.282 248.859 301.318 152.966 180.891 274.734 282.648 65.205 226.260 197.472 123.364 212.476 210.663 260.205 0.000 248.390 310.230 193.879 278.295 148.925 181.394 216.236 165.882 159.379 365.715 210.237 236.468 182.122 198.519 206.808 179.741 255.338 127.913 192.745 162.331 301.072 181.266 184.924 229.647 269.288 180.600 155.846 268.868 221.283 355.711 207.904 251.469 346.275 318.203 363.862 308.423 323.839 202.181 186.623 242.858 320.969 371.246 146.536 392.696 370.254 299.502 375.407 187.744 185.504 372.323 376.572 274.127 214.615 342.672 292.632 265.587 280.739 269.451 381.836 358.216 199.269 289.978 284.533 214.935 323.894 373.679 401.486 247.436 216.979 260.834 105.573 369.049 377.081 298.521 310.494 220.594 206.691
170.053 463.987 398.528 361.076 404.043 206.529 247.203 200.019 405.267 348.229 49.143 80.408 167.882 182.171 416.943 189.626 184.129 133.239 321.597 161.225 402.924 318.093 148.749 236.240 0.000 297.613 165.641 166.840 119.187 69.938 150.765 273.312 152.257 209.356 100.931 343.898 289.552 322.644 119.220 150.559 162.317 235.343 312.414 243.257 290.037 233.288 292.354 131.807 82.012 322.857 236.772 458.003 323.260 339.922 197.098 440.604 234.819 263.990 252.406 206.173 454.440 309.611 197.605 350.288 297.696 358.629 288.745 441.384 331.373 489.950 517.616 376.880 188.912 444.631 342.287 261.510 201.823 531.808 271.310 456.034 398.718 197.734 189.615 406.903 363.563 480.426 324.029 405.382 115.434 351.595 373.534 344.952 338.096 451.281 296.021 341.493 364.464 338.018 473.643 411.042 397.138
308.808 506.031 492.146 311.331 542.399 345.284 425.873 378.688 583.936 526.899 312.356 351.620 318.594 284.958 367.198 368.296 277.444 311.908 459.953 244.894 497.166 456.449 190.409 333.236 311.887 0.000 316.353 189.585 221.588 223.291 329.435 411.668 259.888 451.905 279.601 482.254 427.908 461.000 297.890 301.271 340.986 373.699 240.300 204.427 468.707 372.043 430.710 310.477 282.790 287.488 210.912 551.621 146.311 518.592 207.592 534.222 186.213 442.659 203.800 399.721 592.796 447.967 204.995 488.644 476.366 68.712 239.000 588.163 510.042 466.531 467.870 470.498 339.624 618.109 520.957 42.589 358.848 625.425 89.701 469.575 537.074 178.445 430.227 553.683 482.023 538.734 470.809 499.625 351.178 530.264 552.204 491.731 476.452 545.524 390.263 520.163 106.296 484.797 593.247 505.284 491.381
67.929 386.541 322.394 283.669 313.098 103.789 164.487 166.841 369.923 315.052 187.326 205.355 48.163 157.135 339.537 156.449 113.195 100.061 231.034 129.612 325.478 240.647 284.065 158.834 186.857 341.050 0.000 302.155 123.436 205.254 90.037 171.074 119.375 239.517 103.410 257.464 212.106 232.080 85.120 60.784 129.140 157.897 241.479 210.321 242.455 130.549 214.908 107.958 268.869 245.450 203.836 381.870 270.017 306.252 231.764 364.471 370.135 230.812 387.721 182.224 363.496 232.165 217.442 260.748 262.352 402.066 211.339 343.237 295.723 412.504 440.209 300.746 63.260 379.792 302.042 304.947 88.417 455.674 323.452 378.588 307.773 293.310 282.880 308.756 273.000 402.980 225.882 327.936 245.705 318.418 340.357 246.805 247.532 373.835 218.575 308.316 407.901 239.871 382.698 333.596 319.692
278.630 537.718 471.634 414.312 512.620 315.106 356.064 308.879 514.128 457.090 187.518 222.520 276.459 259.021 470.179 298.487 257.236 242.100 430.174 221.005 476.655 426.670 36.631 309.347 187.049 184.756 274.218 0.000 173.671 98.453 259.626 381.889 233.952 351.468 209.792 452.476 398.129 431.221 228.081 259.137 271.178 343.920 343.282 303.037 398.898 341.866 400.932 240.668 129.867 390.470 296.552 531.110 249.293 448.783 236.160 513.711 105.597 372.851 123.183 329.912 563.017 418.189 236.667 458.865 406.557 245.772 341.981 550.245 440.234 563.681 570.852 449.986 297.490 553.492 451.148 143.268 310.684 604.914 147.135 529.766 507.295 130.316 285.949 515.764 461.511 554.157 432.890 479.113 205.605 460.456 482.395 453.813 446.673 525.012 369.752 450.354 251.607 446.878 572.735 484.773 470.869
111.248 364.047 297.963 260.511 344.838 147.723 237.358 204.502 409.750 352.712 119.097 199.036 121.034 85.350 316.379 194.109 83.564 137.722 262.393 47.334 302.984 258.888 162.018 135.676 118.628 222.911 118.793 180.109 0.000 83.207 155.248 214.107 60.280 282.827 105.414 284.694 230.347 263.439 123.703 103.711 166.800 176.139 201.528 129.366 289.788 174.483 233.150 136.290 171.101 222.292 122.881 357.439 210.908 344.405 109.717 340.040 248.088 268.473 265.675 225.535 395.236 250.407 99.303 291.084 302.179 283.927 188.180 390.603 335.856 390.010 417.051 276.315 142.064 420.548 346.770 186.807 161.288 431.243 205.312 356.094 339.513 171.264 283.528 356.122 287.840 380.486 273.248 305.442 225.708 356.078 378.017 294.171 278.891 351.341 196.081 345.976 289.761 287.237 399.064 311.102 297.198
180.177 439.264 373.181 335.729 414.167 216.653 257.611 210.426 415.674 358.636 89.065 128.329 178.006 160.568 391.596 200.034 158.782 143.646 331.721 122.552 378.202 328.217 78.811 210.894 88.596 238.222 175.765 96.902 75.218 0.000 161.173 283.436 135.498 257.277 111.338 354.022 299.676 332.768 129.628 160.683 172.724 245.467 276.746 204.584 300.445 243.412 302.478 142.215 87.894 297.510 198.099 432.657 263.869 350.329 137.706 415.258 164.881 274.397 182.468 231.459 464.564 319.735 138.214 360.412 308.103 299.238 263.398 451.791 341.780 465.228 492.269 351.533 199.036 455.039 352.695 197.505 212.231 506.461 201.372 431.312 408.842 127.796 228.191 417.311 363.058 455.704 334.437 380.660 142.500 362.002 383.942 355.359 348.220 426.559 271.299 351.900 305.073 348.425 474.282 386.319 372.416
111.667 430.279 366.132 327.407 334.652 147.527 153.768 106.584 311.832 254.794 181.564 155.222 91.901 180.657 383.275 96.191 156.933 39.804 252.587 155.727 369.216 284.385 278.302 202.572 181.095 335.287 135.979 296.393 117.673 199.491 0.000 214.812 145.490 179.259 53.277 301.202 255.844 253.634 69.135 90.024 68.882 201.635 285.217 241.742 196.602 174.287 258.646 81.722 263.106 289.189 235.258 425.608 313.755 246.487 226.001 387.805 364.372 170.555 381.959 121.967 385.049 275.862 211.680 282.302 204.261 396.303 255.077 347.949 237.938 456.242 483.947 344.484 173.649 351.196 248.852 299.184 106.971 479.008 317.689 422.326 329.327 287.548 222.622 313.469 294.554 446.718 230.594 371.674 195.572 258.160 280.099 251.517 269.086 417.573 262.313 248.058 402.138 244.583 404.252 377.334 363.430
98.423 410.635 301.156 314.164 265.503 87.175 191.119 199.217 325.726 272.970 262.449 294.399 99.197 214.397 370.031 188.825 162.228 170.444 183.438 186.875 349.572 131.613 357.228 188.079 261.980 407.253 194.156 375.318 198.559 278.417 162.468 0.000 176.638 311.947 192.454 213.279 103.071 184.485 174.164 179.841 159.172 63.511 290.512 259.354 198.258 113.935 123.664 197.002 343.992 275.945 252.869 367.929 319.050 262.088 304.927 318.656 443.298 215.389 460.884 254.655 315.900 123.131 283.645 213.153 218.155 468.269 241.833 299.073 267.439 436.598 470.703 286.373 180.946 332.197 273.758 371.150 145.739 409.859 389.654 402.683 260.178 366.473 355.310 264.593 225.404 427.074 181.718 352.031 334.749 276.336 298.672 167.893 199.937 397.930 242.669 266.234 474.104 195.707 335.103 357.690 343.787
110.991 371.682 305.598 268.146 344.980 147.466 225.144 218.962 416.998 364.243 133.558 213.497 108.820 48.045 324.014 208.570 91.199 152.182 262.535 41.995 310.619 259.030 208.264 143.311 133.089 263.860 106.579 226.355 46.246 129.453 150.694 214.249 0.000 297.287 119.874 284.836 230.489 263.581 118.564 91.497 181.260 176.281 209.163 137.001 289.530 174.226 233.292 141.402 215.100 229.927 130.516 365.074 218.543 353.360 155.963 347.675 294.334 282.933 311.921 239.995 395.378 250.549 140.252 291.226 309.427 324.876 195.815 390.345 350.316 397.645 424.686 283.950 129.850 420.690 361.231 227.756 149.074 438.878 246.261 363.729 339.655 217.510 303.459 355.865 295.475 388.121 272.991 313.077 248.522 367.609 389.944 293.913 279.033 358.976 203.716 357.507 330.710 286.979 406.699 318.737 304.833
276.914 572.843 449.128 469.932 413.475 267.030 248.967 173.434 368.720 311.683 229.164 131.961 257.148 296.281 525.799 163.042 292.985 217.405 331.410 271.351 511.780 373.763 358.068 345.097 228.695 450.911 274.497 345.992 233.297 279.257 226.565 302.953 261.113 0.000 187.302 405.491 345.222 332.457 205.591 256.021 147.704 307.899 421.270 357.366 253.491 293.790 368.052 218.178 287.091 431.713 350.881 515.901 438.908 303.376 339.031 466.628 407.737 208.510 425.323 94.217 463.872 354.685 327.304 361.125 261.150 511.927 397.601 408.224 275.893 598.806 626.472 434.345 297.768 408.085 239.403 414.808 203.588 557.831 433.313 564.891 408.150 395.840 124.482 373.744 373.376 589.282 309.417 514.239 209.299 315.048 336.988 330.339 347.909 560.138 404.877 304.947 517.762 323.405 483.075 519.898 505.994
120.767 414.701 349.242 311.790 327.156 157.242 146.272 99.088 304.336 247.298 136.452 103.067 118.306 138.138 367.657 88.695 134.843 32.308 245.091 113.208 353.638 268.807 233.190 186.954 135.983 292.769 116.355 251.281 75.155 154.379 49.834 216.635 102.971 177.413 0.000 294.612 240.265 246.138 18.289 75.533 61.386 186.057 263.127 199.224 189.106 184.002 243.068 30.876 217.285 273.571 192.739 408.717 280.766 238.991 180.889 380.309 319.260 163.059 336.847 120.121 377.553 260.325 169.161 274.806 196.765 353.784 239.459 340.453 230.442 440.664 468.329 327.593 139.626 343.700 241.356 256.665 100.892 471.512 275.170 406.748 321.831 242.436 183.585 305.973 287.058 431.140 223.098 356.096 143.416 250.664 272.603 244.021 261.590 401.995 246.735 240.562 359.619 237.087 396.756 361.755 347.852
124.733 443.345 327.466 340.474 291.813 113.485 217.429 225.527 352.036 299.280 288.760 320.709 125.507 240.707 396.341 215.135 188.538 196.754 209.748 213.185 382.282 167.018 383.538 215.638 288.290 433.563 220.466 401.628 224.869 304.727 188.778 93.970 202.948 338.257 218.764 0.000 138.477 210.795 200.474 206.151 185.482 98.916 316.822 285.664 224.568 140.245 159.069 223.312 370.302 302.255 279.179 394.239 345.360 288.398 331.237 344.966 469.608 241.699 487.195 280.965 342.210 158.536 309.956 239.463 244.465 494.579 268.143 325.383 293.749 469.308 497.014 312.683 207.256 358.507 300.068 397.460 172.049 436.169 415.965 435.393 286.488 392.783 381.620 290.903 251.714 459.784 208.028 384.740 361.059 302.646 324.982 203.791 226.247 430.640 275.379 292.544 500.414 222.017 361.413 390.400 376.496
175.003 493.614 320.461 390.743 250.456 163.755 263.312 271.410 352.367 201.336 339.029 370.978 175.777 290.977 446.611 261.018 238.807 242.637 202.743 263.455 432.552 37.717 433.807 265.908 338.560 483.833 270.735 451.898 275.139 354.996 239.047 177.122 253.217 387.743 269.033 302.216 0.000 203.789 250.744 256.421 231.366 153.802 367.092 335.933 224.900 190.514 213.955 273.582 420.572 352.524 329.448 387.233 395.630 182.765 381.506 337.960 519.877 279.289 537.464 330.450 300.853 29.236 360.225 216.468 244.797 544.848 318.412 219.750 299.829 519.578 547.283 305.678 257.525 261.840 306.148 447.729 217.933 429.164 466.234 485.662 245.131 443.053 431.105 185.270 244.709 510.054 134.335 435.010 411.328 200.733 284.981 69.504 219.241 444.732 325.649 222.320 550.683 144.188 320.056 427.865 409.137
181.879 363.589 170.705 375.030 135.433 170.631 245.090 253.188 378.763 247.456 343.684 361.712 182.242 297.853 430.897 242.796 226.255 224.415 52.987 270.331 302.527 124.257 421.256 224.319 343.215 471.281 277.200 439.346 279.793 342.445 229.781 173.157 260.093 369.521 259.767 249.519 161.974 0.000 241.478 252.144 213.144 137.667 353.795 323.381 251.295 197.390 147.598 264.316 425.227 336.763 316.897 237.478 382.333 228.885 368.955 188.205 507.326 269.360 524.912 312.228 185.830 166.066 347.673 81.678 271.192 532.297 302.699 309.344 321.411 389.553 531.569 155.922 263.991 219.342 327.729 435.177 199.711 279.408 453.682 376.638 130.108 430.501 412.883 274.863 94.954 380.029 234.755 304.985 402.062 246.853 331.101 227.288 69.486 294.977 195.624 268.440 538.131 244.234 205.033 278.110 259.381
116.335 410.268 344.809 307.357 344.324 152.810 163.440 116.256 321.504 264.466 134.613 120.235 100.017 133.706 363.225 105.864 130.411 49.476 262.259 108.776 349.206 264.374 231.351 182.522 134.144 288.337 111.923 249.442 70.722 152.540 67.002 219.593 98.539 194.581 18.289 290.180 235.833 263.306 0.000 57.244 78.554 181.625 258.695 194.792 206.274 179.570 238.636 22.838 216.156 269.138 188.307 404.285 276.334 256.159 179.050 386.886 317.421 180.227 335.008 137.289 394.722 255.893 164.729 291.974 213.933 349.352 235.027 357.621 247.610 436.232 463.897 323.161 135.194 360.868 258.524 252.233 115.087 478.089 270.738 402.316 338.999 240.597 200.753 323.141 304.226 426.708 240.266 351.664 160.585 267.832 289.771 261.189 278.758 397.563 242.303 257.730 355.187 254.255 413.924 357.323 343.420
98.663 404.929 339.470 302.018 343.833 134.524 173.761 143.323 348.571 291.534 129.274 147.302 78.897 128.367 357.886 132.931 125.071 76.543 261.768 103.437 343.866 259.035 226.012 177.183 128.804 282.997 93.308 244.102 65.383 147.201 86.669 201.809 93.199 221.648 45.357 284.841 230.494 262.815 27.067 0.000 105.621 176.285 253.356 189.452 233.342 161.283 233.297 49.905 210.816 263.799 182.968 398.946 270.994 283.227 173.711 381.547 312.082 207.294 329.668 164.356 394.230 250.554 159.390 291.230 241.001 344.013 229.687 373.971 274.677 430.892 458.558 317.822 116.579 387.936 285.592 246.894 93.967 472.750 265.399 396.977 338.508 235.257 227.820 339.491 303.734 421.368 256.617 346.325 187.652 294.899 316.839 277.539 278.267 392.224 236.963 284.797 349.848 270.605 413.433 351.984 338.081
130.908 449.520 301.423 346.649 265.770 121.024 117.627 91.633 249.082 192.044 216.221 211.910 111.142 215.314 402.516 81.241 176.174 96.952 183.705 190.384 388.457 226.058 312.959 221.814 215.752 369.944 170.636 331.050 152.330 234.148 102.318 156.947 180.147 215.639 132.304 259.485 197.517 184.752 114.015 124.681 0.000 161.894 304.459 273.300 133.853 147.784 222.046 136.853 297.763 308.430 266.815 368.196 332.997 183.737 260.658 318.923 399.029 107.805 416.616 158.346 316.168 206.980 246.337 213.420 141.511 430.960 274.318 279.067 175.188 475.483 503.189 286.640 192.890 288.447 186.103 333.841 72.248 410.126 352.346 441.568 260.445 322.205 259.001 244.587 225.672 465.959 161.712 390.916 252.260 195.410 217.350 182.635 200.204 425.695 281.554 185.308 436.795 175.701 335.370 396.575 382.672
107.744 351.164 258.793 293.576 223.521 99.194 228.524 236.622 363.131 250.784 271.771 303.720 108.519 223.718 349.444 226.230 143.407 181.813 141.076 196.196 290.101 87.165 338.407 128.607 271.302 388.432 203.477 356.497 207.880 259.596 171.789 42.384 185.959 321.268 201.775 153.807 58.624 142.122 183.485 189.163 196.578 0.000 270.947 240.533 235.663 112.899 68.510 206.324 347.490 255.310 234.048 325.566 299.485 232.213 286.106 276.293 424.477 252.794 442.064 263.976 273.919 78.684 264.825 169.767 255.560 449.448 221.245 269.198 304.845 377.127 450.116 244.010 190.267 299.231 311.163 352.329 170.168 367.497 370.834 343.211 218.196 347.653 364.631 234.718 183.042 367.603 183.783 292.559 344.070 250.181 334.429 123.938 157.574 338.458 183.198 271.768 455.283 193.636 293.121 298.219 284.315
216.844 368.599 354.714 173.898 443.871 253.319 373.369 368.599 522.851 470.096 308.133 360.592 247.277 240.872 229.766 358.207 140.012 301.819 342.793 183.345 359.734 357.921 319.479 214.528 307.664 244.013 254.804 337.569 208.199 240.668 298.920 313.140 219.360 441.815 269.511 383.726 329.380 343.840 266.789 239.722 330.897 275.171 0.000 117.081 395.383 280.079 332.182 289.628 328.561 150.056 115.583 414.189 131.884 459.213 267.178 396.790 360.055 412.514 377.642 389.632 469.160 349.439 245.896 390.116 415.280 305.029 101.568 496.199 464.565 329.099 330.438 333.065 278.075 519.580 470.883 216.795 297.299 487.993 263.303 332.143 426.060 328.063 441.110 461.718 344.590 401.302 378.844 362.193 383.168 473.462 495.797 394.694 362.301 408.092 252.831 463.360 319.749 392.832 455.815 367.852 353.948
175.096 420.106 361.793 225.406 408.687 211.572 301.207 296.436 481.104 428.349 235.971 288.429 184.882 168.709 281.273 286.044 147.395 229.656 326.241 111.182 366.814 322.737 247.316 199.524 235.502 208.995 182.641 265.407 136.036 168.505 226.757 277.956 147.197 369.653 197.349 348.543 294.196 327.288 194.627 167.560 258.735 239.987 113.241 0.000 353.636 238.331 296.999 217.465 256.399 201.563 6.485 421.269 96.866 417.466 194.811 403.870 325.037 360.407 342.624 317.469 459.084 314.255 169.722 354.932 373.533 270.011 153.075 454.451 422.818 380.607 381.946 340.145 205.912 484.397 429.136 181.777 225.136 495.073 228.285 383.651 403.362 256.562 368.947 419.971 351.670 444.316 337.097 369.272 311.006 431.714 454.050 358.019 342.740 415.171 259.911 421.613 284.731 351.085 462.894 374.932 361.028
180.139 498.751 367.625 395.880 276.817 168.891 225.154 205.135 206.698 144.278 323.747 325.412 178.130 295.332 451.747 194.743 243.162 204.479 249.907 267.810 437.688 231.988 420.485 271.044 323.278 477.471 273.089 438.576 259.857 341.674 209.844 203.908 257.572 329.140 239.830 307.352 203.446 250.954 221.541 232.207 165.091 208.854 371.447 340.288 0.000 195.651 269.007 244.379 405.290 357.661 333.804 434.398 399.985 135.971 368.184 385.125 506.555 162.207 524.142 271.848 382.369 212.910 353.863 279.622 105.777 538.486 323.549 240.819 191.361 524.714 552.419 352.842 259.879 240.680 197.680 441.367 179.774 476.328 459.872 490.798 326.647 429.731 372.503 206.339 291.874 515.190 167.642 440.146 365.762 147.644 169.979 188.564 266.406 486.045 330.785 137.542 544.321 137.032 401.572 445.806 431.902
56.053 374.664 285.113 271.793 249.460 44.805 175.076 183.174 309.683 256.928 220.079 252.029 56.827 172.027 327.661 172.782 119.857 130.121 167.395 144.505 313.602 180.484 314.858 146.958 219.610 364.883 151.785 332.948 156.189 236.046 120.097 107.436 134.267 269.577 150.083 198.480 151.943 168.442 131.794 137.471 143.130 106.563 248.142 216.983 182.215 0.000 163.574 154.632 301.622 233.574 210.499 351.886 276.680 246.045 262.556 302.613 400.928 199.346 418.514 212.284 299.857 172.002 241.275 197.110 202.112 425.898 199.462 283.030 251.397 400.628 428.333 270.330 138.575 316.154 257.715 328.779 118.477 393.816 347.284 366.712 244.135 324.103 312.940 248.550 209.362 391.104 165.676 316.060 292.378 260.294 282.629 186.598 183.894 361.959 206.699 250.192 431.733 179.664 319.060 321.719 307.816
117.656 361.075 268.705 303.488 233.432 109.106 256.150 258.504 394.004 286.333 281.682 313.631 118.430 233.630 359.355 248.112 153.318 191.724 150.987 206.108 300.012 122.714 348.318 138.519 281.213 398.344 213.388 366.409 217.791 269.507 181.700 77.933 195.870 331.180 211.686 163.719 94.173 152.034 193.397 199.074 220.802 42.443 280.858 250.444 266.537 122.810 0.000 216.235 357.401 265.221 243.959 335.478 309.396 267.762 296.017 286.205 434.388 283.667 451.975 273.887 283.830 114.233 274.736 179.678 286.434 459.359 231.157 304.747 335.718 387.038 460.027 253.922 200.178 309.142 342.037 362.240 180.080 377.408 380.745 353.123 228.108 357.564 374.542 270.267 192.953 377.514 219.332 302.471 353.981 285.730 366.951 159.488 167.485 348.370 193.109 307.317 465.194 229.185 303.032 308.130 294.226
130.166 424.100 358.641 321.189 335.434 166.642 154.550 107.366 312.614 255.576 145.851 111.345 125.274 147.538 377.056 96.974 144.242 40.586 253.369 122.608 363.037 278.206 242.590 196.354 145.382 302.168 125.754 260.680 84.554 163.778 58.112 224.913 112.370 185.691 9.399 304.011 249.665 254.416 25.258 82.502 69.664 195.456 272.527 208.623 197.384 193.401 252.467 0.000 225.564 282.970 202.138 418.117 290.165 247.269 190.288 388.587 328.660 171.337 346.246 128.399 385.832 269.724 178.560 283.084 205.043 363.184 248.858 348.731 238.720 450.063 477.729 336.993 149.025 351.978 249.634 266.064 109.171 479.790 284.569 416.148 330.109 251.835 191.863 314.251 295.336 440.539 231.376 365.495 151.695 258.942 280.881 252.299 269.868 411.395 256.134 248.840 369.019 245.365 405.034 371.155 357.251
255.348 531.820 465.737 428.285 489.338 291.824 332.498 285.314 490.562 433.524 134.438 165.703 253.177 253.123 484.152 274.921 251.338 218.534 406.892 215.107 470.757 403.388 138.147 303.449 133.969 270.252 250.936 121.672 167.773 92.556 236.060 358.607 228.054 294.651 186.226 429.193 374.847 407.939 204.515 235.854 247.612 320.638 369.302 297.139 375.332 318.583 377.649 217.102 0.000 390.066 290.655 525.212 334.788 425.217 230.262 507.813 191.092 349.285 208.678 291.468 539.735 394.906 230.769 435.583 382.991 331.267 355.954 526.679 416.668 557.783 584.825 444.089 274.207 529.926 427.582 228.763 287.118 599.016 232.630 523.868 484.013 187.546 218.633 492.199 448.858 548.259 409.324 473.216 132.942 436.890 458.829 430.247 423.391 519.115 363.854 426.788 337.102 423.313 558.938 478.875 464.972
217.087 362.219 357.444 167.519 447.000 253.563 385.240 387.594 523.095 470.340 349.580 402.039 247.520 281.612 223.386 377.202 165.926 320.815 345.524 224.085 362.864 361.050 360.926 221.916 349.111 290.384 288.434 379.016 249.646 282.115 310.791 316.269 260.100 460.270 310.958 386.856 332.509 346.570 304.733 277.665 349.893 278.301 149.717 205.064 395.627 280.322 335.312 327.571 370.008 0.000 203.566 416.920 178.255 459.457 308.625 399.521 406.425 412.758 424.012 402.977 471.891 352.569 287.344 393.188 415.524 351.399 95.188 496.442 464.808 322.720 324.059 335.796 280.058 522.710 471.127 263.165 309.170 490.724 309.674 325.764 428.791 370.172 482.557 461.962 347.321 394.923 379.087 365.322 424.615 473.705 496.041 397.824 365.031 411.221 255.961 463.603 366.119 393.076 458.545 370.982 357.078
168.612 421.392 355.309 227.748 402.202 205.087 294.722 289.952 474.619 421.864 229.486 281.945 178.398 162.224 283.615 279.559 140.910 223.172 319.757 104.698 360.329 316.252 240.832 193.040 229.017 215.480 176.156 258.922 129.551 162.021 220.272 271.471 140.713 363.168 190.864 342.058 287.711 320.803 188.142 161.075 252.250 233.503 115.583 6.485 347.151 231.847 290.514 210.980 249.914 203.906 0.000 414.784 103.351 410.981 188.531 397.385 326.902 353.923 344.488 310.985 452.600 307.771 167.249 348.448 367.048 276.496 155.417 447.967 416.333 382.949 384.288 333.661 199.428 477.912 422.651 188.262 218.652 488.588 234.770 385.993 396.877 250.077 362.463 413.486 345.186 437.831 330.612 362.788 304.521 425.230 447.565 351.535 336.255 408.687 253.426 415.128 291.216 344.600 456.410 368.447 354.544
335.508 261.266 104.501 431.843 279.770 338.307 412.767 420.864 540.273 426.903 466.723 519.182 349.918 398.754 487.710 410.472 283.068 392.092 191.256 341.228 274.726 291.933 478.069 307.190 466.254 528.094 406.855 496.159 366.788 399.258 397.457 340.833 377.243 537.197 427.443 417.195 329.650 192.303 409.154 396.087 380.820 305.343 410.608 380.194 418.971 365.067 315.274 431.992 487.151 393.576 373.710 0.000 439.146 408.332 425.768 214.513 564.139 437.036 581.725 479.904 271.440 333.743 404.486 201.266 431.512 589.110 359.512 488.791 489.087 287.229 433.118 82.853 398.479 398.789 495.405 491.990 367.387 305.716 510.495 323.883 215.222 487.314 580.560 454.310 141.702 246.165 402.432 202.661 541.758 426.300 510.548 394.965 179.841 133.710 190.132 447.887 594.945 416.420 273.537 116.843 98.114
244.850 396.605 382.720 201.905 471.877 281.326 380.884 376.113 550.858 498.102 315.648 368.106 264.559 248.386 257.772 365.721 168.018 309.333 370.799 190.859 387.740 385.927 269.252 242.535 315.179 149.015 262.318 268.428 215.713 247.311 306.434 341.146 226.874 449.330 277.026 411.733 357.386 371.846 274.304 247.236 338.411 303.177 130.875 95.001 423.390 308.085 360.189 297.142 335.205 178.062 101.486 442.195 0.000 487.220 231.612 424.797 265.056 440.084 282.643 397.146 497.167 377.446 229.016 418.122 443.287 210.030 129.574 524.205 492.571 357.105 358.445 361.072 285.589 547.587 498.890 121.796 304.813 516.000 168.305 360.150 454.066 257.288 448.624 489.724 372.597 429.308 406.850 390.199 389.812 501.468 523.804 422.700 390.307 436.098 280.838 491.366 224.750 420.839 483.821 395.858 381.955
254.871 552.731 333.455 470.612 251.760 243.623 265.244 204.025 205.588 26.723 360.082 324.302 252.862 362.931 526.479 193.633 317.894 233.681 215.737 338.001 491.668 211.057 460.576 345.776 359.613 517.561 318.253 478.666 299.947 381.765 242.841 278.640 327.763 328.031 245.047 382.084 182.516 216.784 261.631 272.297 163.981 283.586 446.179 415.021 80.871 270.383 304.510 274.802 438.521 432.393 408.536 400.228 474.717 0.000 408.274 350.955 546.646 161.097 564.232 270.738 311.163 191.979 393.953 226.778 129.427 578.577 398.281 104.848 190.252 578.694 627.152 318.672 334.611 104.709 196.570 481.457 219.864 442.158 499.962 565.531 255.441 469.821 371.393 70.368 257.704 569.170 145.670 494.126 364.652 26.120 102.216 190.671 232.236 457.727 384.765 39.555 584.412 97.073 330.366 440.859 422.131
210.173 462.972 396.888 359.436 443.763 246.648 309.791 262.606 467.854 410.817 178.573 232.799 219.959 186.322 415.304 252.214 182.489 195.826 361.318 146.259 401.909 357.813 183.281 234.601 178.104 216.186 217.718 201.371 122.953 104.470 213.353 313.032 161.253 335.823 163.518 383.619 329.272 362.364 181.808 202.636 224.904 275.064 265.955 156.856 352.625 273.408 332.075 194.395 192.363 321.217 150.372 456.364 241.832 402.510 0.000 438.965 269.351 326.577 286.937 283.639 494.161 349.332 62.846 390.009 360.284 277.201 287.105 489.528 393.960 488.935 515.976 375.240 240.989 507.219 404.875 180.082 260.213 530.168 198.587 455.019 438.438 192.526 332.660 455.047 386.765 479.411 372.173 404.367 246.970 414.182 436.122 393.096 377.816 450.266 295.006 404.080 283.036 386.162 497.989 410.027 396.123
341.789 436.181 183.416 460.054 284.979 330.542 405.001 413.099 538.673 419.137 494.935 521.623 342.153 426.966 515.921 402.707 311.280 384.326 183.491 369.439 416.946 284.167 506.280 335.401 494.466 556.305 435.067 524.371 395.000 427.469 389.692 333.068 405.454 529.431 419.678 409.429 321.884 184.538 401.388 412.054 373.054 297.577 438.820 408.406 411.205 357.301 307.509 424.226 515.363 421.787 401.921 251.126 467.358 400.566 453.979 0.000 592.350 429.271 609.937 472.139 147.361 325.977 432.698 194.857 431.102 617.321 387.723 481.025 481.321 462.144 608.033 169.570 423.901 391.024 487.640 520.202 359.621 123.773 538.707 491.057 217.900 515.526 572.794 446.545 133.936 421.080 394.666 377.576 561.973 418.534 502.782 387.199 172.076 308.625 310.043 440.121 623.156 408.654 134.016 291.758 273.029
331.644 590.731 524.648 433.007 565.633 368.119 409.077 361.893 567.141 510.103 240.532 275.534 329.473 312.034 488.874 351.501 310.249 295.113 483.188 274.018 529.668 479.684 90.499 362.360 240.063 203.451 327.232 89.675 226.685 151.467 312.639 434.903 286.965 404.481 262.805 505.489 451.143 484.235 281.095 312.150 324.191 396.934 361.977 326.103 451.911 394.879 453.945 293.682 182.880 409.164 332.588 584.123 267.988 501.796 289.173 566.724 0.000 425.864 72.620 382.926 616.031 471.202 289.680 511.879 459.570 264.467 360.676 603.258 493.247 588.207 589.547 503.000 350.503 606.505 504.161 161.962 363.698 657.928 165.829 582.779 560.309 149.011 330.317 568.778 514.525 607.170 485.903 532.127 251.268 513.469 535.408 506.826 499.686 578.026 422.766 503.367 270.302 499.892 625.749 537.786 523.883
212.183 530.795 382.698 427.924 284.424 202.299 196.901 135.683 231.492 174.454 291.740 255.959 192.417 294.588 483.791 125.290 257.449 165.338 264.980 269.658 469.732 307.333 392.233 303.088 291.270 449.218 249.910 410.323 231.604 313.422 174.498 238.222 259.420 248.602 176.704 340.760 278.792 266.027 193.288 203.954 95.638 243.168 385.733 354.575 116.262 229.059 303.321 206.459 370.178 389.705 348.090 449.471 414.271 166.147 339.932 400.198 478.303 0.000 495.889 180.778 397.442 288.255 325.611 294.695 123.921 510.234 355.593 270.996 67.383 556.758 584.463 367.915 274.165 270.857 151.300 413.115 151.521 491.401 431.620 522.842 341.720 401.478 291.964 236.515 306.947 547.234 242.987 472.190 296.309 177.820 199.760 263.910 281.479 506.969 362.829 167.718 516.069 242.977 416.645 477.850 463.946
344.808 603.895 537.812 446.171 578.798 381.284 422.242 375.057 580.305 523.267 253.696 288.698 342.637 325.199 502.038 364.665 323.413 308.277 496.352 287.183 542.833 492.848 103.663 375.525 253.227 216.615 340.396 102.839 239.849 164.631 325.804 448.067 300.129 417.646 275.969 518.653 464.307 497.399 294.259 325.314 337.355 410.098 375.141 339.267 465.076 408.043 467.109 306.846 196.044 422.329 345.752 597.288 281.152 514.960 302.337 579.889 71.933 439.028 0.000 396.090 629.195 484.366 302.845 525.043 472.734 277.631 373.840 616.422 506.411 601.372 602.711 516.164 363.667 619.670 517.326 175.126 376.862 671.092 178.994 595.943 573.473 162.175 343.481 581.942 527.689 620.335 499.068 545.291 264.433 526.633 548.573 519.990 512.851 591.190 435.930 516.531 283.466 513.056 638.913 550.950 537.047
240.627 559.239 412.840 456.367 377.187 230.743 212.680 137.146 332.433 275.395 249.038 151.835 220.860 310.141 512.235 126.754 285.893 178.173 295.122 285.211 498.176 337.475 377.942 331.532 248.569 464.772 265.689 383.282 247.157 299.131 190.277 266.666 274.974 118.409 174.457 369.204 308.934 296.169 191.626 219.733 111.417 271.612 414.177 371.227 217.203 257.502 331.765 204.213 306.966 418.148 364.742 479.613 442.715 267.088 352.892 430.340 445.027 172.222 462.613 0.000 427.585 318.397 341.164 324.837 224.862 525.787 384.037 371.936 239.605 585.202 612.907 398.057 302.609 371.797 229.005 428.668 167.300 521.543 447.173 551.286 371.862 414.439 161.772 337.456 337.089 575.678 273.129 500.634 233.097 278.761 300.700 294.052 311.621 537.112 391.273 268.659 531.622 287.118 446.787 506.294 492.390
321.861 460.818 208.660 499.448 172.583 310.614 385.073 393.171 448.503 330.152 483.667 501.695 322.225 437.836 555.316 382.779 350.674 364.398 165.964 408.833 438.301 262.370 545.674 355.810 483.197 595.700 417.183 563.765 419.776 466.863 369.764 304.648 400.076 509.503 399.750 381.010 300.088 167.010 381.460 392.126 353.127 269.158 478.214 447.800 357.564 337.373 279.089 404.298 554.757 461.181 441.315 275.763 506.752 311.581 493.373 139.530 631.744 409.343 649.331 452.211 0.000 304.180 472.092 111.537 339.742 656.715 427.117 392.040 445.524 486.781 632.670 194.207 403.973 302.039 451.842 559.596 339.693 166.448 578.101 512.413 105.504 554.920 552.866 357.560 165.851 445.717 374.738 402.213 542.045 329.549 413.797 365.402 141.600 333.262 331.398 351.136 662.550 326.931 54.168 316.395 297.666
195.396 514.008 335.868 411.137 265.863 184.148 252.476 260.574 341.531 190.500 351.070 369.098 196.170 311.370 467.004 250.182 259.201 231.801 218.150 283.848 452.945 53.125 447.808 286.301 350.601 504.226 291.129 465.898 287.179 368.997 237.167 197.516 273.611 376.906 267.153 322.609 24.583 219.197 248.863 259.529 220.530 174.195 387.485 356.327 214.063 210.908 234.348 271.702 432.612 372.918 349.842 402.641 416.023 171.929 395.507 353.368 533.878 268.453 551.465 319.614 316.260 0.000 380.619 231.875 233.960 565.242 338.806 208.914 288.993 539.971 567.677 321.085 277.919 251.003 295.311 468.123 207.096 444.571 486.628 506.056 260.538 457.054 420.269 174.434 260.116 530.447 123.499 455.404 409.448 189.897 274.145 89.898 234.649 460.139 346.042 211.484 571.077 133.351 335.463 443.272 424.544
185.084 437.883 371.799 334.347 418.674 221.559 302.148 254.964 460.212 403.174 179.080 233.306 194.869 161.233 390.214 244.571 157.400 188.184 336.228 121.170 376.820 332.724 183.788 209.512 178.611 207.984 192.628 201.878 97.864 104.977 205.710 287.943 136.163 328.180 155.876 358.530 304.183 337.275 174.165 177.547 217.262 249.974 240.866 131.767 344.982 248.319 306.986 186.752 192.870 296.128 125.282 431.275 228.634 394.867 62.846 413.876 269.858 318.935 287.445 275.996 469.071 324.243 0.000 364.919 352.641 268.999 262.016 464.439 386.318 463.846 490.887 350.151 215.900 494.384 397.232 171.880 235.124 505.079 190.385 429.930 413.349 193.033 327.475 429.958 361.676 454.322 347.084 379.278 247.477 406.540 428.479 368.007 352.727 425.177 269.917 396.438 274.834 361.072 472.900 384.938 371.034
212.725 391.420 147.946 402.860 115.388 201.477 275.937 284.035 377.423 245.361 374.530 392.559 213.089 328.699 458.728 273.642 254.086 255.262 54.427 301.177 330.357 155.103 449.086 255.165 374.061 499.112 308.047 467.177 310.640 370.275 260.628 204.004 290.940 400.367 290.613 280.365 192.820 55.473 272.324 282.990 243.990 168.513 381.626 351.212 282.141 228.237 178.445 295.162 456.073 364.594 344.727 215.049 410.164 226.790 396.785 167.770 535.156 300.206 552.743 343.075 111.065 196.913 375.504 0.000 268.661 560.127 330.529 307.249 352.257 417.383 559.400 133.494 294.837 217.248 358.576 463.008 230.557 242.548 481.513 404.469 54.847 458.332 443.730 272.769 74.519 385.004 265.602 332.816 432.909 244.758 329.006 258.135 30.063 272.548 223.454 266.345 565.962 242.139 130.267 255.681 236.953
323.029 641.641 492.757 538.769 369.539 313.145 327.695 266.476 316.607 259.569 422.533 386.753 303.262 420.464 594.637 256.084 368.294 296.132 375.039 392.942 580.578 380.030 523.027 413.934 422.064 580.012 380.704 541.117 362.398 444.216 305.292 349.068 382.705 372.722 307.498 451.606 351.489 376.086 324.082 334.748 226.432 354.014 496.579 465.421 201.377 339.904 414.167 337.253 500.972 500.550 458.936 559.530 525.117 251.262 470.725 510.257 609.097 184.017 626.683 322.744 488.155 360.952 456.404 404.754 0.000 641.028 466.439 356.110 204.557 667.604 695.309 477.974 385.011 355.971 135.192 543.909 282.315 601.460 562.413 633.688 431.937 532.272 420.500 321.630 417.006 658.080 315.684 583.036 427.103 262.935 284.874 336.607 391.538 617.029 473.675 252.833 646.863 328.092 507.358 588.696 574.792
369.824 567.047 553.161 372.346 603.414 406.300 486.889 439.704 644.952 587.914 373.371 412.636 379.610 345.973 428.214 429.312 338.460 372.924 520.969 305.910 558.182 517.465 251.424 394.252 372.902 68.712 377.369 250.600 282.604 284.306 390.450 472.683 320.904 512.920 340.616 543.270 488.923 522.016 358.906 362.287 402.002 434.715 301.316 265.443 529.722 433.059 491.726 371.493 343.806 348.504 271.927 612.637 207.327 579.607 268.607 595.238 247.229 503.675 264.815 460.737 653.812 508.983 266.011 549.660 537.381 0.000 300.015 649.179 571.058 527.547 528.886 531.513 400.640 679.124 581.973 103.605 419.864 686.441 150.717 530.591 598.090 239.460 491.243 614.699 543.038 599.750 531.824 560.640 412.194 591.280 613.219 552.747 537.467 606.539 451.279 581.178 115.087 545.813 654.262 566.300 552.396
167.514 267.031 307.871 72.331 397.427 203.989 335.667 338.021 473.521 420.766 300.007 352.465 197.947 232.038 128.198 327.629 116.352 271.241 295.950 174.511 313.290 311.477 311.353 172.343 299.538 240.537 238.860 329.443 200.072 232.541 261.217 266.696 210.526 410.696 261.385 337.282 282.936 296.997 255.159 228.092 300.319 228.727 99.870 155.217 346.053 230.749 285.738 277.997 320.435 100.474 153.719 367.346 128.407 409.883 259.051 349.948 356.578 363.184 374.165 353.404 422.318 302.995 237.770 343.615 365.950 301.552 0.000 446.869 415.235 227.532 228.871 286.223 230.485 473.137 421.553 213.318 259.596 441.151 259.827 230.576 379.217 320.598 432.984 412.388 297.748 299.735 329.514 315.749 375.042 424.132 446.467 348.250 315.458 361.648 206.387 414.030 316.272 343.502 408.972 321.408 307.505
297.681 616.293 413.914 513.421 341.225 286.433 342.695 308.874 310.436 123.419 441.289 429.150 295.672 412.874 569.289 298.481 360.704 322.020 296.196 385.352 555.230 248.042 538.027 388.586 440.820 595.013 390.630 556.118 377.398 459.216 327.386 321.450 375.114 432.879 349.895 424.894 219.501 297.243 339.083 349.749 268.829 326.396 488.989 457.830 185.720 313.193 384.969 361.921 522.832 475.202 451.346 480.687 517.527 104.848 485.726 431.414 624.097 265.946 641.684 375.586 391.622 228.964 471.405 307.237 234.275 656.028 441.091 0.000 295.100 642.256 669.961 399.131 377.421 196.354 301.418 558.909 297.316 522.617 577.414 608.340 335.900 547.273 476.242 34.480 338.163 632.732 182.656 557.688 469.500 122.816 207.064 227.657 312.695 538.185 448.327 144.403 661.863 134.058 410.825 521.318 502.590
270.535 589.147 441.050 486.276 334.530 260.651 255.253 194.035 281.598 224.560 350.092 314.311 250.769 352.940 542.143 183.642 315.801 223.690 323.332 328.010 528.084 345.021 450.585 361.440 349.622 507.570 308.262 468.675 289.956 371.774 232.850 296.574 317.773 306.954 235.056 399.112 316.480 324.379 251.640 262.306 153.990 301.520 444.085 412.927 166.368 287.411 361.673 264.812 428.530 448.057 406.442 507.823 472.623 216.253 398.284 458.550 536.655 58.352 554.242 239.130 453.146 325.943 383.963 353.047 174.027 568.586 413.945 321.101 0.000 615.110 642.816 426.267 332.517 320.962 173.873 471.467 209.873 549.753 489.972 581.195 396.929 459.830 350.317 286.621 365.299 605.586 280.676 530.542 354.661 227.926 249.865 301.598 339.831 565.321 421.181 217.824 574.421 293.083 472.349 536.202 522.298
370.257 39.500 294.297 248.843 469.300 389.428 536.473 538.827 674.327 591.315 496.584 549.042 398.752 428.615 292.636 528.434 312.929 472.047 355.668 371.088 273.641 445.585 507.929 327.709 496.115 483.280 441.604 526.020 396.649 429.118 462.023 400.804 407.103 611.502 457.962 471.390 417.044 356.715 454.533 427.465 501.125 362.835 342.613 397.961 546.859 416.188 419.846 477.371 517.012 343.218 396.463 267.985 371.151 572.744 455.628 404.042 593.999 563.990 611.586 554.210 460.969 437.103 434.347 390.795 566.756 544.296 246.217 627.618 616.041 0.000 176.088 272.649 433.228 563.201 622.359 456.062 460.402 495.245 502.570 197.189 404.752 517.175 629.560 593.138 331.231 72.203 530.320 88.380 571.619 590.712 647.273 482.358 369.371 213.320 200.486 612.298 559.016 544.308 463.067 178.564 175.875
395.466 199.380 454.177 234.052 625.379 431.942 563.619 565.973 701.474 648.719 527.959 580.418 425.899 459.991 277.845 555.581 344.305 499.194 515.548 402.464 433.521 539.429 539.305 400.295 527.490 468.489 466.813 557.395 428.025 460.494 489.170 494.648 438.479 638.649 489.337 565.235 510.888 516.595 483.112 456.044 528.272 456.680 327.822 383.170 574.006 458.701 513.691 505.950 548.387 328.426 381.671 427.865 356.360 637.836 487.004 563.923 584.531 591.137 602.117 581.356 620.850 530.948 465.723 550.676 593.903 529.505 231.425 674.821 643.187 159.880 0.000 432.529 458.437 701.089 649.506 441.271 487.549 655.126 487.779 357.069 564.632 548.551 660.936 640.341 491.112 232.083 557.466 248.260 602.994 652.084 674.420 576.203 529.252 373.201 360.367 641.982 544.225 571.455 622.947 338.444 335.755
268.353 281.833 21.648 364.687 212.517 271.054 345.513 353.611 473.020 359.650 399.568 452.026 282.665 331.599 420.555 343.219 215.913 324.838 124.003 274.072 274.498 224.680 410.913 240.034 399.099 460.939 339.700 429.004 299.633 332.102 330.204 273.580 310.087 469.944 360.190 349.942 262.397 125.050 341.901 328.931 313.567 238.090 343.453 313.039 351.718 297.813 248.021 364.739 419.996 326.420 306.554 95.217 371.991 341.079 358.612 147.259 496.983 369.783 514.570 412.651 204.186 266.489 337.331 134.012 364.259 521.954 292.356 421.538 421.834 307.796 453.685 0.000 331.324 331.536 428.152 424.835 300.134 238.463 443.340 344.450 147.969 420.159 513.306 387.057 74.448 266.732 335.178 223.228 474.603 359.047 443.295 327.711 112.588 154.277 171.456 380.633 527.789 349.167 206.284 137.410 118.681
110.137 407.241 341.782 304.330 347.297 145.998 229.987 232.341 415.530 362.774 209.223 243.641 90.371 161.171 360.197 221.948 127.383 165.561 264.851 133.649 346.178 261.347 305.962 179.494 208.754 362.947 107.108 324.052 145.333 227.151 155.537 213.283 123.411 305.016 141.696 287.152 232.806 265.898 123.407 96.339 194.639 178.597 255.668 224.509 288.062 172.757 235.608 146.245 290.766 266.111 218.024 401.257 284.206 351.892 253.660 383.858 392.032 296.312 409.618 247.724 397.694 252.865 239.339 293.542 307.959 423.963 231.999 388.877 357.243 433.204 460.870 320.134 0.000 422.001 363.562 326.844 153.916 475.062 345.348 399.288 341.972 315.207 324.159 354.396 306.818 423.680 271.522 348.636 283.991 366.140 388.476 292.445 281.350 394.535 239.275 356.038 429.798 285.511 416.897 354.296 340.392
336.895 543.188 323.913 536.657 242.218 325.647 354.646 293.428 294.990 107.973 449.484 413.704 334.886 452.088 592.525 283.035 386.488 323.083 206.195 424.565 482.126 278.249 549.978 371.689 449.015 606.963 407.655 568.068 389.349 471.167 332.243 320.527 414.328 417.433 334.449 396.889 258.715 207.242 351.033 361.699 253.383 285.037 514.028 483.614 170.274 352.406 294.968 364.204 527.923 498.391 477.129 390.686 542.566 89.402 497.677 341.413 636.048 250.499 653.634 360.140 301.621 268.178 483.356 217.236 218.829 667.979 464.327 181.047 279.654 569.152 693.197 309.130 416.634 0.000 285.972 570.860 309.266 432.616 589.365 556.237 245.899 559.223 460.796 146.567 248.161 559.628 221.869 484.584 454.054 107.370 191.618 266.870 222.693 448.184 375.223 128.957 673.814 173.272 320.824 431.317 412.589
278.547 597.159 448.275 494.287 325.057 268.663 283.213 221.994 272.125 215.087 378.051 342.271 258.780 375.982 550.155 211.602 323.812 251.650 330.557 348.460 536.096 335.548 478.545 369.452 377.582 535.530 336.222 496.635 317.916 399.733 260.810 304.586 338.222 326.779 263.016 407.124 307.007 331.604 279.600 290.266 181.950 309.532 452.097 420.938 156.895 295.422 369.685 292.771 456.490 456.068 414.454 515.048 480.635 206.780 426.243 465.775 564.615 139.535 582.201 270.270 443.673 316.470 411.922 360.272 164.554 596.546 421.956 311.628 160.075 623.122 650.827 433.492 340.529 311.489 0.000 499.426 237.833 556.978 517.931 589.206 387.455 487.790 370.142 277.148 372.524 613.598 271.202 538.554 382.621 218.453 240.392 292.125 347.056 572.547 429.193 208.351 602.381 283.610 462.876 544.213 530.310
304.693 506.131 491.409 311.430 538.284 341.169 421.758 374.573 579.821 522.784 297.853 332.855 314.479 280.843 367.298 364.181 277.010 307.793 455.838 240.779 496.429 452.334 147.820 329.121 297.384 81.729 312.238 146.996 217.473 208.788 325.320 407.553 255.773 447.790 275.485 478.139 423.793 456.885 293.775 297.156 336.871 369.584 240.400 204.527 464.592 367.928 426.595 306.362 240.201 287.588 211.011 550.884 146.411 514.477 203.477 533.485 143.624 438.544 161.211 395.606 588.681 443.852 200.880 484.529 472.251 142.745 239.099 584.048 505.927 466.631 467.970 469.761 335.509 613.993 516.842 0.000 354.733 624.689 85.586 469.675 532.959 135.856 387.638 549.568 481.286 538.834 466.693 498.888 308.590 526.149 548.089 487.616 472.337 544.787 389.526 516.047 148.580 480.682 592.510 504.547 490.644
93.478 412.090 347.943 309.218 313.633 129.338 82.453 85.907 291.155 234.117 163.375 166.081 73.711 162.468 365.086 75.515 138.743 24.705 231.568 137.538 351.027 259.967 260.113 184.383 162.906 317.098 117.790 278.203 99.484 181.302 33.865 186.920 127.301 169.810 79.458 283.013 231.426 232.615 61.168 71.834 47.863 183.446 267.028 223.553 175.925 156.098 240.457 84.007 244.917 270.999 217.069 407.419 295.566 225.810 207.812 366.786 346.183 149.878 363.770 112.518 364.031 251.486 193.491 261.283 183.584 378.114 236.888 326.930 217.261 438.053 465.758 326.295 155.460 330.519 228.176 280.995 0.000 457.989 299.500 404.137 308.308 269.358 213.173 292.450 273.535 428.529 209.575 353.485 206.431 237.483 259.422 230.498 248.067 399.384 244.124 227.381 383.949 223.564 383.233 359.145 345.241
400.204 472.664 219.900 496.538 323.253 392.686 467.146 475.243 586.422 480.823 531.418 583.768 404.297 463.449 552.405 464.851 347.764 446.471 245.635 405.923 456.015 346.312 542.764 371.885 530.949 592.789 471.550 560.854 431.483 463.953 451.836 395.212 441.938 591.576 481.822 471.574 384.029 246.682 463.533 460.782 435.199 359.722 475.303 444.890 473.350 419.446 369.653 486.371 551.846 458.271 438.405 287.610 503.841 462.252 490.463 133.339 628.834 491.415 646.420 534.283 185.636 388.122 469.181 247.414 477.661 653.805 424.207 542.711 543.466 498.628 644.517 206.054 463.175 452.710 549.784 556.686 421.766 0.000 575.191 530.127 256.174 552.009 634.939 508.230 196.081 457.564 456.810 414.060 606.453 480.220 564.468 449.344 234.220 345.109 349.112 501.807 659.640 470.799 172.290 328.241 309.513
291.093 503.162 477.808 308.462 524.683 327.568 408.157 360.973 566.221 509.183 294.640 333.904 300.879 267.242 364.329 350.580 263.409 294.193 442.238 227.179 482.829 438.733 185.092 315.521 294.171 78.761 298.637 184.268 203.873 205.575 311.719 393.952 242.172 434.189 261.885 464.539 410.192 443.284 280.174 283.556 323.271 355.984 237.432 201.558 450.991 354.328 412.995 292.761 276.099 284.619 208.043 537.284 143.443 500.876 189.876 519.885 180.896 424.944 198.483 382.006 575.081 430.252 187.280 470.929 458.650 139.776 236.131 570.448 492.327 463.662 465.002 456.160 321.909 600.393 503.241 37.272 341.133 611.088 0.000 466.707 519.358 173.064 424.910 535.967 467.685 535.865 453.093 485.287 345.862 512.549 534.488 474.016 458.736 531.186 375.926 502.447 145.611 467.081 578.909 490.947 477.043
379.848 218.723 330.908 285.029 494.978 399.019 546.064 548.418 683.918 605.953 506.175 558.633 408.343 438.206 310.012 538.026 322.520 481.638 370.306 380.679 286.741 455.176 517.521 337.300 505.706 455.205 451.195 535.611 406.240 438.709 471.614 410.395 416.694 621.093 467.553 480.981 426.635 371.353 464.124 437.057 510.716 372.426 314.538 369.885 556.450 425.779 429.437 486.962 526.603 315.142 368.387 332.844 343.076 587.382 465.219 439.290 571.246 573.581 588.833 563.801 496.217 446.694 443.938 420.638 576.347 516.220 218.141 637.209 625.632 209.868 344.660 309.260 442.819 577.839 631.950 427.986 469.993 530.493 474.495 0.000 440.000 526.766 639.152 602.729 366.479 246.515 539.911 171.472 581.210 605.350 656.864 491.949 389.814 272.889 215.124 624.427 530.940 553.899 498.315 238.132 229.968
266.319 402.875 150.717 441.505 129.678 255.071 329.531 337.629 390.560 287.248 428.124 446.153 266.683 382.293 497.373 327.236 292.731 308.856 108.021 350.890 380.358 208.697 487.731 308.759 427.655 537.757 361.641 505.822 364.234 408.920 314.222 257.598 344.534 453.961 344.207 333.959 246.414 109.067 325.918 336.584 297.584 222.107 420.271 389.857 299.621 281.831 232.039 348.756 496.814 403.238 383.372 217.820 448.809 268.677 435.430 184.932 573.801 353.800 591.388 396.669 121.348 250.507 414.149 53.594 281.799 598.772 369.174 349.136 387.581 428.838 574.727 136.264 348.431 259.134 393.899 501.653 284.151 252.830 520.158 454.470 0.000 496.977 497.324 314.655 107.908 387.774 319.196 344.270 486.503 286.645 370.893 311.729 83.657 275.319 273.455 308.232 604.607 284.026 140.550 258.452 239.723
318.384 565.684 511.388 370.983 552.374 354.860 395.818 348.633 553.882 496.844 246.768 286.033 316.213 298.775 426.850 338.241 296.990 281.853 469.928 260.759 516.409 466.424 128.583 349.101 246.299 141.427 313.972 135.110 213.425 157.703 299.380 421.643 273.705 414.980 249.546 492.230 437.883 470.975 267.835 298.891 310.932 383.674 299.953 264.079 438.652 381.619 440.686 280.422 223.198 347.141 270.564 570.864 205.964 488.537 235.236 553.465 131.738 412.604 149.325 369.666 602.771 457.943 244.884 498.619 446.311 202.443 298.652 589.999 479.988 526.184 527.523 489.740 337.243 593.246 490.902 99.938 350.438 644.668 103.806 529.228 547.049 0.000 375.752 555.518 501.265 593.911 472.644 518.867 296.703 500.210 522.149 493.567 486.427 564.766 409.506 490.108 208.278 486.632 612.489 524.527 510.623
225.473 519.407 453.948 416.496 459.463 261.949 280.138 232.953 438.202 381.164 161.326 64.123 223.302 242.845 472.363 222.561 239.549 166.174 377.017 217.915 458.344 373.513 263.857 291.660 160.857 397.475 221.061 272.598 179.861 185.046 183.700 328.732 207.677 117.997 133.866 399.318 344.972 378.064 152.155 205.979 195.252 290.763 367.834 303.930 322.972 288.708 347.774 164.742 192.880 378.277 297.445 513.423 385.472 372.857 285.595 496.025 334.343 291.193 351.929 145.309 509.860 365.031 273.867 405.708 330.631 458.491 344.165 474.319 358.577 545.370 573.036 432.300 244.332 477.566 323.544 361.371 234.758 587.228 375.881 511.454 454.138 312.842 0.000 439.838 418.984 535.846 356.964 460.802 107.996 384.530 406.469 377.887 393.516 506.701 351.441 374.428 464.326 370.952 529.063 466.462 452.558
263.201 581.812 379.434 478.941 306.744 251.953 308.215 274.393 275.956 88.939 406.809 394.670 261.192 378.393 534.808 264.001 326.224 287.540 261.716 350.871 520.749 213.562 503.547 354.106 406.339 560.532 356.150 521.637 342.918 424.736 292.906 286.970 340.634 398.399 315.415 390.414 185.021 262.763 304.602 315.268 234.349 291.916 454.508 423.350 151.239 278.712 350.489 327.440 488.351 440.722 416.865 446.207 483.046 70.368 451.246 396.934 589.617 231.465 607.203 341.106 357.142 194.484 436.925 272.756 199.794 621.548 406.610 34.480 260.619 607.775 635.481 364.651 342.940 161.874 266.938 524.429 262.835 488.137 542.934 573.860 301.420 512.792 441.761 0.000 303.682 598.251 148.175 523.208 435.020 88.336 172.584 193.176 278.214 503.705 413.847 109.923 627.383 99.577 376.345 486.838 468.110
219.423 344.072 104.877 349.575 172.642 208.175 282.635 290.733 416.307 296.771 381.228 399.257 219.787 316.487 405.442 280.341 200.801 261.960 61.125 258.960 283.010 161.801 395.801 224.922 380.759 445.826 314.745 413.891 284.521 316.990 267.326 210.702 294.975 407.065 297.311 287.063 199.518 62.171 279.022 289.688 250.688 175.211 328.341 297.927 288.839 234.935 185.143 301.860 404.884 311.308 291.442 171.650 356.879 278.200 343.500 122.377 481.871 306.904 499.458 349.773 164.311 203.611 322.219 72.491 308.736 506.842 277.244 358.659 358.955 370.036 506.115 90.094 301.535 268.658 365.274 409.723 237.255 213.581 428.228 357.121 108.094 405.047 450.428 324.179 0.000 341.604 272.300 285.468 439.607 296.168 380.416 264.833 49.710 229.149 176.107 317.755 512.677 286.288 181.402 212.282 193.553
374.244 59.751 231.097 304.359 406.100 393.416 539.096 542.814 666.603 553.232 500.571 553.030 402.740 432.603 348.152 532.422 316.917 476.034 317.586 375.076 277.628 418.262 511.917 331.696 500.102 538.796 445.591 530.007 400.637 433.106 466.010 404.791 411.091 615.490 461.949 475.378 421.031 318.633 458.520 431.453 505.112 366.823 398.129 414.043 545.301 420.175 423.834 481.358 520.999 398.734 407.558 204.785 426.667 534.661 459.616 340.842 597.987 563.366 615.574 558.197 397.769 441.091 438.334 327.595 557.842 599.812 301.733 615.120 615.416 85.715 231.604 209.449 437.215 525.119 621.735 511.578 464.390 432.045 544.344 255.060 341.552 521.162 633.548 580.640 268.031 0.000 528.761 92.367 575.606 552.629 636.877 486.346 306.171 155.098 204.474 574.216 614.532 542.750 399.867 172.711 170.022
190.605 509.216 372.778 406.345 300.089 179.357 248.440 256.538 327.623 164.175 347.034 365.062 191.379 306.579 462.212 246.146 254.409 227.765 255.060 279.057 448.153 162.561 443.772 281.510 346.565 499.434 286.337 461.862 283.143 364.961 233.131 214.374 268.819 372.870 263.117 317.818 131.739 256.107 244.827 255.493 216.494 219.320 382.694 351.535 200.156 206.116 279.472 267.666 428.576 368.126 345.050 439.551 411.232 145.604 391.471 390.278 529.842 264.417 547.429 315.578 350.486 143.483 375.827 266.101 220.052 560.450 334.014 182.590 284.957 535.179 562.885 357.995 273.127 224.679 291.275 463.331 203.060 481.481 481.836 501.264 294.764 453.018 416.233 148.109 297.026 525.655 0.000 450.612 405.412 163.572 244.796 124.425 271.559 496.511 341.251 182.134 566.285 59.800 369.689 456.271 442.368
299.201 75.928 232.535 320.536 406.175 318.372 465.416 467.771 603.271 520.259 425.528 477.986 327.696 357.559 364.329 457.378 241.873 400.991 284.612 300.032 202.585 374.529 436.873 256.653 425.059 486.899 370.547 454.964 325.593 358.062 390.967 329.748 336.047 540.446 386.906 400.334 345.988 285.659 383.477 356.409 430.069 291.779 369.413 338.999 475.803 345.132 348.790 406.315 445.956 357.268 332.514 207.835 397.951 501.687 384.572 340.918 522.943 492.934 540.530 483.154 397.845 366.047 363.291 327.671 495.700 547.914 314.893 556.562 544.985 101.891 247.781 210.887 362.172 492.145 551.303 450.795 389.346 432.121 469.300 207.339 341.627 446.119 558.504 522.082 268.107 92.367 459.264 0.000 500.563 519.656 576.217 411.302 304.120 142.264 129.430 541.242 553.749 473.252 399.942 107.508 104.819
264.188 558.122 492.663 455.211 498.178 300.664 341.339 294.154 499.402 442.364 143.278 142.197 262.017 276.307 511.078 283.762 278.264 227.374 415.732 255.360 497.059 412.228 216.070 330.376 142.809 329.023 259.776 188.118 213.323 150.210 244.900 367.447 246.392 209.243 195.066 438.034 383.687 416.779 213.356 244.695 256.452 329.478 406.549 337.392 384.172 327.423 386.490 225.943 150.320 416.992 330.907 552.139 393.560 434.057 286.966 534.740 249.863 358.125 267.450 236.555 548.575 403.747 287.473 444.423 391.831 390.039 382.880 535.519 425.508 584.085 611.751 471.015 283.047 538.767 414.789 287.534 295.959 625.943 291.401 550.170 492.853 274.582 128.731 501.039 457.699 574.561 418.165 499.518 0.000 445.730 467.670 439.087 432.231 545.417 390.156 435.628 395.874 432.153 567.778 505.177 491.273
277.534 593.284 374.009 493.275 292.313 266.286 287.907 226.688 228.251 7.320 382.745 346.965 275.525 385.594 549.142 216.296 340.557 256.344 256.291 360.664 532.221 251.610 483.239 368.439 382.276 540.224 340.916 501.329 322.610 404.427 265.504 301.303 350.426 350.694 267.710 404.747 223.069 257.337 284.294 294.960 186.644 306.249 468.842 437.683 103.534 293.046 345.064 297.465 461.184 455.056 431.199 440.781 497.380 40.553 430.937 391.508 569.309 183.760 586.895 293.401 351.717 232.532 416.616 267.331 152.089 601.240 420.944 145.402 212.915 619.247 649.815 359.226 357.274 145.263 219.233 504.120 242.527 482.712 522.625 588.194 295.994 492.484 394.056 110.921 298.257 609.723 186.224 534.680 387.315 0.000 106.371 231.225 272.789 498.280 425.319 43.710 607.074 133.733 370.919 481.413 462.685
299.936 618.548 440.028 515.677 304.237 288.688 310.309 249.090 165.767 103.050 405.147 369.367 297.927 407.995 571.544 238.698 362.959 278.746 322.310 383.066 557.485 317.630 505.641 390.841 404.678 562.626 363.318 523.731 345.012 426.829 287.906 323.705 372.828 373.096 290.112 427.149 289.089 323.357 306.696 317.362 209.046 328.651 491.244 460.085 125.936 315.448 388.804 319.867 483.586 477.458 453.601 506.801 519.782 106.573 453.339 457.528 591.710 206.162 609.297 315.803 417.736 298.552 439.018 333.351 154.325 623.641 443.346 211.421 235.316 644.511 672.216 425.245 379.676 211.282 241.635 526.522 264.929 548.731 545.027 610.595 362.014 514.886 416.458 176.941 364.277 634.987 248.527 559.943 409.717 106.416 0.000 297.244 338.809 564.300 450.582 65.704 629.476 184.719 436.939 547.432 528.704
199.467 518.079 386.953 415.207 325.505 188.219 244.481 252.579 333.536 206.524 343.075 361.103 197.458 314.660 471.075 242.187 262.490 223.806 269.235 287.138 457.016 112.767 439.813 290.372 342.606 496.799 292.416 457.904 279.184 361.002 229.172 223.236 276.900 368.912 259.158 326.680 79.239 270.282 240.869 251.535 212.535 211.075 390.775 359.616 206.069 214.979 271.228 263.707 424.618 376.988 353.132 453.726 419.313 187.953 387.512 404.453 525.883 260.458 543.470 311.619 375.903 103.810 373.191 291.517 225.966 557.814 342.877 224.938 280.998 544.042 571.747 372.170 279.206 267.027 287.317 460.695 199.102 495.656 479.200 510.126 320.180 449.059 412.274 190.458 311.201 534.518 112.734 459.474 401.453 205.921 290.169 0.000 285.734 505.373 350.113 227.508 563.649 122.586 395.105 465.134 451.230
195.023 373.718 126.529 385.158 164.758 183.776 258.235 266.333 391.907 272.371 356.828 374.857 195.387 310.998 441.026 255.941 236.384 237.560 36.725 283.475 312.656 137.401 431.385 237.463 356.359 481.410 290.345 449.475 292.938 352.573 242.926 186.302 273.238 382.665 272.912 262.663 175.118 37.772 254.622 265.288 226.288 150.811 363.924 333.510 264.439 210.535 160.743 277.460 438.371 346.892 327.026 193.302 392.462 253.800 379.083 144.029 517.455 282.505 535.041 325.373 158.715 179.211 357.802 49.370 284.336 542.426 312.828 334.259 334.555 399.682 541.698 111.746 277.135 244.258 340.874 445.306 212.855 235.232 463.811 386.767 102.498 440.630 426.028 299.779 50.778 363.256 247.900 315.114 415.207 271.768 356.016 240.433 0.000 250.801 205.753 293.355 548.260 261.888 177.918 233.934 215.205
344.828 200.597 170.030 438.450 345.033 363.999 478.030 486.127 605.536 492.166 471.155 523.613 373.323 403.186 463.433 475.735 287.500 446.618 256.519 345.659 259.253 357.196 482.501 302.280 470.686 532.526 416.175 500.591 371.220 403.689 436.594 375.375 381.674 586.073 432.533 445.961 391.615 257.566 429.104 402.037 446.083 337.406 415.040 384.626 484.234 390.759 380.537 451.942 491.583 402.895 378.142 143.718 443.578 473.595 430.199 279.776 568.570 502.299 586.157 528.781 336.703 399.006 408.918 266.529 496.775 593.541 368.831 554.054 554.350 226.560 372.450 148.382 407.799 464.053 560.668 496.422 432.650 370.979 514.927 272.889 280.485 491.746 604.132 519.573 206.965 207.638 467.695 141.992 546.190 491.563 575.811 456.929 245.105 0.000 175.057 513.150 599.376 481.683 338.800 56.832 54.143
198.080 231.882 151.779 294.414 279.854 217.252 364.296 366.650 502.150 390.828 324.407 376.866 226.576 256.438 350.282 356.258 140.752 299.870 155.182 198.912 170.819 255.858 335.753 155.532 323.938 385.778 269.427 353.843 224.472 256.942 289.846 228.627 234.927 439.325 285.785 299.214 244.867 156.229 282.356 255.289 328.948 190.658 268.292 237.878 374.683 244.011 247.670 305.194 344.835 256.148 231.394 211.254 296.830 372.257 283.452 255.400 421.823 391.813 439.409 382.033 297.333 264.927 262.170 205.513 394.580 446.794 222.084 452.716 443.864 257.845 403.735 130.131 261.051 362.715 450.182 349.674 288.225 346.603 368.179 249.998 241.116 344.998 457.384 418.236 159.646 248.321 358.143 173.278 399.442 390.225 474.473 310.182 174.689 194.712 0.000 411.812 452.629 372.131 314.424 154.472 140.568
311.148 629.759 422.656 526.888 331.984 299.900 321.520 260.302 230.265 85.678 416.359 380.579 309.139 419.207 582.756 249.910 374.171 289.958 304.938 394.277 568.697 300.258 516.852 402.053 415.890 573.838 374.529 534.943 356.223 438.041 299.118 334.917 384.040 384.307 301.324 438.361 271.717 305.985 317.908 328.574 220.258 339.863 502.456 471.297 137.148 326.659 393.711 331.079 494.797 488.669 464.812 489.429 530.994 89.201 464.551 440.156 602.922 217.374 620.509 327.015 400.364 281.180 450.230 315.979 185.703 634.853 454.557 194.049 246.528 655.723 683.428 407.873 390.887 193.910 252.847 537.734 276.141 531.359 556.239 621.807 344.642 526.098 427.670 159.569 346.905 646.199 231.155 571.155 420.928 89.044 104.677 279.872 321.437 546.928 461.794 0.000 640.688 167.347 419.567 530.060 511.332
375.659 577.096 562.374 382.396 609.249 412.134 492.723 445.539 650.787 593.749 379.206 418.470 385.445 351.808 438.263 435.147 347.976 378.759 526.804 311.745 567.395 523.300 257.259 400.087 378.737 106.296 383.204 256.435 288.439 290.141 396.285 478.518 326.739 518.755 346.451 549.105 494.758 527.850 364.741 368.122 407.837 440.550 311.366 275.492 535.557 438.894 497.561 377.328 349.641 358.554 281.977 621.850 217.377 585.442 274.442 604.451 253.064 509.510 270.650 466.572 659.647 514.818 271.846 555.495 543.216 120.862 310.065 655.014 576.893 537.597 538.936 540.726 406.475 684.959 587.807 109.439 425.699 695.654 156.552 540.641 603.924 245.295 497.078 620.533 552.251 609.800 537.659 569.853 418.029 597.115 619.054 558.582 543.302 615.752 460.492 587.013 0.000 551.648 663.475 575.513 561.609
209.199 527.811 348.804 424.940 276.115 197.951 254.214 262.312 285.749 115.644 352.807 370.836 207.191 324.392 480.807 251.920 272.223 233.539 231.086 296.870 466.748 168.033 449.546 300.104 352.338 506.531 302.149 467.636 288.917 370.735 238.905 232.968 286.633 378.644 268.890 336.413 137.513 232.133 250.601 261.267 222.267 237.914 400.507 369.349 158.282 224.711 298.067 273.439 434.350 386.721 362.864 415.577 429.045 97.073 397.244 366.304 535.616 243.877 553.202 321.352 326.512 148.955 382.923 242.127 178.179 567.547 352.609 134.058 273.031 553.774 581.480 334.021 288.939 176.147 279.350 470.427 208.834 457.507 488.932 519.859 270.790 458.791 422.007 99.577 273.053 544.250 63.809 469.207 411.186 115.041 184.996 130.199 247.585 473.076 359.845 122.335 573.382 0.000 345.715 456.209 437.480
347.862 472.089 219.324 495.962 198.583 336.614 411.074 419.172 474.504 356.153 509.667 527.696 348.226 462.874 551.829 408.780 347.188 390.399 191.964 405.347 455.439 288.371 542.188 371.309 509.198 592.213 443.184 560.278 430.908 463.377 395.765 330.649 426.077 535.504 425.750 407.011 326.088 193.011 407.461 418.127 379.127 295.159 474.728 444.314 383.565 363.374 305.090 430.299 551.270 457.695 437.829 287.034 503.266 337.582 489.887 132.763 628.258 435.343 645.845 478.212 60.966 330.181 468.606 137.538 365.743 653.229 423.631 418.041 471.525 498.052 643.941 205.478 429.974 328.040 477.843 556.110 365.694 159.681 574.615 529.551 131.504 551.434 578.867 383.561 191.852 456.988 400.739 413.484 568.046 355.550 439.798 391.403 167.601 344.533 348.536 377.137 659.064 352.931 0.000 327.666 308.937
309.413 165.840 153.428 400.597 328.431 328.584 461.427 469.525 588.934 475.564 435.740 488.198 337.909 367.771 425.580 459.133 252.085 411.203 239.917 310.245 221.400 340.593 447.086 266.865 435.271 497.111 380.760 465.176 335.805 368.274 401.179 339.960 346.259 550.658 397.118 410.547 356.200 240.964 393.689 366.622 429.481 301.991 379.625 349.211 467.632 355.344 359.003 416.527 456.168 367.480 342.727 131.671 408.163 456.992 394.784 263.173 533.156 485.697 550.742 493.366 320.100 376.260 373.503 249.926 480.173 558.127 333.416 537.451 537.748 191.804 337.693 131.780 372.384 447.450 544.066 461.007 399.558 354.376 479.512 235.036 263.883 456.331 568.717 502.971 190.362 182.280 451.092 107.236 510.775 474.961 559.208 421.514 228.502 56.832 139.643 496.547 563.961 465.081 322.198 0.000 18.728
290.685 163.151 134.700 387.019 309.702 309.856 442.699 450.797 570.206 456.835 417.012 469.470 319.180 349.043 416.312 440.405 233.357 392.475 221.189 291.516 205.508 321.865 428.357 248.137 416.543 478.383 362.031 446.448 317.077 349.546 382.451 321.232 327.531 531.930 378.390 391.818 337.472 222.235 374.961 347.893 410.752 283.263 360.897 330.483 448.903 336.616 340.274 397.799 437.440 348.752 323.998 112.943 389.435 438.264 376.056 244.445 514.427 466.968 532.014 474.638 301.372 357.531 354.775 231.198 461.444 539.398 314.688 518.723 519.019 189.115 335.004 113.051 353.656 428.722 525.338 442.279 380.830 335.648 460.784 225.769 245.154 437.603 549.988 484.243 171.634 179.591 432.364 104.547 492.047 456.232 540.480 402.786 209.774 54.143 120.914 477.819 545.233 446.352 303.469 18.728 0.000
NODE_COORD_SECTION
1 135.757630 21.597263
2 -4926.962038 -2206.172274
3 -4341.576722 851.042135
4 -1274.096362 -4522.618885
5 -1652.603525 3458.065868
6 -2.042007 784.828763
7 1111.194905 715.861424
8 2246.581711 1397.975488
9 4442.959423 5497.887345
10 1090.067902 4745.094084
11 2879.408745 -1576.535363
12 3235.459425 -617.522632
13 441.077160 240.503549
14 985.864756 -756.807480
15 -2160.542732 -4041.246403
16 2296.066935 1293.648913
17 21.255235 -1174.118065
18 1778.819539 656.541879
19 -2200.927821 1867.977081
20 776.044334 -960.924268
21 -1757.404889 -588.639531
22 -964.959485 1736.275808
23 3498.122079 -3494.167434
24 -677.721238 -826.115134
25 2900.652508 -1574.013592
26 1570.305032 -5578.601788
27 847.567987 -91.682661
28 3779.428821 -3354.592605
29 1201.653814 -1313.312949
30 2663.007337 -2380.052338
31 1749.367633 489.546739
32 -152.996825 1341.742660
33 1024.580019 -974.870532
34 4209.163103 493.992305
35 1840.124737 -96.269832
36 45.531691 1211.977046
37 -295.084971 1823.058147
38 -2188.727359 1860.070231
39 1593.886524 -83.089107
40 1218.816766 -103.602618
41 1698.159092 1359.900538
42 -243.140942 1130.399887
43 -492.268409 -3111.087982
44 349.607149 -2469.462390
45 1696.149473 3565.267944
46 181.794898 989.585947
47 -354.743839 1083.023377
48 1800.826777 -14.644165
49 3569.904434 -2167.220135
50 -1447.329282 -1879.995676
51 355.322631 -2379.578173
52 -4610.620625 -240.213486
53 184.545044 -3615.129499
54 993.336582 4586.226045
55 1758.552073 -2308.628714
56 -3891.283497 2750.200601
57 4106.605114 -4577.434780
58 2303.300367 2512.966684
59 4488.613673 -4425.090336
60 3344.754282 834.321207
61 -2999.046368 3931.545357
62 -482.382898 2007.106919
63 1546.342133 -2151.079750
64 -2584.233487 2382.345940
65 2751.986340 3731.999598
66 2338.290511 -5426.613727
67 -1532.638004 -3136.704662
68 327.441564 4165.429332
69 2537.986391 2679.356226
70 -4591.737001 -2771.363234
71 -3817.034464 -4586.999721
72 -4224.705320 690.365741
73 725.443457 -165.466073
74 405.827780 4638.376975
75 3865.295676 3260.327465
76 1612.993056 -4553.905654
77 1348.482630 644.307620
78 -4714.316033 3311.785172
79 1935.168489 -4331.944650
80 -2992.871487 -2776.316290
81 -2798.370744 2720.836866
82 2826.372526 -3836.593592
83 3755.294334 -484.677317
84 360.974940 4291.327741
85 -3194.965410 1750.559144
86 -4926.140964 -1168.594098
87 426.352979 2921.275884
88 -4094.538039 -1346.548543
89 4004.654707 -1170.662299
90 1041.817486 4770.238467
91 2249.584997 4640.393439
92 167.578141 2324.303899
93 -2672.213709 2115.230222
94 -3843.535353 -498.094399
95 -1802.677689 -200.058341
96 1554.338986 4805.123492
97 2315.927004 -5008.314354
98 388.674993 3439.708098
99 -3519.925509 4221.312639
100 -3511.439279 -592.765189
101 -3548.170513 -493.868420
DEMAND_SECTION
1 0
2 10
3 3
4 9
5 65
6 2
7 8
8 4
9 3
10 2
11 8
12 4
13 7
14 59
15 2
16 10
17 7
18 7
19 6
20 4
21 3
22 3
23 7
24 7
25 59
26 73
27 86
28 6
29 9
30 7
31 65
32 10
33 10
34 9
35 7
36 9
37 4
38 3
39 4
40 10
41 6
42 3
43 8
44 7
45 82
46 3
47 4
48 7
49 9
50 4
51 8
52 68
53 60
54 9
55 9
56 7
57 4
58 6
59 1
60 52
61 4
62 7
63 4
64 5
65 10
66 4
67 7
68 10
69 4
70 3
71 4
72 9
73 6
74 1
75 4
76 9
77 7
78 3
79 10
80 5
81 8
82 3
83 3
84 10
85 1
86 6
87 89
88 9
89 4
90 5
91 3
92 2
93 2
94 7
95 75
96 3
97 10
98 8
99 7
100 4
101 7
DEPOT_SECTION
1
-1
EOF
