NAME : poryos-san_francisco-n100-poi
COMMENT : Poryos2026 fastest metric; city san_francisco; 3-decimal seconds/meters; ENU ref in poryos-san_francisco-n100-poi.vrp.json
TYPE : CVRP
DIMENSION : 101
EDGE_WEIGHT_TYPE : EXPLICIT
EDGE_WEIGHT_FORMAT : FULL_MATRIX
CAPACITY : 182
EDGE_WEIGHT_SECTION
0.000 333.590 702.839 145.844 431.056 137.251 851.503 65.346 51.213 577.219 74.054 80.781 179.780 140.925 143.535 108.284 503.813 204.467 101.988 140.505 127.868 157.667 226.941 82.499 976.431 399.157 919.173 146.121 163.951 41.375 594.572 253.563 181.112 589.204 682.547 750.644 87.571 981.169 136.987 123.226 170.942 897.851 223.842 124.157 588.103 108.379 205.395 51.695 144.752 635.537 575.071 216.831 195.790 966.975 131.928 126.311 151.938 155.691 467.195 106.738 119.940 988.608 276.799 743.029 630.574 48.958 196.427 187.422 22.044 655.582 882.494 35.854 132.778 76.977 378.013 574.551 585.067 133.214 158.481 703.684 137.109 244.691 214.524 942.584 153.175 281.129 577.777 176.434 179.485 83.079 56.023 100.498 87.707 248.882 247.034 667.756 442.270 135.306 106.785 77.244 94.531
320.986 0.000 508.743 417.533 151.810 433.530 1131.154 351.276 337.144 404.388 364.607 269.020 356.360 449.796 328.238 420.046 322.017 390.807 324.269 308.750 439.630 468.226 181.768 366.434 1256.082 285.606 862.470 406.463 348.654 359.055 874.223 151.521 458.857 532.500 484.058 1030.296 368.776 1260.820 255.798 434.988 481.501 841.147 186.209 404.170 374.169 424.899 464.391 314.489 416.441 915.188 854.722 171.657 371.654 1246.627 443.691 435.181 423.627 374.073 482.336 367.080 310.967 1268.259 102.602 627.023 910.225 311.752 181.504 247.789 343.030 935.234 825.790 356.840 301.023 393.497 103.255 398.829 412.237 442.084 330.515 509.588 313.398 459.287 437.440 885.880 244.882 142.463 456.960 353.468 196.115 326.779 372.543 320.168 399.470 449.285 461.630 497.840 228.336 447.069 415.655 337.567 406.293
696.687 523.160 0.000 793.233 632.554 809.230 1438.691 726.977 712.845 185.476 740.308 641.008 807.546 790.620 585.338 775.244 275.905 528.051 660.124 589.434 799.452 811.001 632.954 673.970 1563.619 442.170 1313.656 782.164 567.110 721.150 1181.759 602.707 740.773 983.686 214.338 1337.832 744.476 1568.356 585.155 794.810 817.523 1292.334 637.396 711.707 486.699 788.417 841.438 690.189 792.142 1222.725 1162.259 622.844 552.128 1554.163 798.888 769.997 799.328 652.527 489.487 742.780 743.999 1575.796 553.789 251.892 1217.762 687.452 632.690 698.975 716.050 1242.770 1276.977 732.541 624.754 769.197 480.091 213.733 217.983 797.179 583.950 113.364 594.082 524.552 605.866 1337.066 574.239 593.649 208.165 804.654 647.301 717.591 748.243 656.023 775.170 566.684 552.781 170.314 352.911 802.266 731.614 677.164 781.994
150.301 412.922 782.171 0.000 510.387 35.373 855.299 134.235 132.740 656.550 119.945 160.112 135.232 101.653 222.866 75.602 583.145 283.798 198.306 219.836 64.812 111.680 272.829 196.518 980.227 478.488 874.625 71.174 243.282 161.923 598.368 299.451 141.225 544.655 761.879 754.441 105.317 984.965 216.319 60.170 93.487 853.303 269.730 175.618 667.435 111.236 99.307 143.804 18.284 639.333 578.867 262.719 275.121 970.771 59.500 108.144 9.849 252.009 555.209 51.277 160.206 992.404 356.130 833.002 634.370 141.066 242.314 233.310 142.593 659.379 837.946 140.540 212.109 111.834 457.344 653.883 664.399 138.611 237.812 783.015 216.441 345.743 310.842 898.036 232.507 327.017 657.109 131.885 225.372 137.669 116.881 196.816 95.875 328.214 348.086 747.088 521.602 52.662 116.225 197.792 65.884
422.332 153.897 621.997 518.878 0.000 534.875 1232.500 452.622 438.490 517.643 465.953 370.365 457.705 551.141 429.583 521.392 435.271 492.153 425.615 410.096 540.976 569.572 283.113 467.779 1357.428 398.861 963.815 507.809 450.000 460.400 975.568 252.867 560.202 633.846 500.764 1131.641 470.121 1362.165 357.144 536.334 582.846 942.493 287.555 505.516 362.945 526.244 565.736 415.834 517.787 1016.534 956.068 273.003 472.999 1347.972 545.036 536.526 524.973 475.418 595.590 468.425 412.313 1369.605 203.948 740.277 1011.571 413.097 282.849 349.134 444.376 1036.579 927.136 458.186 402.369 494.842 193.201 512.083 525.491 543.429 431.860 622.842 414.744 560.632 538.786 987.226 346.228 234.202 570.214 454.814 297.460 428.125 473.888 421.514 500.815 550.630 562.976 611.094 341.590 548.414 517.001 438.913 507.639
156.356 437.963 798.936 44.418 535.428 0.000 838.651 138.950 136.436 673.315 123.398 185.154 160.273 102.715 247.907 58.955 599.910 308.840 207.969 244.877 51.866 97.553 297.870 179.871 963.579 492.153 899.666 103.097 268.324 151.764 581.720 324.492 142.287 569.697 779.461 737.793 111.117 968.317 241.360 47.223 82.178 878.344 294.771 158.970 692.476 96.818 126.304 168.845 26.133 622.686 562.219 287.760 300.163 954.124 42.853 91.496 41.849 243.884 551.599 76.318 185.247 975.757 381.172 827.434 617.723 166.108 267.356 258.352 144.431 642.731 862.987 143.993 237.150 115.114 482.385 670.648 681.164 121.964 262.854 799.780 241.482 329.095 302.716 923.077 257.548 352.059 673.874 156.927 250.414 162.710 116.860 206.479 99.155 336.131 331.439 763.853 546.643 36.014 99.577 183.142 69.337
874.331 1147.325 1438.129 880.451 1244.791 876.952 0.000 911.635 897.503 1312.508 900.486 889.111 996.307 798.714 913.078 823.853 1239.102 975.647 848.315 911.301 848.061 819.095 1073.231 816.631 343.730 1131.346 1735.700 939.131 933.494 843.661 345.541 1099.853 812.021 1405.731 1418.653 120.252 891.647 348.468 929.703 843.419 832.370 1714.378 1070.132 823.336 1380.819 858.042 943.854 886.243 862.167 290.770 349.966 1063.121 965.333 334.274 836.825 778.091 877.883 883.076 1190.792 912.352 966.231 355.907 1090.534 1466.626 419.102 883.506 1042.717 1033.713 838.562 251.761 1699.021 882.144 925.494 892.376 1191.748 1309.840 1320.357 839.257 928.024 1438.973 906.653 968.288 941.909 1759.111 945.891 1127.420 1313.067 992.960 1025.775 929.369 872.540 853.000 876.416 975.323 970.631 1403.046 1234.986 834.317 807.839 846.052 866.996
74.915 337.536 706.785 109.984 435.002 125.381 880.393 0.000 44.610 581.165 40.974 84.727 132.574 147.852 147.481 96.413 507.759 208.413 122.921 144.451 115.997 147.190 197.444 149.978 1005.321 403.103 871.967 98.914 167.897 108.854 623.461 224.065 206.559 541.997 686.493 779.534 45.143 1010.058 140.933 111.355 160.464 850.645 194.345 177.052 592.049 107.322 158.189 68.418 108.892 664.427 603.960 187.333 199.736 995.865 120.058 133.237 116.078 176.623 479.823 59.531 90.443 1017.498 280.745 757.616 659.464 65.681 166.929 157.925 89.524 684.472 835.288 69.209 136.724 89.728 381.959 578.497 589.013 163.705 162.427 707.630 141.055 283.857 235.456 895.377 157.121 251.632 581.723 129.227 149.987 62.284 80.799 121.430 75.837 252.828 286.201 671.702 446.216 123.436 141.319 132.409 82.660
57.872 320.493 689.742 110.650 417.958 126.647 891.510 34.403 0.000 564.121 52.460 67.684 133.240 159.338 130.437 107.899 490.716 191.370 105.877 127.407 127.483 158.675 180.400 132.570 1016.438 386.059 872.633 99.580 150.853 91.446 634.578 207.022 216.599 542.663 669.450 790.651 56.628 1021.175 123.890 122.841 171.950 851.311 177.301 159.644 575.006 115.747 158.855 51.375 109.558 675.544 615.078 170.290 182.693 1006.982 131.544 144.723 116.744 159.580 462.780 60.197 73.400 1028.615 263.702 740.573 670.581 48.638 149.886 140.882 72.115 695.589 835.954 51.801 119.680 84.345 364.915 561.454 571.970 159.365 145.384 690.586 124.012 266.814 218.413 896.043 140.078 234.588 564.680 129.893 132.944 45.240 63.391 104.387 87.322 235.785 269.158 654.659 429.173 134.921 136.979 115.365 94.146
559.815 387.935 176.037 656.362 497.329 672.359 1301.819 590.105 575.973 0.000 603.436 504.137 672.321 653.748 448.466 638.372 140.681 391.180 523.252 452.562 662.580 674.129 497.729 537.099 1426.747 305.298 1178.431 645.292 430.238 584.278 1044.888 467.483 603.901 848.462 177.749 1200.961 607.605 1431.485 449.930 657.938 680.652 1157.109 502.171 574.835 401.113 651.545 704.566 553.318 655.270 1085.853 1025.387 487.619 415.256 1417.291 662.016 633.125 662.456 515.655 350.883 605.909 607.128 1438.924 418.564 263.627 1080.890 550.581 497.465 563.750 579.178 1105.899 1141.752 595.669 487.882 632.326 344.866 40.496 44.746 660.308 447.079 176.881 457.210 387.680 468.994 1201.842 439.014 458.424 92.941 669.430 512.076 580.719 611.372 519.152 638.299 429.812 415.909 136.778 217.686 665.394 594.743 540.293 645.122
57.828 349.782 719.031 133.855 447.248 125.263 880.274 43.422 29.289 593.410 0.000 96.973 162.529 147.734 159.726 96.295 520.005 220.659 135.166 156.697 115.879 147.071 209.689 131.684 1005.202 415.349 901.922 121.516 180.143 90.559 623.343 236.311 206.441 571.952 698.739 779.416 62.209 1009.940 153.179 111.237 160.346 880.600 206.590 158.757 604.295 107.204 188.144 80.664 132.764 664.309 603.842 199.579 211.982 995.747 119.940 133.119 139.950 188.869 492.069 89.486 102.689 1017.380 292.991 769.862 659.346 77.927 179.175 170.171 71.229 684.354 865.243 50.914 148.969 66.710 394.205 590.743 601.259 155.564 174.673 719.875 153.301 293.875 247.702 925.333 169.367 263.878 593.969 159.182 162.233 74.530 62.504 133.676 75.718 265.074 296.218 683.948 458.462 123.318 133.177 115.321 82.542
62.949 269.646 646.811 159.495 367.111 175.492 890.801 93.239 79.107 521.190 106.570 0.000 182.085 191.758 91.052 162.009 447.785 153.621 69.127 84.477 181.593 210.189 226.932 129.436 1015.729 343.129 921.478 148.426 111.468 101.017 633.870 253.554 218.504 591.509 626.519 789.943 110.738 1020.467 80.959 176.951 223.463 900.156 223.833 163.817 532.075 166.861 207.700 56.451 158.404 674.835 614.369 216.822 143.308 1006.273 185.653 177.143 165.590 122.830 419.849 109.042 119.932 1027.906 212.854 697.642 669.872 53.714 196.418 173.221 84.993 694.881 884.799 98.803 76.750 135.459 314.068 518.523 529.039 184.046 105.999 647.656 84.627 230.064 181.663 944.889 97.147 281.121 521.749 178.738 179.476 76.582 114.505 67.637 141.432 199.035 232.407 611.728 386.242 189.031 157.618 79.530 148.256
171.805 370.015 803.675 135.842 467.480 151.839 971.765 155.739 154.244 678.054 148.392 181.617 0.000 218.119 244.370 192.068 604.649 305.303 219.810 241.340 181.278 228.146 231.833 254.304 1096.693 499.992 763.558 103.618 264.786 213.180 714.834 250.526 257.691 433.589 780.346 870.907 137.422 1101.431 237.823 176.636 209.953 742.236 225.909 285.896 673.075 214.739 133.909 165.308 134.750 755.799 695.333 221.723 296.626 1087.237 175.966 224.610 141.936 273.513 576.713 85.389 148.562 1108.870 322.389 854.506 750.836 162.571 201.319 192.315 193.849 775.845 726.879 178.053 233.613 197.145 414.437 675.387 685.903 255.078 259.317 804.519 237.945 380.747 332.346 786.969 250.974 278.093 678.613 3.347 184.377 159.173 189.643 218.320 183.254 349.718 383.090 768.592 527.242 169.128 232.691 229.298 182.350
161.348 448.374 769.093 103.781 545.839 108.043 787.826 157.133 147.982 643.472 141.580 189.294 219.637 0.000 238.301 64.946 570.067 298.074 178.811 236.524 89.155 23.808 328.383 150.027 912.754 462.310 959.030 162.461 258.717 130.678 530.895 355.004 72.659 629.061 749.617 686.967 132.741 917.492 245.500 84.513 45.274 937.708 325.284 113.660 696.616 99.136 158.162 173.286 85.497 571.860 511.394 318.272 290.557 903.298 77.918 40.671 101.213 214.040 521.756 135.682 217.789 924.931 391.583 793.384 566.897 170.549 297.868 288.864 125.579 591.905 922.351 155.540 241.291 133.469 492.796 640.805 651.321 80.351 253.247 769.937 231.876 299.252 272.873 982.441 261.688 382.571 644.031 216.290 280.926 193.223 123.020 177.320 117.510 306.287 301.595 734.010 550.783 75.411 70.419 153.984 108.090
151.362 351.306 589.608 247.909 448.771 263.906 936.911 181.652 167.520 463.987 194.983 104.014 270.498 263.553 0.000 233.906 390.582 86.809 109.035 37.976 258.114 281.983 311.591 175.546 1061.839 285.925 1009.892 236.839 44.656 172.812 679.980 338.213 264.614 679.922 570.133 836.053 199.152 1066.577 105.748 253.472 295.258 988.569 308.492 209.927 552.490 247.079 296.113 144.865 246.817 720.945 660.479 301.481 65.292 1052.384 257.550 248.938 254.003 108.320 362.646 197.456 207.005 1074.016 294.515 640.439 715.982 142.128 281.076 254.881 167.712 740.991 973.212 187.216 94.584 222.645 395.728 461.320 471.836 255.841 17.090 590.452 37.583 211.963 177.723 1033.302 117.562 365.779 464.546 267.152 264.134 173.797 201.691 104.934 229.846 151.759 214.307 554.525 406.657 260.928 217.309 139.015 236.669
134.996 430.963 773.469 61.092 528.428 57.593 813.184 117.591 115.076 647.848 102.038 178.154 176.948 80.644 233.919 0.000 574.443 294.852 182.502 232.142 28.702 72.230 290.870 154.403 938.112 466.686 916.341 119.772 254.336 126.297 556.253 317.492 139.350 586.372 753.993 712.326 90.911 942.850 234.360 24.060 77.680 895.019 287.771 133.502 685.476 71.351 140.130 158.650 42.808 597.218 536.752 280.760 286.175 928.656 28.138 66.029 58.524 218.416 526.132 92.993 178.247 950.289 374.172 801.966 592.255 155.913 260.356 251.351 118.963 617.264 879.662 122.633 230.150 93.927 475.385 645.181 655.697 96.496 248.866 774.313 227.494 303.628 277.249 939.752 250.548 345.058 648.407 173.601 243.414 155.710 98.974 181.012 77.968 310.664 305.971 738.386 539.643 31.516 74.110 157.675 54.044
486.782 311.602 268.566 583.329 420.996 599.326 1228.786 517.072 502.940 163.821 530.403 431.104 595.988 580.715 375.433 565.339 0.000 318.147 450.219 379.529 589.547 601.096 421.396 464.066 1353.714 232.265 1102.098 572.259 357.205 511.245 971.855 391.150 530.868 772.128 243.490 1127.928 534.572 1358.452 373.597 584.905 607.619 1080.776 425.838 501.802 353.433 578.512 631.533 480.285 582.237 1012.820 952.354 411.286 342.223 1344.258 588.983 560.092 589.423 442.622 278.921 532.876 534.095 1365.891 342.231 378.357 1007.857 477.548 421.132 487.417 506.145 1032.866 1065.419 522.636 414.849 559.293 268.533 158.261 171.670 587.275 374.046 269.410 384.177 314.647 395.961 1125.509 362.681 382.091 202.464 593.096 435.743 507.686 538.339 446.119 565.266 356.779 342.876 257.662 141.353 592.361 521.710 467.260 572.089
182.774 402.865 516.608 279.320 500.331 295.317 965.095 213.064 198.932 390.987 226.395 142.662 301.910 294.965 64.516 265.317 317.582 0.000 137.219 89.535 289.525 313.395 349.071 203.730 1090.023 212.925 1041.303 268.251 46.289 204.224 708.163 375.692 292.798 711.334 497.133 864.236 230.563 1094.760 157.307 284.883 326.669 1019.981 345.972 238.111 527.724 278.491 327.525 176.276 278.229 749.129 688.663 338.960 49.060 1080.567 288.961 280.350 285.414 136.504 288.168 228.867 242.070 1102.200 346.074 567.439 744.166 173.539 318.556 306.440 199.124 769.174 1004.624 218.628 146.143 254.056 442.825 388.320 398.836 287.253 79.178 517.452 84.887 130.946 111.584 1064.714 168.397 403.259 391.546 298.563 301.614 205.208 233.103 133.118 261.257 64.950 133.290 481.525 372.387 292.339 245.493 167.199 268.081
82.897 331.246 649.032 198.259 428.711 206.789 846.608 118.054 103.921 523.411 136.111 61.600 220.848 173.241 78.395 157.494 450.006 137.736 0.000 76.617 181.703 193.622 268.009 85.243 971.536 345.349 960.242 187.189 98.811 96.682 589.677 294.631 174.311 630.272 629.557 745.750 140.279 976.274 98.956 177.061 206.896 938.919 264.910 119.625 550.071 170.668 246.464 76.400 195.809 630.643 570.176 257.899 130.650 962.081 181.139 152.618 204.353 76.460 408.375 147.806 161.008 983.714 274.455 684.210 625.680 73.663 237.495 228.490 91.583 650.688 923.562 116.798 94.746 146.515 375.668 520.744 531.260 179.430 93.341 649.876 71.969 185.871 135.293 983.652 115.144 322.197 523.970 217.502 220.553 124.147 125.561 4.685 157.245 182.152 188.215 613.949 404.238 184.517 113.865 35.571 164.069
118.427 313.330 578.002 214.974 410.795 230.971 903.976 148.717 134.585 452.381 162.048 66.038 237.563 230.618 26.966 200.970 378.976 89.535 76.100 0.000 225.179 249.048 273.615 142.611 1028.904 274.319 976.956 203.904 47.382 139.877 647.045 300.237 231.679 646.987 558.527 803.118 166.217 1033.642 67.772 220.537 262.323 955.634 270.516 176.992 514.514 214.144 263.178 111.930 213.882 688.010 627.544 263.505 69.966 1019.448 224.615 216.003 221.068 75.385 351.040 164.521 169.029 1041.081 256.539 628.833 683.047 109.193 243.100 216.905 134.777 708.056 940.277 154.281 56.608 189.710 357.752 449.714 460.230 222.906 21.765 578.846 4.648 214.690 145.248 1000.367 79.586 327.803 452.940 234.217 226.158 140.861 168.756 71.999 196.910 150.597 217.033 542.919 368.681 227.993 184.374 106.080 203.734
120.050 416.017 778.868 53.756 513.482 28.891 847.552 102.645 100.130 653.247 87.092 163.208 169.611 115.012 225.961 67.475 579.842 286.894 187.833 222.931 0.000 106.453 275.924 159.802 972.480 472.085 909.005 112.436 246.377 125.720 590.621 302.546 163.870 579.035 759.392 746.694 74.811 977.218 219.414 25.165 91.079 887.683 272.825 144.851 670.530 77.887 140.796 143.704 40.929 631.586 571.120 265.814 278.217 963.025 51.753 100.397 51.187 223.815 531.531 85.656 163.301 984.657 359.226 807.365 626.623 140.967 245.410 236.405 108.947 651.632 872.326 107.687 215.204 78.808 460.439 650.580 661.096 123.574 240.908 779.712 219.536 309.027 282.648 932.415 235.602 330.112 653.806 166.265 228.468 140.764 80.554 186.343 62.849 316.062 311.370 743.785 524.697 44.915 101.188 163.074 33.031
187.883 474.909 782.357 107.954 572.374 112.216 803.241 183.668 174.517 656.737 168.115 215.829 223.810 26.535 259.881 91.481 583.331 320.168 195.118 258.104 115.690 0.000 354.918 165.866 928.169 475.575 963.203 166.634 280.297 157.213 546.310 381.539 76.832 633.234 762.882 702.383 159.276 932.907 272.036 111.048 65.584 941.881 351.819 129.499 723.151 125.671 162.335 199.821 89.670 587.276 526.809 344.807 312.136 918.714 104.453 62.764 105.386 229.879 535.020 139.855 244.324 940.347 418.118 797.557 582.313 197.084 324.403 315.399 152.114 607.321 926.524 182.075 267.826 160.004 519.331 654.069 664.586 106.886 274.827 783.202 253.456 315.091 288.712 986.614 288.223 409.106 657.295 220.463 307.461 219.758 149.555 199.414 144.045 322.126 317.434 747.275 577.318 101.946 92.512 176.077 134.625
226.608 191.556 629.190 289.436 289.021 305.433 1072.565 223.180 209.047 524.836 236.511 236.420 244.137 343.389 299.173 291.950 442.464 360.105 274.613 284.602 311.534 342.726 0.000 309.107 1197.493 406.054 783.016 278.366 319.589 267.983 815.634 72.067 397.654 453.046 604.505 971.707 240.679 1202.231 250.381 306.891 356.000 761.693 29.348 340.699 494.616 296.802 337.641 220.111 288.344 856.599 796.133 29.362 347.506 1188.037 315.594 328.774 295.530 328.316 602.783 238.983 177.088 1209.670 197.684 747.470 851.636 217.374 47.625 124.480 248.652 876.644 746.337 232.856 276.875 265.400 235.978 519.276 532.684 340.421 306.367 630.035 289.250 435.139 387.149 806.426 240.209 99.634 577.407 241.246 62.236 192.900 244.446 273.123 271.373 404.521 437.483 618.287 348.783 318.972 318.034 284.101 278.197
102.959 386.236 677.039 189.644 483.701 182.397 794.403 140.264 126.131 551.419 140.357 130.555 254.699 148.785 151.989 133.046 478.013 212.628 90.076 150.211 157.254 169.166 301.860 0.000 919.331 370.256 994.092 206.656 172.405 72.290 537.472 328.481 120.973 664.123 657.564 693.545 147.349 924.069 168.614 152.612 182.441 972.770 298.761 69.872 619.730 146.219 268.681 114.620 171.360 578.437 517.971 291.749 204.244 909.875 156.690 128.162 187.076 102.544 429.702 181.656 194.859 931.508 329.445 696.462 573.474 111.883 271.345 262.341 67.190 598.482 957.413 110.773 164.404 122.123 430.658 548.751 559.267 154.981 166.935 677.884 145.563 207.198 161.377 1017.503 184.802 356.048 551.977 251.352 254.403 157.997 101.169 94.761 132.853 214.234 209.542 641.956 473.897 160.068 89.416 87.750 139.676
978.846 1251.840 1542.643 984.966 1349.305 981.467 354.080 1016.150 1002.017 1417.022 1005.001 993.626 1100.822 903.228 1017.592 928.367 1343.617 1080.162 952.829 1015.815 952.576 923.610 1177.746 921.145 0.000 1235.860 1840.215 1043.646 1038.009 948.176 496.468 1204.368 916.535 1510.245 1523.168 323.877 996.162 22.327 1034.218 947.934 936.884 1818.893 1174.647 927.850 1485.334 962.557 1048.368 990.758 966.682 476.410 476.967 1167.636 1069.848 152.614 941.339 882.605 982.398 987.591 1295.306 1016.867 1070.745 135.135 1195.049 1571.141 567.379 988.021 1147.231 1138.227 943.076 461.751 1803.536 986.659 1030.008 996.890 1296.262 1414.355 1424.871 943.772 1032.539 1543.487 1011.167 1072.802 1046.423 1863.625 1050.406 1231.934 1417.581 1097.475 1130.289 1033.883 977.055 957.514 980.931 1079.838 1075.146 1507.560 1339.501 938.832 912.353 950.566 971.511
382.051 285.803 427.957 478.598 395.198 494.595 1121.414 412.341 398.209 302.336 425.672 326.373 501.187 473.343 270.702 457.967 228.931 213.415 345.488 274.798 482.176 493.724 395.597 356.694 1246.342 0.000 1076.299 467.528 252.474 403.873 864.483 365.351 423.496 746.330 408.482 1020.556 429.841 1251.080 300.635 477.534 500.247 1054.977 400.039 394.430 327.634 471.141 526.802 375.554 477.506 905.448 844.982 385.487 237.492 1236.887 481.612 452.720 484.692 335.251 253.722 428.145 429.363 1258.519 303.975 478.788 900.485 372.817 395.334 444.223 398.773 925.494 1039.620 417.905 310.118 453.706 242.735 299.669 310.185 479.903 269.315 428.801 279.446 207.275 288.589 1099.710 289.719 356.293 302.895 497.840 409.944 402.955 432.752 341.387 460.534 252.048 235.504 392.874 181.801 484.989 414.338 359.888 467.358
894.301 844.196 1281.831 858.339 941.662 874.335 1694.262 878.235 876.741 1177.476 870.888 904.113 748.375 940.615 966.867 914.565 1095.104 1027.799 942.307 963.837 903.775 950.643 756.882 976.801 1819.189 1058.694 0.000 826.114 987.283 935.676 1437.330 724.707 980.187 457.990 1257.145 1593.403 859.918 1823.927 937.401 899.133 932.450 77.939 755.201 1008.392 1147.256 937.236 856.406 887.804 857.247 1478.296 1417.829 746.926 1019.122 1809.734 898.463 947.106 864.433 996.010 1255.423 807.886 848.436 1831.367 863.781 1400.110 1473.333 885.067 756.772 833.627 916.346 1498.341 293.056 900.549 956.110 919.642 888.619 1171.916 1185.325 977.574 981.813 1282.675 960.441 1103.243 1054.842 132.185 927.228 752.274 1230.048 745.483 771.383 879.199 912.140 940.816 905.751 1072.214 1105.587 1270.927 1001.423 891.625 955.188 951.795 904.846
136.816 399.437 768.686 71.174 496.902 93.193 913.119 105.967 112.074 643.065 90.415 146.628 102.480 159.473 209.381 133.423 569.660 270.313 184.821 206.351 122.633 169.501 259.344 205.887 1038.047 465.003 841.873 0.000 229.797 164.762 656.188 285.966 199.045 511.903 748.394 812.261 63.163 1042.785 202.834 117.991 151.308 820.551 256.245 232.960 653.950 156.762 99.833 130.319 76.104 697.154 636.687 249.234 261.637 1028.592 117.321 165.964 81.023 238.524 541.724 37.792 146.721 1050.225 342.646 819.517 692.191 127.582 228.830 219.825 145.432 717.199 805.194 133.699 198.624 139.168 443.859 640.398 650.914 196.432 224.328 769.530 202.956 345.758 297.357 865.283 219.022 313.532 643.624 99.133 211.888 124.184 136.707 183.331 125.277 314.729 348.101 733.603 508.117 110.482 174.045 194.309 110.830
140.620 360.712 555.667 237.167 458.177 253.164 926.169 170.911 156.778 430.046 184.242 100.509 259.757 252.812 22.363 223.164 356.641 46.289 98.293 47.382 247.372 271.242 306.917 164.805 1051.097 251.984 999.150 226.097 0.000 162.071 669.238 333.539 253.872 669.180 536.192 825.311 188.410 1055.835 115.154 242.730 284.516 977.828 303.818 199.186 561.896 236.337 285.372 134.123 236.075 710.204 649.737 296.807 35.975 1041.642 246.808 238.197 243.261 97.579 327.227 186.714 199.917 1063.275 303.921 606.498 705.241 131.386 276.403 264.287 156.971 730.249 962.471 176.475 103.990 211.903 405.134 427.379 437.895 245.100 37.025 556.511 42.734 171.443 142.749 1022.561 126.320 361.106 430.605 256.410 259.461 163.055 190.949 94.193 219.104 111.239 173.787 520.584 411.446 250.186 206.567 128.273 225.928
92.627 379.653 726.304 159.952 477.118 154.445 847.791 128.473 114.341 600.684 128.567 120.573 244.366 133.001 169.580 103.353 527.278 230.512 122.191 167.803 127.562 151.431 291.527 94.272 972.719 419.521 983.760 194.866 189.996 0.000 590.860 318.149 173.379 653.790 706.829 746.933 135.559 977.457 176.779 122.919 164.706 962.438 288.428 116.424 627.895 116.527 238.989 104.565 141.667 631.825 571.359 281.417 221.835 963.264 126.998 118.386 157.383 175.083 478.967 171.324 184.527 984.896 322.862 754.802 626.862 101.828 261.013 252.008 56.858 651.871 947.081 100.440 172.570 110.332 424.075 598.016 608.533 125.289 184.526 727.149 163.155 256.463 233.916 1007.170 192.967 345.715 601.242 241.020 244.071 147.665 89.378 120.700 106.225 263.499 258.807 691.221 482.062 130.375 98.860 97.445 127.520
630.363 903.358 1194.161 636.484 1000.823 632.985 342.687 667.667 653.535 1068.540 656.519 645.143 752.339 554.746 669.110 579.885 995.135 731.679 604.347 667.333 604.093 575.127 829.264 572.663 497.851 887.378 1491.732 695.163 689.526 599.694 0.000 855.885 568.053 1161.763 1174.686 259.392 647.680 502.588 685.736 599.451 588.402 1470.410 826.165 579.368 1136.852 614.075 699.886 642.276 618.199 74.405 82.286 819.153 721.366 488.395 592.857 534.123 633.915 639.108 946.824 668.384 722.263 510.028 846.566 1222.658 136.303 639.539 798.749 789.745 594.594 160.033 1455.053 638.177 681.526 648.408 947.780 1065.873 1076.389 595.290 684.057 1195.005 662.685 724.320 697.941 1515.143 701.924 883.452 1069.099 748.993 781.807 685.401 628.573 609.032 632.449 731.356 726.663 1159.078 991.019 590.350 563.871 602.084 623.028
246.009 154.450 592.084 308.837 251.915 324.834 1091.966 242.580 228.448 487.729 255.911 255.820 241.882 362.789 318.574 311.350 405.358 379.506 294.014 304.003 330.934 362.127 67.290 328.508 1216.893 368.947 747.991 297.767 338.990 287.383 835.034 0.000 417.055 418.022 567.398 991.107 260.080 1221.631 269.782 326.292 375.401 726.669 71.731 360.100 457.510 316.203 349.913 239.511 307.745 876.000 815.533 57.179 366.907 1207.438 334.995 348.174 314.931 347.717 565.677 258.384 196.489 1229.071 174.035 710.364 871.037 236.774 67.026 143.881 268.053 896.045 711.312 252.256 296.276 284.801 198.872 482.170 495.578 359.821 325.768 592.928 308.651 454.540 406.550 771.402 259.610 27.566 540.301 238.990 81.637 212.301 263.847 292.524 290.774 423.922 456.883 581.180 311.677 338.373 337.435 303.502 297.597
181.351 451.912 705.525 149.259 549.378 153.521 783.095 187.114 172.981 579.904 187.208 193.698 265.114 89.692 215.607 126.525 506.499 270.199 152.902 213.829 150.734 112.648 353.382 100.353 908.023 398.742 1004.507 207.938 236.023 150.681 526.164 380.003 0.000 674.538 686.050 682.237 194.199 912.761 234.291 146.092 106.889 983.185 350.283 62.988 685.407 139.699 203.640 191.467 130.974 567.129 506.663 343.271 267.862 898.567 147.653 88.919 146.690 164.864 458.188 181.159 246.381 920.200 395.121 720.725 562.166 188.730 322.867 313.863 145.581 587.174 967.828 180.539 230.081 168.973 496.335 577.237 587.753 139.048 230.553 706.370 209.181 272.875 223.697 1027.918 250.479 407.570 580.463 261.768 305.925 218.222 148.019 157.587 157.084 262.325 275.218 670.442 539.574 145.146 82.896 150.639 169.669
592.074 541.969 979.603 556.111 639.434 572.108 1392.034 576.008 574.513 875.248 568.661 601.885 446.147 638.388 664.639 612.337 792.877 725.571 640.079 661.609 601.547 648.415 454.654 674.573 1516.962 756.466 460.972 523.887 685.055 633.449 1135.103 422.480 677.960 0.000 954.917 1291.176 557.691 1521.700 635.173 596.905 630.222 439.650 452.973 706.165 845.029 635.008 554.178 585.577 555.019 1176.068 1115.602 444.698 716.895 1507.506 596.235 644.879 562.205 693.782 953.196 505.658 546.209 1529.139 561.554 1097.883 1171.105 582.840 454.545 531.400 614.118 1196.114 424.293 598.322 653.882 617.414 586.391 869.689 883.097 675.346 679.585 980.448 658.214 801.016 752.615 484.383 625.001 450.046 927.820 443.256 469.156 576.971 609.912 638.589 603.523 769.987 803.359 968.699 699.196 589.397 652.960 649.567 602.619
657.993 485.115 225.312 754.540 503.104 770.537 1399.997 688.283 674.151 177.749 701.614 602.315 769.501 751.926 546.644 736.550 237.861 489.358 621.430 550.740 760.758 772.307 594.909 635.277 1524.925 403.476 1275.611 743.470 528.416 682.456 1143.066 564.663 702.079 945.642 0.000 1299.139 705.783 1529.663 547.110 756.116 778.830 1254.289 599.351 673.013 321.440 749.723 802.744 651.496 753.448 1184.031 1123.565 584.799 513.434 1515.469 760.194 731.303 760.634 613.833 455.483 704.087 705.306 1537.102 515.744 364.965 1179.068 648.759 594.645 660.930 677.356 1204.077 1238.932 693.847 586.060 730.504 442.046 206.005 188.709 758.486 545.257 234.035 555.388 485.858 567.172 1299.022 536.194 555.604 210.729 766.610 609.256 678.897 709.550 617.330 736.477 527.990 514.087 217.231 314.866 763.572 692.921 638.471 743.300
768.707 1041.701 1332.505 774.828 1139.167 771.329 119.619 806.011 791.879 1206.884 794.863 783.487 890.683 693.090 807.454 718.229 1133.479 870.023 742.691 805.677 742.437 713.471 967.607 711.007 321.159 1025.722 1630.076 833.507 827.870 738.038 260.475 994.229 706.397 1300.107 1313.029 0.000 786.024 325.897 824.080 737.795 726.746 1608.754 964.508 717.712 1275.196 752.419 838.230 780.619 756.543 205.704 264.900 957.497 859.710 311.704 731.201 672.467 772.259 777.452 1085.168 806.728 860.607 333.337 984.910 1361.002 334.037 777.882 937.093 928.089 732.938 166.695 1593.397 776.521 819.870 786.752 1086.124 1204.217 1214.733 733.633 822.400 1333.349 801.029 862.664 836.285 1653.487 840.268 1021.796 1207.443 887.337 920.151 823.745 766.916 747.376 770.793 869.700 865.007 1297.422 1129.363 728.694 702.215 740.428 761.372
77.450 356.177 725.426 112.734 453.642 111.658 866.670 42.804 48.912 599.805 27.252 103.367 135.324 134.130 166.121 82.691 526.400 227.053 141.561 163.091 102.275 133.467 216.084 142.724 991.598 421.743 874.717 92.862 186.537 101.599 609.739 242.706 192.836 544.748 705.134 765.812 0.000 996.336 159.574 97.633 146.741 853.395 212.985 169.797 610.690 93.599 160.939 87.059 111.643 650.704 590.238 205.974 218.376 982.142 106.335 119.515 118.829 195.264 498.464 62.281 103.461 1003.775 299.386 776.257 645.741 84.322 185.569 176.565 82.269 670.750 838.038 70.536 155.364 76.005 400.599 597.138 607.654 149.982 181.067 726.270 159.696 302.498 254.097 898.128 175.762 270.272 600.364 131.977 168.627 80.924 73.544 140.071 62.114 271.469 304.841 690.343 464.857 109.713 127.596 134.943 68.938
978.400 1251.394 1542.198 984.520 1348.860 981.021 353.635 1015.704 1001.572 1416.577 1004.555 993.180 1100.376 902.783 1017.147 927.922 1343.172 1079.716 952.384 1015.370 952.130 923.164 1177.300 920.700 22.327 1235.415 1839.769 1043.200 1037.563 947.730 496.023 1203.922 916.090 1509.800 1522.722 323.431 995.716 0.000 1033.773 947.488 936.439 1818.447 1174.201 927.405 1484.888 962.111 1047.923 990.312 966.236 475.964 476.522 1167.190 1069.402 152.169 940.894 882.160 981.952 987.145 1294.861 1016.421 1070.300 134.689 1194.603 1570.695 566.933 987.575 1146.786 1137.782 942.631 461.306 1803.090 986.213 1029.563 996.445 1295.817 1413.910 1424.426 943.326 1032.093 1543.042 1010.722 1072.357 1045.978 1863.180 1049.960 1231.489 1417.136 1097.029 1129.844 1033.438 976.609 957.069 980.485 1079.392 1074.700 1507.115 1339.055 938.387 911.908 950.121 971.065
117.290 255.978 574.876 213.837 353.443 229.833 915.255 147.580 133.448 470.521 160.911 61.612 236.426 242.427 97.674 212.779 388.150 160.243 96.094 70.708 235.934 260.857 242.628 150.535 1040.183 302.263 955.327 202.767 118.090 151.686 658.324 269.250 242.958 625.358 550.190 814.397 165.079 1044.921 0.000 231.292 274.132 934.005 239.529 188.271 455.746 221.202 262.041 110.793 212.745 699.289 638.823 232.518 133.472 1030.727 236.424 227.812 219.931 145.898 399.279 163.384 164.602 1052.360 199.187 677.073 694.326 108.056 212.114 185.918 137.132 719.334 918.648 153.144 49.606 189.800 300.400 464.961 478.370 234.715 92.472 575.720 75.356 243.388 209.265 978.738 20.818 296.816 501.179 233.079 195.172 138.194 168.847 91.993 195.773 221.110 245.731 563.972 309.913 239.802 204.368 126.074 202.597
124.692 420.659 783.510 58.398 518.124 33.533 852.194 107.287 104.772 657.889 91.734 167.850 174.253 119.654 230.603 72.117 584.484 291.536 192.475 227.573 4.642 111.095 280.566 164.444 977.122 476.727 913.647 117.078 251.019 130.362 595.263 307.188 168.512 583.677 764.034 751.336 79.453 981.860 224.056 0.000 95.721 892.325 277.467 149.493 675.172 82.529 145.438 148.346 45.571 636.228 575.762 270.456 282.859 967.667 56.395 105.039 55.829 228.457 536.173 90.298 167.943 989.299 363.868 812.007 631.265 145.609 250.052 241.047 113.589 656.274 876.968 112.329 219.846 83.450 465.081 655.222 665.738 128.217 245.550 784.354 224.178 313.669 287.290 937.057 240.244 334.754 658.448 170.907 233.110 145.406 85.196 190.985 67.491 320.704 316.012 748.427 529.339 49.557 105.830 167.716 37.673
195.475 487.873 801.699 94.328 585.339 98.590 822.583 179.669 175.556 676.079 164.116 235.064 210.183 56.602 279.223 87.483 602.673 339.510 214.460 277.446 98.789 52.952 347.781 185.208 947.511 494.916 949.577 153.007 299.639 177.858 565.652 374.402 96.174 619.607 782.224 721.725 155.277 952.249 291.270 94.147 0.000 928.254 344.682 148.841 742.386 125.346 148.709 218.755 76.043 606.618 546.151 337.670 331.478 938.056 77.153 82.106 91.759 249.221 554.362 126.228 235.158 959.689 431.082 816.899 601.655 216.018 317.266 308.262 170.525 626.663 912.897 183.113 287.061 156.006 532.296 673.411 683.927 128.259 294.169 802.544 272.798 334.433 308.054 972.987 307.458 401.969 676.637 206.837 300.324 212.621 150.593 218.756 140.046 341.468 336.776 766.616 596.553 71.722 111.854 195.419 130.626
872.051 821.946 1259.580 836.088 919.411 852.085 1672.011 855.985 854.490 1155.225 848.638 881.862 726.124 918.365 944.616 892.314 1072.854 1005.548 920.056 941.586 881.524 928.392 734.631 954.550 1796.939 1036.443 75.323 803.864 965.032 913.425 1415.080 702.457 957.937 435.739 1234.894 1571.152 837.668 1801.677 915.150 876.882 910.199 0.000 732.950 986.142 1125.006 914.985 834.155 865.554 834.996 1456.045 1395.579 724.675 996.871 1787.483 876.212 924.856 842.182 973.759 1233.172 785.635 826.186 1809.116 841.531 1377.860 1451.082 862.817 734.522 811.376 894.095 1476.090 289.523 878.299 933.859 897.391 866.368 1149.665 1163.074 955.323 959.562 1260.424 938.191 1080.993 1032.592 75.217 904.978 730.023 1207.797 723.233 749.132 856.948 889.889 918.566 883.500 1049.964 1083.336 1248.676 979.173 869.374 932.937 929.544 882.596
213.986 186.473 624.107 276.814 283.938 292.811 1059.943 210.558 196.425 519.752 223.889 223.798 226.317 330.767 286.551 279.328 437.381 347.483 261.991 271.980 298.912 330.104 15.909 296.485 1184.871 400.970 773.279 265.744 306.967 255.361 803.012 66.984 385.032 443.310 599.421 959.085 228.057 1189.609 237.759 294.269 343.378 751.957 0.000 328.077 489.533 284.180 325.019 207.489 275.722 843.977 783.511 28.994 334.884 1175.415 302.972 316.152 282.908 315.694 597.700 226.361 164.466 1197.048 185.062 742.387 839.014 204.752 35.003 111.858 236.030 864.022 736.600 220.234 264.253 252.778 230.895 514.193 527.601 327.799 293.745 624.951 276.628 422.517 374.527 796.690 227.587 94.550 572.324 223.425 49.614 180.278 231.824 260.501 258.751 391.899 424.861 613.203 343.700 306.350 305.412 271.479 265.575
129.951 400.512 691.316 131.724 497.978 128.225 761.352 135.714 121.582 565.695 135.808 142.298 247.580 90.501 166.265 75.125 492.290 228.834 101.502 164.488 99.334 110.883 301.982 72.250 886.280 384.533 986.973 190.404 186.681 99.281 504.421 328.604 89.982 657.003 671.841 660.493 142.800 891.018 182.891 94.692 124.157 965.651 298.883 0.000 634.007 88.299 210.761 140.067 113.440 545.386 484.920 291.872 218.521 876.824 98.770 69.878 129.156 136.263 443.979 163.625 194.981 898.457 343.721 719.813 540.423 137.330 271.467 262.463 94.181 565.431 950.294 129.139 178.681 117.573 444.935 563.028 573.544 97.061 181.211 692.160 159.840 221.475 195.096 1010.383 199.079 356.170 566.254 244.233 254.525 166.822 96.619 106.187 105.684 228.511 223.818 656.233 488.174 102.148 31.496 99.239 118.269
569.558 375.173 498.014 666.105 368.189 682.102 1367.523 599.848 585.716 403.770 613.179 513.880 659.559 694.695 539.298 665.047 362.316 524.908 548.362 512.332 688.202 713.125 484.967 602.803 1492.451 325.905 1165.669 655.035 559.714 603.954 1110.592 454.720 695.226 835.699 327.263 1266.665 617.348 1497.189 452.268 683.560 726.400 1144.347 489.409 640.539 0.000 673.470 714.309 563.061 665.013 1151.557 1091.091 474.857 536.754 1482.995 688.692 680.080 672.199 587.717 522.634 615.652 614.166 1504.628 405.802 632.235 1146.594 560.324 484.703 550.988 589.400 1171.603 1128.990 605.412 501.874 642.069 332.104 398.211 385.420 686.983 534.096 506.738 516.980 533.180 614.494 1189.079 441.352 445.662 456.342 656.667 499.314 590.462 621.115 544.261 648.041 569.345 561.409 504.894 268.635 692.070 656.636 578.342 654.865
113.878 414.451 767.309 101.745 511.916 76.880 847.849 108.090 93.958 641.688 101.354 161.641 214.148 117.763 223.663 66.324 568.283 284.596 176.274 221.365 77.796 117.100 274.358 148.243 972.777 460.526 953.541 156.543 244.080 114.161 590.918 300.980 176.470 623.571 747.834 746.991 97.236 977.515 217.848 73.154 130.375 932.219 271.259 133.293 668.964 0.000 188.785 137.532 88.918 631.883 571.417 264.248 275.919 963.321 89.969 103.148 99.176 212.256 519.972 133.645 167.357 984.954 357.660 795.806 626.920 134.795 243.844 234.839 97.388 651.928 916.862 101.515 213.638 67.250 458.873 639.021 649.537 112.016 238.610 768.153 217.238 297.468 271.089 976.952 234.036 328.546 642.247 210.801 226.902 139.198 68.995 174.784 51.290 304.504 299.811 732.226 523.131 92.904 89.629 151.515 72.585
198.180 460.801 830.050 94.639 558.267 123.514 922.349 182.114 180.620 704.429 174.767 207.992 132.896 156.368 270.745 155.797 631.024 331.678 246.185 267.716 152.954 169.946 320.708 276.713 1047.277 526.368 872.289 99.833 291.162 239.555 665.418 347.330 195.940 542.320 809.758 821.491 162.995 1052.015 264.198 148.312 148.202 850.967 317.609 248.607 715.314 193.661 0.000 191.683 106.426 706.383 645.917 310.598 323.001 1037.821 139.695 181.871 101.266 299.888 603.088 111.764 208.086 1059.454 404.010 880.881 701.420 188.946 290.194 281.190 220.225 726.428 835.610 204.428 259.988 206.473 505.224 701.762 712.278 218.806 285.692 830.894 264.320 407.122 358.721 895.700 280.386 374.897 704.988 129.550 273.252 185.549 211.520 244.695 190.514 376.093 409.466 794.967 569.481 132.857 196.420 255.673 160.523
6.497 327.541 691.218 152.341 425.007 143.748 858.000 71.843 57.711 565.598 80.551 69.160 186.278 147.423 131.914 114.781 492.192 192.846 88.735 128.884 134.365 164.164 233.438 88.997 982.928 387.536 925.671 152.618 152.330 47.872 601.069 260.060 187.609 595.701 670.926 757.142 94.068 987.666 125.367 129.723 177.439 904.349 230.339 130.654 576.482 114.876 211.893 0.000 151.249 642.034 581.568 223.328 184.169 973.472 138.426 132.808 158.435 142.437 464.256 113.235 126.438 995.105 270.750 742.049 637.071 28.512 202.924 193.920 28.542 662.080 888.992 42.351 121.157 83.474 371.964 562.930 573.447 139.711 146.860 692.063 125.488 249.671 201.270 949.081 141.555 287.627 566.156 182.931 185.982 89.576 62.520 87.244 94.204 237.261 252.015 656.136 430.649 141.803 113.282 63.990 101.028
149.209 411.830 781.079 18.284 509.295 22.546 837.015 133.143 131.648 655.458 118.853 159.020 134.140 83.369 221.774 57.318 582.053 282.706 197.214 218.744 51.986 93.396 271.737 178.234 961.943 477.396 873.533 76.964 242.190 150.128 580.084 298.359 122.941 543.564 760.787 736.156 104.225 966.681 215.227 47.344 75.203 852.211 268.638 157.333 666.343 95.181 105.324 142.712 0.000 621.049 560.583 261.627 274.030 952.487 41.216 89.860 15.716 242.247 549.963 50.185 159.114 974.120 355.039 825.797 616.086 139.975 241.222 232.218 141.501 641.094 836.854 139.448 211.017 110.742 456.252 652.791 663.307 120.327 236.720 781.923 215.349 327.459 301.080 896.944 231.415 325.925 656.017 130.793 224.281 136.577 115.789 195.724 94.783 327.122 329.802 745.996 520.510 34.378 97.941 181.506 64.792
669.456 942.450 1233.254 675.576 1039.916 672.077 290.299 706.760 692.628 1107.633 695.611 684.236 791.432 593.839 708.203 618.978 1034.228 770.772 643.440 706.426 643.186 614.220 868.356 611.756 466.739 926.471 1530.825 734.256 728.619 638.787 74.405 894.978 607.146 1200.856 1213.778 207.005 686.772 471.476 724.829 638.544 627.495 1509.503 865.257 618.461 1175.945 653.168 738.979 681.368 657.292 0.000 67.672 858.246 760.459 457.283 631.950 573.216 673.008 678.201 985.917 707.477 761.356 478.916 885.659 1261.751 174.068 678.631 837.842 828.838 633.687 101.422 1494.146 677.270 720.619 687.501 986.873 1104.966 1115.482 634.382 723.149 1234.098 701.778 763.413 737.034 1554.236 741.017 922.545 1108.192 788.085 820.900 724.494 667.665 648.125 671.541 770.448 765.756 1198.171 1030.112 629.443 602.964 641.177 662.121
604.492 877.486 1168.290 610.613 974.952 607.114 347.051 641.796 627.664 1042.669 630.648 619.272 726.468 528.875 643.239 554.014 969.264 705.808 578.476 641.462 578.222 549.256 803.392 546.792 471.979 861.507 1465.861 669.292 663.655 573.823 77.501 830.014 542.182 1135.892 1148.814 246.193 621.809 476.717 659.865 573.580 562.531 1444.539 800.293 553.497 1110.981 588.204 674.015 616.404 592.328 67.672 0.000 793.282 695.495 462.524 566.986 508.252 608.044 613.237 920.953 642.513 696.392 484.157 820.695 1196.787 136.542 613.667 772.878 763.874 568.723 151.131 1429.182 612.306 655.655 622.537 921.909 1040.002 1050.518 569.418 658.185 1169.134 636.814 698.449 672.070 1489.272 676.053 857.581 1043.228 723.122 755.936 659.530 602.701 583.161 606.578 705.485 700.792 1133.207 965.148 564.479 538.000 576.213 597.157
206.974 171.922 609.556 269.802 269.387 285.799 1052.931 203.545 189.413 505.201 216.876 216.785 224.503 323.754 279.539 272.315 422.830 340.471 254.979 264.968 291.899 323.092 19.838 289.473 1177.858 386.419 763.381 258.732 299.955 248.348 795.999 52.433 378.020 433.412 584.870 952.072 221.045 1182.596 230.747 287.257 336.366 742.059 28.994 321.065 474.982 277.168 318.006 200.476 268.710 836.965 776.498 0.000 327.872 1168.403 295.960 309.139 275.896 308.682 583.149 219.349 157.454 1190.036 178.050 727.836 832.002 197.739 27.991 104.846 229.018 857.010 726.702 213.221 257.241 245.766 216.344 499.642 513.050 320.786 286.733 610.400 269.616 415.505 367.515 786.792 220.575 79.999 557.773 221.611 42.602 173.266 224.812 253.489 251.739 384.887 417.848 598.652 329.149 299.338 298.400 264.467 258.562
172.460 372.395 542.603 269.007 469.861 285.003 958.009 202.750 188.618 416.982 216.081 125.103 291.596 284.651 54.203 255.003 343.577 49.060 130.133 69.966 279.212 303.081 332.680 196.644 1082.937 238.921 1030.989 257.937 35.975 193.910 701.078 359.302 285.712 701.020 523.128 857.151 220.249 1087.675 126.712 274.570 316.356 1009.667 329.581 231.025 541.484 268.177 317.211 165.963 267.915 742.043 681.577 322.570 0.000 1073.481 278.648 270.036 275.101 129.418 315.641 218.554 228.094 1095.114 315.604 593.434 737.080 163.226 302.166 275.970 188.810 762.088 994.310 208.314 115.548 243.743 416.818 414.315 424.831 276.939 48.201 543.447 69.573 174.214 148.341 1054.400 130.009 386.868 417.541 288.249 285.224 194.894 222.789 126.032 250.943 114.010 176.558 507.520 395.651 282.025 238.407 160.113 257.767
957.855 1230.849 1521.652 963.975 1328.314 960.476 333.089 995.159 981.026 1396.031 984.010 972.635 1079.831 882.237 996.602 907.376 1322.626 1059.171 931.838 994.824 931.585 902.619 1156.755 900.154 175.102 1214.869 1819.224 1022.655 1017.018 927.185 475.477 1183.377 895.544 1489.254 1502.177 302.886 975.171 179.840 1013.227 926.943 915.893 1797.902 1153.656 906.859 1464.343 941.566 1027.377 969.767 945.691 455.419 455.976 1146.645 1048.857 0.000 920.348 861.614 961.407 966.600 1274.315 995.876 1049.754 52.152 1174.058 1550.150 546.388 967.030 1126.240 1117.236 922.085 440.761 1782.545 965.668 1009.017 975.899 1275.271 1393.364 1403.880 922.781 1011.548 1522.497 990.176 1051.811 1025.433 1842.635 1029.415 1210.943 1396.590 1076.484 1109.299 1012.893 956.064 936.523 959.940 1058.847 1054.155 1486.569 1318.510 917.841 891.363 929.575 950.520
141.686 437.653 787.372 54.026 535.118 50.527 827.087 124.281 121.766 661.751 108.728 184.844 169.882 94.547 247.597 47.390 588.346 308.530 196.405 244.567 21.636 85.988 297.560 168.306 952.015 480.589 909.275 112.706 268.014 140.200 570.156 324.182 146.626 579.306 767.897 726.229 96.447 956.753 241.050 16.994 70.614 887.953 294.461 147.406 692.166 85.254 133.064 165.340 35.742 611.121 550.655 287.450 299.853 942.559 0.000 79.932 51.458 232.319 540.035 85.927 184.938 964.192 380.862 815.869 606.158 162.603 267.046 258.042 130.583 631.167 872.596 129.324 236.840 100.445 482.076 659.084 669.600 110.399 262.544 788.216 241.172 317.531 291.152 932.686 257.238 351.749 662.310 166.535 250.104 162.401 102.190 194.915 84.485 324.567 319.874 752.289 546.333 24.450 88.013 171.578 54.667
147.326 434.272 728.422 133.134 531.737 129.635 747.155 153.040 138.907 602.801 153.134 175.192 248.989 51.396 203.371 76.535 529.396 265.941 138.608 201.594 100.743 71.777 319.308 109.356 872.083 421.639 988.382 191.813 223.788 116.656 490.224 345.929 73.322 658.413 708.947 646.297 144.330 876.821 219.997 96.101 85.052 967.060 316.209 72.990 671.113 105.625 191.751 159.242 114.849 531.189 470.723 309.197 255.627 862.628 89.507 0.000 130.565 173.369 481.085 165.034 212.307 884.260 377.481 756.919 526.226 156.505 288.793 279.789 111.556 551.235 951.703 146.465 215.787 134.899 478.694 600.134 610.650 84.229 218.318 729.266 196.946 258.581 232.202 1011.793 236.185 373.496 603.360 245.643 271.851 184.148 113.945 143.293 123.010 265.617 260.925 693.339 525.280 87.000 48.822 132.387 119.678
156.395 419.016 788.265 9.849 516.481 32.805 852.731 140.329 138.834 662.644 126.039 166.206 141.326 99.085 228.960 73.034 589.239 289.892 204.400 225.930 62.244 109.112 278.923 193.950 977.659 484.582 880.719 81.023 249.376 165.844 595.799 305.545 138.657 550.750 767.973 751.872 111.411 982.396 222.413 57.602 90.919 859.397 275.824 173.049 673.529 110.897 100.165 149.898 15.716 636.765 576.299 268.813 281.216 968.203 56.932 105.575 0.000 257.963 561.303 57.371 166.300 989.836 362.225 839.096 631.802 147.161 248.408 239.404 148.687 656.810 844.040 146.634 218.203 117.928 463.438 659.977 670.493 136.043 243.906 789.109 222.535 343.175 316.796 904.130 238.601 333.111 663.203 137.979 231.467 143.763 122.975 202.910 101.969 334.308 345.518 753.182 527.696 50.094 113.657 197.222 71.978
139.025 388.573 643.394 256.403 486.039 252.905 863.252 174.182 160.049 517.773 192.238 120.285 279.534 215.181 77.162 199.805 444.367 136.504 76.596 75.385 224.013 235.562 326.694 101.832 988.180 336.611 1018.927 245.874 97.579 152.491 606.321 353.316 185.243 688.957 623.918 762.394 196.407 992.918 143.157 219.371 248.837 997.605 323.595 136.268 589.899 212.978 305.149 132.528 238.119 647.286 586.820 316.584 129.418 978.724 223.449 194.558 253.835 0.000 396.057 206.491 219.694 1000.357 331.782 671.891 642.323 129.790 296.180 287.176 147.392 667.331 982.248 172.875 131.993 202.324 432.996 515.105 525.622 221.741 92.109 644.238 70.737 172.819 96.283 1042.337 154.971 380.883 518.332 276.187 279.238 182.832 181.370 81.281 213.054 159.579 175.163 608.311 444.066 226.827 156.176 91.699 219.878
456.503 483.960 480.435 553.050 593.354 568.360 1178.707 486.793 472.661 350.638 500.124 400.825 575.639 530.636 345.154 515.260 282.233 287.868 419.444 349.250 539.468 551.017 593.754 413.987 1303.635 252.477 1274.456 541.980 326.926 461.166 921.776 563.508 480.789 944.486 462.720 1077.849 504.293 1308.373 395.734 534.826 557.540 1253.134 598.196 451.723 525.791 528.433 601.254 450.006 551.958 962.741 902.275 583.644 311.944 1294.179 538.904 510.013 559.144 392.543 0.000 502.597 503.816 1315.812 485.071 527.090 957.778 447.269 577.887 551.692 456.066 982.787 1237.777 481.549 384.570 510.999 440.891 353.908 358.487 537.196 343.767 481.279 353.898 264.152 345.882 1297.867 398.951 554.449 351.197 572.293 560.945 477.407 490.045 415.840 521.729 326.500 292.381 441.176 351.315 542.282 471.631 417.181 528.552
111.628 374.249 743.498 50.453 471.714 66.450 886.376 95.562 94.067 617.877 88.215 121.440 96.559 132.730 184.193 106.679 544.472 245.126 159.633 181.163 95.889 142.757 234.156 194.127 1011.304 439.815 835.952 39.383 204.609 153.003 629.445 260.778 172.302 505.983 723.206 785.518 65.089 1016.042 177.646 91.247 124.564 814.630 231.057 206.694 628.762 142.313 122.174 105.131 49.361 670.410 609.944 224.046 236.449 1001.848 90.577 139.221 56.547 213.336 516.536 0.000 121.533 1023.481 317.458 794.329 665.447 102.394 203.642 194.637 133.673 690.456 799.273 117.876 173.436 136.968 418.671 615.210 625.726 169.688 199.140 744.342 177.768 320.570 272.169 859.363 193.834 288.344 618.436 93.212 186.700 98.996 129.466 158.143 123.077 289.541 322.914 708.415 482.929 83.739 147.302 169.121 96.961
106.485 307.225 728.970 166.857 404.690 182.854 952.441 103.056 88.924 603.350 113.932 116.296 154.988 220.810 179.050 169.371 529.944 239.982 154.490 166.636 188.954 220.147 161.114 188.984 1077.369 425.288 873.338 155.787 199.466 147.859 695.510 187.736 277.531 543.369 708.678 851.583 118.100 1082.107 163.118 184.312 233.421 852.016 158.015 220.576 610.285 176.679 215.062 99.987 165.765 736.476 676.009 151.004 229.539 1067.914 193.015 206.195 172.951 208.193 502.008 116.404 0.000 1089.547 251.670 779.801 731.513 97.250 130.600 121.595 128.529 756.521 836.659 112.732 158.909 145.277 351.647 600.682 611.199 220.297 188.400 729.815 171.284 315.427 267.025 896.749 179.306 215.302 603.908 151.642 113.658 72.777 124.323 153.000 148.794 284.397 317.770 693.887 464.452 196.393 197.911 163.978 155.618
978.225 1251.219 1542.022 984.345 1348.684 980.846 353.459 1015.529 1001.396 1416.401 1004.380 993.005 1100.200 902.607 1016.971 927.746 1342.996 1079.541 952.208 1015.194 951.955 922.988 1177.125 920.524 161.172 1235.239 1839.594 1043.025 1037.388 947.555 495.847 1203.746 915.914 1509.624 1522.547 323.256 995.541 164.136 1033.597 947.313 936.263 1818.272 1174.026 927.229 1484.713 961.936 1047.747 990.137 966.061 475.788 476.346 1167.014 1069.227 52.152 940.718 881.984 981.776 986.969 1294.685 1016.245 1070.124 0.000 1194.427 1570.519 566.758 987.400 1146.610 1137.606 942.455 461.130 1802.915 986.038 1029.387 996.269 1295.641 1413.734 1424.250 943.151 1031.918 1542.866 1010.546 1072.181 1045.802 1863.004 1049.785 1231.313 1416.960 1096.854 1129.668 1033.262 976.434 956.893 980.310 1079.217 1074.525 1506.939 1338.880 938.211 911.732 949.945 970.890
264.182 104.401 542.035 360.729 201.866 376.726 1074.350 294.473 280.340 437.680 307.804 212.216 327.544 392.992 271.434 363.243 355.309 334.003 267.465 251.946 382.826 411.422 187.801 309.630 1199.278 303.031 882.967 349.659 291.850 302.251 817.419 172.019 402.053 552.998 517.349 973.492 311.972 1204.016 198.994 378.184 424.697 861.645 184.702 347.367 407.461 368.095 408.934 257.685 359.637 858.385 797.918 177.691 314.850 1189.823 386.887 378.377 366.823 317.269 470.608 310.276 260.494 1211.456 0.000 660.315 853.422 254.948 157.287 190.985 286.227 878.430 846.288 300.037 244.219 336.693 148.823 432.121 445.529 385.280 273.711 542.879 256.594 402.483 380.636 906.378 188.079 162.961 490.252 324.652 146.378 276.306 315.739 263.365 342.666 392.481 404.827 531.131 261.628 390.265 358.851 280.763 349.490
732.523 614.754 252.600 836.795 724.148 836.375 1446.723 767.680 753.547 273.825 783.870 684.570 859.385 797.856 628.900 783.276 367.500 571.613 687.460 632.996 807.484 819.033 724.548 682.003 1571.651 485.732 1405.250 825.726 610.672 729.182 1189.792 694.302 738.302 1075.281 363.926 1345.865 788.038 1576.389 676.749 802.842 815.052 1383.928 728.990 719.739 634.182 796.449 885.000 726.025 821.590 1230.757 1170.291 714.438 595.690 1562.195 806.920 778.029 837.306 660.559 531.317 786.342 787.561 1583.828 645.383 0.000 1225.794 723.288 724.284 790.569 724.082 1250.802 1368.571 749.565 668.316 779.015 571.685 298.277 302.527 805.212 627.512 225.540 637.644 524.264 613.898 1428.661 665.833 685.243 233.937 856.038 738.895 761.153 758.061 692.145 789.745 610.246 552.493 262.089 444.506 810.298 739.647 685.197 796.568
642.046 915.040 1205.844 648.166 1012.506 644.667 416.175 679.350 665.218 1080.223 668.201 656.826 764.022 566.429 680.793 591.568 1006.818 743.362 616.030 679.016 615.776 586.810 840.946 584.346 573.717 899.061 1503.415 706.846 701.209 611.377 134.618 867.568 579.736 1173.446 1186.368 332.880 659.362 578.455 697.419 611.134 600.085 1482.093 837.847 591.051 1148.535 625.757 711.569 653.958 629.882 171.949 135.498 830.836 733.049 564.261 604.540 545.806 645.598 650.791 958.507 680.067 733.946 585.894 858.249 1234.341 0.000 651.221 810.432 801.428 606.277 251.409 1466.736 649.860 693.209 660.091 959.463 1077.556 1088.072 606.972 695.739 1206.688 674.368 736.003 709.624 1526.826 713.607 895.135 1080.782 760.675 793.490 697.084 640.255 620.715 644.131 743.038 738.346 1170.761 1002.702 602.033 575.554 613.767 634.711
37.237 312.636 681.885 136.236 410.101 146.854 888.740 44.391 30.259 556.264 62.448 59.826 158.826 168.057 122.580 117.887 482.859 183.512 90.803 119.550 137.471 167.394 205.986 119.737 1013.668 378.202 898.219 125.166 142.996 78.612 631.809 232.608 218.350 568.249 661.593 787.882 66.616 1018.406 116.033 132.829 180.668 876.897 202.887 161.395 567.149 118.013 184.441 30.740 135.144 672.774 612.308 195.876 174.835 1004.213 141.531 153.442 142.330 144.506 454.923 85.783 98.986 1025.845 255.844 732.716 667.811 0.000 175.472 166.468 59.282 692.820 861.540 46.742 111.823 86.611 357.058 553.597 564.113 161.632 137.526 682.729 116.155 251.740 203.339 921.630 132.221 260.175 556.823 155.479 158.530 62.124 65.658 89.313 97.310 227.928 254.084 646.802 421.316 144.909 139.246 94.730 104.134
188.996 176.625 614.259 251.824 274.090 267.821 1034.953 185.568 171.436 509.905 198.899 198.808 206.526 305.777 261.561 254.338 427.533 322.494 237.001 246.991 273.922 305.114 30.515 271.496 1159.881 391.123 768.085 240.755 281.978 230.371 778.022 57.136 360.042 438.115 589.574 934.095 203.067 1164.619 212.769 269.280 318.389 746.763 27.416 303.087 479.685 259.190 300.029 182.499 250.733 818.987 758.521 20.404 309.894 1150.426 277.982 291.162 257.919 290.704 573.301 201.371 139.477 1172.058 160.072 732.539 814.024 179.762 0.000 86.868 211.041 839.033 731.406 195.244 239.264 227.788 221.047 504.345 517.754 302.809 268.755 615.104 251.639 397.528 349.537 791.495 202.597 84.703 562.476 203.634 24.624 155.288 206.834 235.511 233.761 366.909 399.871 603.356 333.852 281.360 280.422 246.489 240.585
161.775 256.447 694.081 224.603 353.912 240.600 1007.732 158.347 144.214 589.726 171.678 171.587 179.304 278.556 234.340 227.117 507.355 295.273 209.780 220.490 246.701 277.893 135.786 244.274 1132.660 454.815 871.831 213.533 254.756 203.150 750.801 162.407 332.821 541.862 669.395 906.874 175.846 1137.398 186.269 242.059 291.168 850.509 132.687 275.866 559.507 231.969 272.808 155.278 223.511 791.766 731.300 125.675 283.394 1123.204 250.761 263.941 230.697 263.483 555.863 174.150 112.255 1144.837 199.656 812.361 786.803 152.541 105.271 0.000 183.820 811.812 835.152 168.023 212.763 200.567 300.869 584.167 597.575 275.588 242.255 694.926 225.138 370.717 322.316 895.242 176.097 189.974 642.298 176.413 88.329 128.067 179.613 208.290 206.540 339.688 373.061 683.177 413.674 254.139 253.201 219.268 213.364
35.769 341.319 707.887 123.800 438.784 115.207 854.918 73.074 58.941 582.266 73.167 85.829 187.509 136.378 148.582 86.239 508.861 209.515 105.403 145.553 105.823 135.715 234.670 85.914 979.846 404.205 926.902 139.466 168.999 44.790 597.987 261.291 182.701 596.933 687.595 754.059 80.159 984.584 142.035 101.181 148.989 905.580 231.571 125.746 593.151 86.334 213.124 59.423 122.708 638.952 578.486 224.559 200.838 970.390 109.884 121.763 129.894 159.106 470.610 114.466 127.669 992.023 284.528 746.444 633.989 56.686 204.155 195.151 0.000 658.997 890.223 43.583 137.825 54.933 385.741 579.599 590.115 129.953 163.529 708.731 142.157 248.106 217.939 950.313 158.223 288.858 582.825 184.162 187.213 90.807 33.979 103.913 65.663 253.930 250.449 672.804 447.318 113.262 107.567 80.659 72.486
687.381 960.375 1251.178 693.501 1057.840 690.002 249.323 724.685 710.553 1125.558 713.536 702.161 809.357 611.763 726.128 636.903 1052.152 788.697 661.364 724.350 661.111 632.145 886.281 629.680 453.257 944.395 1548.750 752.181 746.544 656.711 168.737 912.903 625.070 1218.780 1231.703 166.029 704.697 457.995 742.753 656.469 645.419 1527.428 883.182 636.386 1193.869 671.092 756.904 699.293 675.217 110.127 162.005 876.171 778.383 443.802 649.874 591.140 690.933 696.126 1003.841 725.402 779.280 465.435 903.584 1279.676 257.706 696.556 855.767 846.762 651.611 0.000 1512.071 695.194 738.543 705.425 1004.797 1122.890 1133.407 652.307 741.074 1252.023 719.702 781.337 754.959 1572.161 758.941 940.469 1126.116 806.010 838.825 742.419 685.590 666.049 689.466 788.373 783.681 1216.095 1048.036 647.367 620.889 659.101 680.046
875.060 824.955 1262.589 839.097 922.420 855.094 1675.020 858.994 857.500 1158.234 851.647 884.872 729.134 921.374 947.625 895.324 1075.863 1008.558 923.065 944.595 884.534 931.402 737.641 957.559 1799.948 1039.452 294.414 806.873 968.042 916.435 1418.089 705.466 960.946 438.748 1237.904 1574.162 840.677 1804.686 918.159 879.892 913.209 326.609 735.959 989.151 1128.015 917.994 837.165 868.563 838.005 1459.054 1398.588 727.685 999.881 1790.493 879.222 927.865 845.191 976.768 1236.182 788.644 829.195 1812.125 844.540 1380.869 1454.091 865.826 737.531 814.386 897.105 1479.100 0.000 881.308 936.868 900.401 869.377 1152.675 1166.083 958.333 962.572 1263.434 941.200 1084.002 1035.601 371.342 907.987 733.033 1210.806 726.242 752.142 859.958 892.898 921.575 886.509 1052.973 1086.346 1251.686 982.182 872.383 935.946 932.553 885.605
45.898 351.448 720.697 140.135 448.913 131.542 878.433 61.385 47.253 595.076 61.479 98.638 180.493 152.713 161.392 102.575 521.671 222.324 128.136 158.362 122.159 152.050 227.653 112.171 1003.361 417.014 919.886 136.420 181.808 71.046 621.502 254.275 203.522 589.916 700.404 777.575 77.114 1008.099 154.845 117.517 165.325 898.564 224.554 146.567 605.961 102.670 206.108 69.552 139.043 662.467 602.001 217.543 213.647 993.905 126.219 138.098 146.229 181.838 493.735 107.450 120.653 1015.538 294.656 771.528 657.504 66.815 197.139 188.135 51.716 682.513 883.207 0.000 150.635 71.268 395.870 592.409 602.925 146.289 176.338 721.541 154.966 274.362 240.671 943.296 171.033 281.841 595.635 177.146 180.197 92.493 50.314 126.645 81.998 266.740 276.706 685.614 460.128 129.597 123.902 103.391 88.822
97.700 289.313 589.512 194.246 386.779 210.243 895.665 127.990 113.858 463.891 141.321 42.021 216.836 222.008 54.143 192.360 390.486 116.713 70.266 27.177 216.344 240.438 249.598 130.945 1020.593 285.830 956.229 183.177 74.560 131.267 638.734 276.220 223.368 626.260 570.037 794.806 145.489 1025.331 51.629 211.702 253.712 934.907 246.499 168.681 502.745 201.612 242.451 91.202 193.155 679.699 619.233 239.488 90.081 1011.137 216.004 207.393 200.341 102.563 362.550 143.793 145.012 1032.770 232.522 640.343 674.736 88.465 219.084 192.889 117.542 699.744 919.550 133.554 0.000 170.210 333.736 461.224 471.740 214.296 48.942 590.356 31.825 223.798 172.425 979.640 67.817 303.787 464.450 213.489 202.142 118.604 149.256 66.165 176.183 177.775 226.141 554.429 356.912 219.382 178.540 100.246 183.007
74.817 375.390 744.639 119.755 472.855 111.162 857.792 69.029 54.897 619.018 69.123 122.580 188.136 132.072 185.334 82.025 545.613 246.266 144.451 182.304 101.779 131.409 235.297 124.961 982.719 440.956 927.529 135.422 205.750 83.837 600.860 261.919 182.881 597.560 724.347 756.933 76.115 987.457 178.787 97.137 144.684 906.207 232.198 125.926 629.903 82.029 213.751 98.471 118.663 641.826 581.359 225.187 237.589 973.264 105.669 117.457 125.849 198.153 509.657 115.094 128.296 994.897 318.599 785.491 636.863 95.734 204.782 195.778 64.507 661.871 890.850 62.454 174.577 0.000 419.812 616.351 626.867 125.647 200.280 745.483 178.909 287.153 256.986 950.940 194.975 289.485 619.577 184.790 187.841 100.137 29.934 142.960 61.618 290.682 289.496 709.556 484.070 109.047 103.261 119.706 68.442
366.574 103.255 466.240 463.121 186.586 479.117 1176.742 396.864 382.732 361.885 410.195 314.608 401.948 495.384 373.826 465.634 279.514 436.395 369.857 354.338 485.218 513.814 227.355 412.022 1301.670 243.103 908.057 452.051 394.242 404.643 919.811 197.109 504.445 578.088 441.554 1075.884 414.363 1306.408 301.386 480.576 527.088 886.735 231.797 449.758 331.665 470.486 509.978 360.077 462.029 960.776 900.310 217.245 417.241 1292.214 489.279 480.769 469.215 419.660 439.832 412.668 356.555 1313.847 148.190 584.520 955.813 357.340 227.092 293.377 388.618 980.821 871.378 402.428 346.611 439.084 0.000 356.325 369.734 487.672 376.102 467.084 358.986 450.378 483.028 931.468 290.470 188.050 414.457 399.056 241.702 372.367 418.131 365.756 445.057 486.543 478.607 455.336 185.832 492.656 461.243 383.155 451.881
546.093 374.213 186.972 642.640 483.607 658.636 1288.097 576.383 562.251 23.175 589.714 490.415 658.599 640.026 434.744 624.650 126.958 377.457 509.530 438.840 648.858 660.407 484.007 523.377 1413.025 291.576 1164.709 631.570 416.516 570.556 1031.166 453.760 590.179 834.739 188.684 1187.238 593.882 1417.763 436.208 644.216 666.930 1143.387 488.449 561.113 387.391 637.823 690.844 539.596 641.548 1072.131 1011.665 473.897 401.534 1403.569 648.294 619.403 648.734 501.933 337.161 592.187 593.405 1425.202 404.842 274.562 1067.168 536.859 483.743 550.028 565.456 1092.176 1128.030 581.947 474.160 618.603 331.144 0.000 25.763 646.585 433.357 187.816 443.488 373.958 455.272 1188.119 425.292 444.702 101.671 655.707 498.354 566.997 597.650 505.429 624.576 416.090 402.187 147.714 203.964 651.672 581.021 526.571 631.400
567.664 395.784 208.543 664.211 505.178 680.208 1309.668 597.954 583.822 44.746 611.285 511.986 680.170 661.597 456.315 646.221 148.530 399.029 531.101 460.411 670.429 681.978 505.578 544.948 1434.596 313.147 1186.280 653.141 438.087 592.127 1052.737 475.332 611.750 856.310 195.670 1208.810 615.454 1439.334 457.779 665.787 688.501 1164.958 510.020 582.684 382.619 659.394 712.415 561.167 663.119 1093.702 1033.236 495.468 423.105 1425.140 669.865 640.974 670.305 523.504 358.732 613.758 614.976 1446.773 426.413 296.133 1088.739 558.430 505.314 571.599 587.027 1113.748 1149.601 603.518 495.731 640.175 352.715 46.901 0.000 668.157 454.928 209.387 465.059 395.529 476.843 1209.691 446.863 466.273 123.242 677.278 519.925 588.568 619.221 527.000 646.147 437.661 423.758 169.285 225.535 673.243 602.592 548.142 652.971
151.419 438.445 767.921 140.736 535.910 137.237 792.075 156.371 142.239 642.300 156.465 179.365 256.591 59.534 228.372 84.137 568.895 289.304 176.954 226.595 108.345 79.379 322.639 148.856 917.003 461.138 995.984 199.415 248.788 120.749 535.144 349.261 118.241 666.015 748.446 691.216 151.932 921.741 235.571 103.703 92.654 974.662 319.540 117.909 686.687 108.956 217.697 163.357 122.451 576.109 515.643 312.529 280.627 907.547 97.109 44.920 138.167 212.869 520.584 172.636 215.638 929.180 381.654 796.419 571.146 160.620 292.124 283.120 115.649 596.154 959.305 149.796 231.361 138.230 482.867 639.633 650.149 0.000 243.318 768.766 221.947 298.080 271.701 1019.395 251.759 376.827 642.859 253.245 275.182 187.479 117.276 175.464 126.341 305.116 300.424 732.838 540.854 94.602 68.562 152.127 127.280
135.151 335.095 572.517 231.697 432.560 247.694 920.700 165.441 151.309 446.897 178.772 87.802 254.287 247.342 25.584 217.694 373.491 79.178 92.824 21.765 241.903 265.772 295.379 159.335 1045.628 268.835 993.680 220.628 37.025 156.601 663.768 322.001 248.403 663.711 553.042 819.841 182.940 1050.365 89.536 237.260 279.047 972.358 292.280 193.716 536.278 230.868 279.902 128.653 230.606 704.734 644.268 285.269 48.201 1036.172 241.339 232.727 237.792 92.109 345.555 181.244 190.793 1057.805 278.303 623.349 699.771 125.916 264.865 238.670 151.501 724.779 957.001 171.005 78.373 206.434 379.517 444.229 454.746 239.630 0.000 573.362 21.372 204.332 161.971 1017.091 101.350 349.568 447.456 250.940 247.923 157.585 185.480 88.723 213.634 144.128 206.676 537.435 390.445 244.716 201.098 122.804 220.458
686.457 512.930 109.470 783.004 622.324 799.001 1428.461 716.747 702.615 175.247 730.078 630.779 797.316 780.390 575.108 765.014 265.676 517.822 649.894 579.204 789.222 800.771 622.724 663.741 1553.389 431.940 1303.426 771.934 556.880 710.920 1171.530 592.478 730.543 973.457 222.005 1327.603 734.247 1558.127 574.925 784.580 807.294 1282.104 627.166 701.477 494.365 778.187 831.208 679.960 781.912 1212.495 1152.029 612.614 541.898 1543.933 788.658 759.767 789.098 642.297 479.257 732.551 733.769 1565.566 543.559 239.366 1207.532 677.223 622.460 688.745 705.820 1232.540 1266.747 722.311 614.524 758.968 469.861 203.503 207.753 786.950 573.721 0.000 583.852 514.322 595.636 1326.837 564.009 583.419 197.935 794.425 637.071 707.361 738.014 645.793 764.940 556.454 542.551 160.085 342.682 792.036 721.385 666.935 771.764
113.779 317.978 582.650 210.326 415.443 226.323 899.328 144.069 129.937 457.029 157.400 70.686 232.915 225.970 22.318 196.322 383.624 84.887 71.452 4.648 220.531 244.400 278.263 137.963 1024.256 278.967 972.308 199.256 42.734 135.229 642.397 304.885 227.031 642.339 563.175 798.470 161.569 1028.994 72.420 215.889 257.675 950.986 275.164 172.344 519.162 209.496 258.530 107.282 209.234 683.362 622.896 268.153 69.573 1014.800 219.967 211.355 216.420 70.737 355.688 159.873 173.075 1036.433 261.187 633.481 678.399 104.545 247.748 221.553 130.129 703.408 935.629 149.633 61.256 185.062 362.400 454.362 464.878 218.258 21.372 583.494 0.000 210.042 140.600 995.719 84.234 332.451 457.588 229.569 230.806 136.214 164.108 67.351 192.262 145.949 212.385 547.567 373.329 223.345 179.726 101.432 199.086
238.923 465.117 506.257 346.275 562.582 342.776 953.123 274.080 259.947 380.636 292.137 217.825 379.967 305.052 191.210 289.676 307.230 132.805 193.860 215.925 313.885 325.433 425.402 188.403 1078.051 199.474 1119.360 346.308 172.982 235.582 696.192 452.024 280.826 789.391 486.781 852.265 296.305 1082.789 247.495 309.243 338.708 1098.038 422.303 226.139 526.091 302.850 405.582 232.426 327.991 737.157 676.691 415.292 175.753 1068.596 313.321 284.429 343.706 166.960 258.356 306.925 320.127 1090.228 408.326 537.434 732.194 229.689 394.888 368.692 230.482 757.203 1082.681 255.966 243.286 285.415 441.191 377.968 388.485 311.612 205.871 507.101 211.277 0.000 119.235 1142.771 263.683 479.590 381.195 376.621 377.946 283.265 264.461 198.545 296.145 124.931 59.776 471.174 362.036 316.698 246.047 191.597 302.969
196.849 450.191 589.894 314.227 547.657 310.728 921.076 232.005 217.873 464.273 250.062 181.904 339.812 273.005 146.016 257.629 390.868 111.614 134.996 144.239 281.837 293.386 386.973 159.656 1046.004 283.111 1079.205 306.152 142.702 210.315 664.145 413.594 243.066 749.235 570.419 820.217 254.231 1050.742 212.011 277.195 306.661 1057.883 383.874 194.092 609.728 270.802 365.427 190.351 295.943 705.110 644.644 376.862 148.294 1036.548 281.273 252.382 311.659 95.274 342.557 266.769 279.972 1058.181 393.400 618.392 700.147 187.614 356.458 347.454 205.216 725.155 1042.526 230.699 200.847 260.148 494.614 461.606 472.122 279.564 160.962 590.739 139.591 119.320 0.000 1102.616 223.825 441.161 464.832 336.465 339.516 243.110 239.194 139.681 270.878 106.080 121.664 554.811 445.673 284.651 214.000 149.523 277.702
917.596 867.491 1305.126 881.634 964.957 897.630 1717.557 901.530 900.036 1200.771 894.183 927.408 771.670 963.910 990.162 937.860 1118.399 1051.094 965.602 987.132 927.070 973.938 780.177 1000.096 1842.484 1081.989 132.069 849.409 1010.578 958.971 1460.625 748.002 1003.482 481.285 1280.440 1616.698 883.213 1847.222 960.696 922.428 955.745 75.217 778.496 1031.687 1170.551 960.531 879.701 911.099 880.542 1501.591 1441.124 770.221 1042.417 1833.029 921.758 970.401 887.728 1019.304 1278.718 831.181 871.731 1854.662 887.076 1423.405 1496.628 908.362 780.067 856.922 939.641 1521.636 335.068 923.844 979.405 942.937 911.914 1195.211 1208.620 1000.869 1005.108 1305.970 983.736 1126.538 1078.137 0.000 950.523 775.569 1253.343 768.778 794.678 902.494 935.435 964.111 929.046 1095.509 1128.882 1294.222 1024.718 914.920 978.483 975.090 928.141
135.403 243.612 562.510 231.949 341.077 247.946 933.368 165.693 151.561 458.155 179.024 79.724 251.332 260.540 105.143 230.892 375.784 167.712 114.207 78.177 254.047 278.970 231.159 168.648 1058.296 289.897 943.859 220.880 125.559 169.799 676.436 257.781 261.071 613.889 537.824 832.509 183.192 1063.033 18.113 249.405 292.245 922.537 228.060 206.384 443.380 239.315 280.154 128.905 230.858 717.402 656.936 221.049 133.847 1048.840 254.537 245.925 238.044 153.562 399.558 181.496 182.715 1070.473 186.821 677.351 712.439 126.168 200.645 174.450 155.245 737.447 907.180 171.257 67.719 207.913 288.034 452.595 466.004 252.828 99.941 563.354 82.825 261.501 223.424 967.269 0.000 285.348 501.458 248.440 183.703 156.307 186.959 110.106 213.886 228.774 263.844 551.606 297.547 257.914 222.481 144.187 220.710
263.821 147.454 585.088 326.649 240.360 342.646 1109.778 260.392 246.260 480.734 273.723 273.632 259.694 380.601 336.386 329.162 398.362 397.318 311.826 321.815 348.746 379.938 85.102 346.320 1234.705 361.952 765.803 315.579 356.802 305.195 852.846 27.858 434.867 435.834 560.403 1008.919 277.892 1239.443 287.594 344.104 393.213 744.481 89.543 377.912 450.514 334.015 367.725 257.323 325.557 893.812 833.345 74.991 384.719 1225.250 352.807 365.986 332.743 365.529 558.681 276.196 214.301 1246.883 167.039 703.368 888.849 254.586 84.838 161.692 285.865 913.857 729.124 270.068 314.088 302.613 191.876 475.174 488.582 377.633 343.580 585.933 326.463 472.352 424.362 789.214 277.422 0.000 533.305 256.802 99.449 230.113 281.659 310.336 308.586 441.734 474.695 574.185 304.681 356.185 355.247 321.314 315.409
558.804 433.852 202.184 655.351 543.246 671.348 1300.808 589.095 574.962 92.922 602.426 503.126 677.941 652.737 447.455 637.361 186.597 390.169 522.242 451.552 661.570 673.119 543.646 536.088 1425.736 304.287 1224.348 644.281 429.228 583.267 1043.877 513.399 602.891 894.378 210.711 1199.950 606.594 1430.474 495.846 656.928 679.641 1203.025 548.087 573.825 452.737 650.535 703.556 552.307 654.259 1084.843 1024.376 533.535 414.246 1416.281 661.006 632.114 661.445 514.645 349.873 604.898 606.117 1437.914 464.480 229.365 1079.880 549.570 543.382 609.667 578.168 1104.888 1187.669 594.659 486.871 631.315 390.783 117.374 121.624 659.297 446.068 203.029 456.200 386.669 467.984 1247.758 484.931 504.341 0.000 674.594 557.993 579.709 610.361 518.141 637.288 428.801 414.899 169.330 263.603 664.384 593.732 539.282 644.112
168.458 367.315 800.328 132.495 464.780 148.492 968.418 152.392 150.898 674.707 145.045 178.270 3.347 214.772 241.023 188.722 601.302 301.956 216.464 237.994 177.932 224.800 229.133 250.958 1093.346 496.646 760.858 100.271 261.440 209.833 711.487 247.826 254.344 430.889 777.646 867.560 134.075 1098.084 234.476 173.290 206.607 739.536 223.209 282.549 670.375 211.393 130.563 161.961 131.404 752.453 691.986 219.023 293.279 1083.891 172.620 221.263 138.590 270.166 573.366 82.042 145.215 1105.524 319.689 851.159 747.490 159.224 198.619 189.614 190.503 772.498 724.179 174.706 230.267 193.799 411.737 672.040 682.556 251.731 255.970 801.173 234.598 377.400 328.999 784.269 248.274 275.392 675.266 0.000 181.677 155.827 186.297 214.973 179.907 346.371 379.744 765.245 524.542 165.781 229.344 225.951 179.003
171.830 193.567 631.201 234.658 291.032 250.655 1017.786 168.401 154.269 526.847 181.732 181.641 189.359 288.610 244.395 237.171 444.475 305.327 219.835 229.824 256.755 287.947 47.456 254.329 1142.714 408.064 785.027 223.588 264.811 213.204 760.855 74.078 342.875 455.057 606.516 916.928 185.901 1147.452 195.603 252.113 301.222 763.704 44.357 285.921 496.627 242.023 282.862 165.332 233.566 801.821 741.354 37.346 292.728 1133.259 260.816 273.995 240.752 273.538 556.134 184.205 122.310 1154.892 142.906 749.481 796.858 162.595 16.942 69.701 193.874 821.866 748.348 178.077 222.097 210.622 237.989 521.287 534.695 285.642 251.589 632.046 234.472 380.361 332.370 808.437 185.431 101.645 579.418 186.467 0.000 138.122 189.668 218.345 216.594 349.742 382.704 620.298 350.794 264.194 263.256 229.323 223.418
64.546 303.978 685.361 148.250 401.444 164.247 916.049 81.993 67.861 559.740 95.324 71.212 170.839 202.202 130.430 150.763 486.335 193.000 112.551 123.026 170.347 201.539 205.903 147.046 1040.977 381.678 910.232 137.180 150.847 105.921 659.118 232.524 245.658 580.263 665.069 815.191 99.493 1045.715 119.509 165.705 214.814 888.910 202.804 188.704 570.625 155.615 196.454 58.049 147.158 700.083 639.617 195.792 182.686 1031.522 174.408 187.587 154.344 166.254 458.399 97.797 99.396 1053.154 247.187 736.192 695.120 55.312 175.388 164.509 86.591 720.129 873.553 91.669 115.299 124.214 348.401 557.073 567.589 197.760 144.791 686.205 124.005 273.488 225.087 933.643 135.697 260.091 560.299 167.493 158.446 0.000 103.260 111.061 130.186 242.459 275.832 650.278 424.792 177.786 171.331 122.039 137.010
90.230 390.803 760.052 107.959 488.268 99.366 854.378 79.850 70.310 634.431 64.298 137.993 181.230 121.838 200.747 70.399 561.026 261.679 159.864 197.717 89.983 121.175 250.710 140.375 979.306 456.369 920.623 123.625 221.163 99.250 597.447 277.332 180.545 590.654 739.760 753.520 64.319 984.044 194.200 85.341 134.450 899.301 247.611 146.224 645.316 81.307 206.035 113.884 106.867 638.412 577.946 240.600 253.003 969.851 94.043 107.223 114.053 213.566 525.070 108.187 143.709 991.483 334.012 800.904 633.449 111.147 220.195 211.191 79.920 658.458 883.944 77.867 189.990 39.092 435.225 631.764 642.280 127.946 215.693 760.896 194.322 302.566 272.399 944.034 210.388 304.898 634.990 177.883 203.254 115.550 0.000 158.373 49.822 306.095 304.909 724.969 499.483 97.421 105.559 135.119 56.646
81.407 329.756 644.347 196.769 427.221 205.299 845.118 116.564 102.431 518.726 134.620 60.110 219.358 171.750 73.710 156.004 445.321 133.051 4.685 71.932 180.213 192.132 266.519 83.753 970.046 340.664 958.751 185.699 94.126 95.192 588.187 293.141 172.821 628.782 624.872 744.260 138.789 974.784 94.270 175.571 205.406 937.429 263.420 118.134 545.386 169.178 244.973 74.910 194.319 629.153 568.686 256.409 125.965 960.591 179.649 151.127 202.863 77.147 406.885 146.316 159.518 982.224 272.964 682.720 624.190 72.173 236.004 227.000 90.093 649.198 922.072 115.308 90.061 145.025 374.178 516.059 526.575 177.940 88.656 645.191 67.284 184.381 135.980 982.162 110.458 320.707 519.285 216.012 219.062 122.657 124.071 0.000 155.755 177.467 186.725 609.264 399.553 183.026 112.375 34.081 162.579
75.996 376.569 745.818 93.725 474.034 85.132 840.144 65.617 56.076 620.197 50.064 123.760 166.996 107.604 186.513 56.165 546.792 247.446 145.630 183.483 75.749 106.941 236.476 126.141 965.072 442.135 906.389 109.392 206.930 85.016 583.213 263.098 166.311 576.420 725.526 739.286 50.085 969.810 179.966 71.107 120.216 885.067 233.377 151.741 631.082 67.073 191.801 99.650 92.633 624.179 563.712 226.366 238.769 955.617 79.810 92.989 99.819 199.333 510.836 93.954 129.476 977.250 319.778 786.671 619.216 96.913 205.962 196.958 65.686 644.224 869.710 63.633 175.756 51.548 420.991 617.530 628.046 123.457 201.460 746.662 180.088 288.332 258.166 929.800 196.154 290.665 620.756 163.650 189.020 101.316 56.962 144.140 0.000 291.861 290.676 710.735 485.249 83.187 101.070 120.886 42.412
206.357 434.533 546.993 302.904 531.999 318.901 958.690 236.648 222.515 421.373 249.978 166.245 325.494 310.619 100.214 288.901 347.967 35.698 152.382 121.345 313.109 331.000 372.654 197.270 1083.618 243.311 1064.887 291.834 81.986 227.807 701.758 399.276 280.680 734.917 527.518 857.831 254.147 1088.355 189.117 308.467 344.274 1043.565 369.555 231.706 563.422 302.074 351.109 199.860 301.812 742.724 682.257 362.544 84.757 1074.162 312.545 289.996 308.998 132.887 318.554 252.451 265.654 1095.795 377.742 597.824 737.761 197.123 342.140 333.136 222.708 762.769 1028.208 242.211 177.953 277.640 478.522 418.705 429.221 310.836 114.875 547.838 116.697 120.710 78.427 1088.297 200.931 426.842 421.931 322.147 325.198 228.792 256.686 148.281 284.841 0.000 123.054 511.910 402.772 315.923 251.613 182.362 291.664
239.985 466.179 535.501 347.336 563.644 343.837 954.185 275.141 261.009 409.880 293.198 218.887 381.029 306.114 192.271 290.738 336.475 133.867 194.922 216.986 314.946 326.495 426.464 189.465 1079.113 228.718 1120.422 347.369 174.044 236.644 697.254 453.085 281.888 790.452 516.025 853.326 297.367 1083.851 248.557 310.304 339.770 1099.100 423.365 227.201 555.335 303.911 406.644 233.487 329.052 738.219 677.753 416.353 176.815 1069.657 314.382 285.491 344.768 168.021 287.601 307.986 321.189 1091.290 409.388 565.852 733.256 230.750 395.949 369.754 231.544 758.264 1083.743 257.027 244.347 286.476 470.435 407.213 417.729 312.673 206.933 536.345 212.338 60.018 120.297 1143.833 264.745 480.652 410.439 377.682 379.007 284.327 265.523 199.607 297.207 125.993 0.000 500.418 391.280 317.760 247.109 192.659 304.030
646.193 478.198 162.679 742.740 587.593 758.737 1388.197 676.484 662.351 133.251 689.815 590.515 762.584 740.126 534.844 724.750 230.944 477.558 609.631 538.941 748.959 760.508 587.992 623.477 1513.125 391.676 1268.694 731.670 516.617 670.656 1131.266 557.746 690.280 938.725 215.166 1287.339 693.983 1517.863 540.193 744.317 767.030 1247.372 592.434 661.214 505.142 737.924 790.945 639.696 741.648 1172.232 1111.765 577.882 501.635 1503.670 748.395 719.503 748.834 602.034 437.262 692.287 693.506 1525.303 508.827 256.964 1167.269 636.959 587.728 654.013 665.557 1192.277 1232.015 682.048 574.260 718.704 435.129 161.507 165.757 746.686 533.457 163.524 543.589 474.059 555.373 1292.105 529.277 548.687 166.232 759.693 602.339 667.098 697.750 605.530 724.677 516.190 502.288 0.000 307.950 751.773 681.121 626.671 731.501
428.834 234.449 337.388 525.381 343.843 541.378 1226.799 459.124 444.992 233.033 472.455 373.156 518.835 553.971 398.574 524.323 150.662 378.336 407.638 371.608 547.478 572.401 344.243 462.079 1351.727 185.181 1024.945 514.311 417.395 463.230 969.868 313.996 554.502 694.975 312.702 1125.941 476.624 1356.465 311.544 542.836 585.676 1003.623 348.684 499.815 276.279 532.746 573.585 422.337 524.289 1010.833 950.367 334.133 396.030 1342.271 547.968 539.356 531.475 446.993 351.586 474.928 473.442 1363.904 265.078 455.668 1005.870 419.600 343.979 410.264 448.676 1030.879 988.266 464.688 361.150 501.345 191.380 227.473 240.882 546.259 393.372 338.232 376.256 374.837 456.151 1048.355 300.628 304.938 285.605 515.943 358.590 449.738 480.391 403.537 507.317 416.969 403.066 326.484 0.000 551.346 515.912 437.618 514.141
155.412 451.379 785.801 65.828 548.844 70.090 807.725 138.006 135.492 660.181 122.454 197.245 181.684 72.731 246.252 45.820 586.775 307.185 194.834 244.475 51.354 61.538 311.286 166.736 932.653 479.019 921.077 124.508 266.668 138.630 550.794 337.908 127.125 591.107 766.326 706.867 113.614 937.391 253.452 46.712 46.164 899.755 308.187 133.559 704.568 83.683 144.865 179.066 47.544 591.759 531.293 301.176 298.508 923.197 29.718 60.570 63.260 230.749 538.464 97.728 198.663 944.830 394.587 814.299 586.796 176.328 280.771 271.767 131.296 611.804 884.398 143.049 249.242 114.343 495.801 657.513 668.030 99.537 261.199 786.646 239.827 315.961 289.582 944.487 269.640 365.474 660.739 178.337 263.829 176.126 111.364 193.344 98.384 322.996 318.304 750.719 558.735 0.000 86.443 170.008 84.385
98.794 385.820 719.393 100.228 483.286 96.729 797.889 104.218 90.085 593.772 104.312 126.740 216.083 73.277 175.747 43.629 520.367 236.680 128.358 173.970 67.838 91.707 270.486 100.327 922.817 412.610 955.477 158.907 196.163 68.125 540.957 297.107 129.242 625.507 699.917 697.030 111.303 927.555 182.947 63.196 104.982 934.154 267.387 85.376 634.063 56.803 179.265 110.732 81.944 581.923 521.457 260.375 228.003 913.361 67.274 58.662 97.659 164.340 472.056 132.128 163.485 934.994 329.029 747.890 576.960 107.995 239.971 230.967 63.025 601.968 918.798 97.643 178.737 86.077 430.243 591.105 601.621 65.565 190.694 720.237 169.322 249.552 223.173 978.887 199.135 324.674 594.331 212.737 223.029 135.326 65.123 126.868 74.188 256.588 251.895 684.310 488.230 70.651 0.000 103.599 86.773
73.414 343.190 675.245 178.522 440.655 171.218 822.746 110.719 96.586 549.624 119.427 84.110 225.153 137.670 126.054 121.923 476.219 185.395 66.132 124.277 146.132 158.051 272.314 53.567 947.674 368.462 964.546 191.494 146.470 61.111 565.815 298.936 152.356 634.577 655.769 721.888 132.944 952.412 140.316 141.490 171.325 943.224 269.215 95.401 591.432 135.097 250.768 75.268 160.238 606.780 546.314 262.204 178.310 938.219 145.568 117.047 175.954 119.770 427.908 152.111 165.313 959.851 286.399 703.742 601.817 72.531 241.799 232.795 56.012 626.826 927.867 81.227 136.106 110.944 387.612 546.957 557.473 143.859 141.000 676.089 119.629 205.404 178.603 987.957 156.504 326.502 550.183 221.806 224.857 128.451 89.990 64.641 121.674 212.439 207.747 640.162 445.599 148.945 78.294 0.000 128.498
106.203 402.170 771.419 66.596 499.635 58.003 853.266 88.797 86.283 645.798 73.245 149.360 180.609 120.725 212.114 69.286 572.393 273.046 175.837 209.084 58.919 119.722 262.077 156.348 978.193 467.736 920.002 104.339 232.530 115.223 596.334 288.699 179.432 590.033 751.127 752.407 56.124 982.931 205.567 54.277 120.191 898.680 258.978 164.862 656.683 80.195 165.371 129.857 65.504 637.300 576.833 251.967 264.369 968.738 75.630 106.110 72.690 229.539 541.043 98.497 149.454 990.371 345.379 816.877 632.337 127.120 231.562 222.558 95.893 657.345 883.323 93.840 201.357 65.547 446.592 643.131 653.647 136.578 227.060 772.263 205.689 318.539 288.372 943.413 221.755 316.265 646.357 177.262 214.621 126.917 77.477 174.346 49.588 317.462 320.882 736.336 510.850 74.027 114.192 151.092 0.000
NODE_COORD_SECTION
1 27567.380647 -311.862562
2 21720.339235 -2409.421625
3 22724.974895 -12595.029097
4 27928.917589 1558.435457
5 19582.344490 -2694.114315
6 28200.743123 1262.487987
7 38828.231545 11856.932752
8 27135.400867 360.586110
9 27161.261737 152.459480
10 22584.043814 -10378.199568
11 27402.801306 367.908953
12 27025.604802 -1089.953107
13 25607.406415 1788.115871
14 29346.423461 859.278355
15 27143.954009 -2428.957360
16 28466.501473 834.158070
17 22938.121683 -8225.204256
18 27296.890384 -3585.715310
19 27659.217973 -1440.885063
20 26890.033004 -2188.014757
21 28207.530144 962.696282
22 29300.221989 1093.065485
23 23169.655048 -239.752488
24 28622.625663 -1009.905598
25 33394.041210 15083.952312
26 24269.040924 -5902.080330
27 17452.866744 15697.268553
28 27188.256380 1551.639428
29 27195.973045 -2801.809607
30 28090.763563 -268.882736
31 38413.278540 6220.721145
32 22085.566096 -467.379640
33 29884.551591 -242.647260
34 21746.164591 8018.739685
35 21207.560420 -11436.443538
36 37810.714651 10557.121414
37 27329.666719 685.849907
38 33343.293475 15005.216995
39 26032.660769 -2193.554119
40 28271.166305 973.048146
41 29203.365749 1216.734302
42 18427.504327 15838.949320
43 23279.790117 -188.085604
44 29085.346784 -258.005679
45 20593.141732 -6689.767955
46 28324.348286 596.453371
47 27456.368684 2662.040853
48 27442.719656 -332.324126
49 28163.397969 1461.160268
50 38435.691307 6982.582219
51 38220.163224 6354.059053
52 23223.093852 -365.756421
53 27013.995501 -3117.893236
54 34750.674426 14667.280152
55 28504.124725 1010.989400
56 29256.720582 398.914578
57 28020.816155 1546.771434
58 28087.952077 -2018.350553
59 26712.723658 -7217.901238
60 26947.750804 1258.004426
61 26021.163413 113.305687
62 34541.649341 14782.822702
63 23027.572137 -2342.406560
64 26046.351677 -14311.645379
65 39039.572497 4939.638398
66 27343.250560 -307.104312
67 23511.376911 -381.532100
68 24821.386307 -312.569542
69 27917.490358 -183.818483
70 38283.780310 8030.819467
71 15870.746383 13414.917178
72 27567.761554 -43.990793
73 26702.547130 -1842.116571
74 27934.966675 309.948962
75 21624.889938 -3412.476845
76 22594.480429 -10137.198571
77 22285.185588 -10160.870936
78 28918.378940 602.524380
79 26960.147623 -2450.593907
80 23005.436467 -13217.152176
81 26980.121485 -2180.838716
82 28094.771952 -4980.315812
83 28314.622293 -3198.103167
84 18558.110903 15853.006480
85 25772.700966 -2491.243102
86 21553.927040 -512.874100
87 23631.235394 -10931.085856
88 25644.112806 1794.057231
89 23934.174484 -356.484390
90 26833.243226 -166.377428
91 27889.072210 302.767581
92 27607.017135 -1433.201857
93 27854.927745 478.054450
94 27774.116939 -3555.040742
95 28615.144198 -4884.137884
96 22868.125693 -11819.875103
97 22149.206578 -6295.165666
98 28647.340185 1137.230541
99 28754.505777 117.099332
100 28074.817409 -963.863912
101 27910.377166 859.836616
DEMAND_SECTION
1 0
2 2
3 10
4 10
5 4
6 1
7 7
8 5
9 6
10 56
11 76
12 2
13 57
14 6
15 2
16 8
17 5
18 8
19 7
20 2
21 88
22 6
23 7
24 2
25 8
26 8
27 5
28 4
29 7
30 4
31 1
32 3
33 3
34 6
35 8
36 6
37 1
38 10
39 1
40 8
41 10
42 6
43 2
44 4
45 1
46 8
47 6
48 9
49 2
50 10
51 1
52 10
53 1
54 9
55 10
56 6
57 62
58 7
59 7
60 9
61 5
62 72
63 1
64 7
65 3
66 3
67 9
68 10
69 81
70 4
71 1
72 5
73 9
74 85
75 1
76 6
77 1
78 10
79 3
80 5
81 3
82 10
83 62
84 6
85 9
86 4
87 1
88 76
89 2
90 4
91 10
92 7
93 2
94 6
95 6
96 7
97 8
98 8
99 5
100 4
101 8
DEPOT_SECTION
1
-1
EOF
