NAME : mamut-hong_kong-n100-hyb
COMMENT : Mamut2026 euclidean metric; city hong_kong; 3-decimal seconds/meters; ENU ref in mamut-hong_kong-n100-hyb.vrp.json
TYPE : CVRP
DIMENSION : 101
EDGE_WEIGHT_TYPE : EXPLICIT
EDGE_WEIGHT_FORMAT : FULL_MATRIX
CAPACITY : 153
EDGE_WEIGHT_SECTION
0.000 10332.107 7041.715 2367.088 6933.242 2853.609 1718.784 4467.760 7281.166 3374.466 4464.222 11831.749 2992.106 1810.314 7031.229 6914.341 3683.197 2145.639 4293.954 6942.107 3424.387 3728.008 1612.168 1789.855 8247.099 11015.828 10761.459 7035.380 6782.155 6806.675 7085.285 1931.999 7115.020 2425.293 4621.195 6735.243 2664.420 6887.017 12229.590 4996.148 11090.709 10655.415 6783.354 4293.041 2881.997 4384.818 6611.471 6416.379 7129.700 4869.628 7311.782 6487.582 7490.086 10892.074 7670.562 8005.573 7497.896 12050.256 3158.240 6568.412 5956.604 5915.842 7394.621 3452.594 8709.049 5068.367 6199.814 2823.548 10970.224 10317.272 8872.474 5296.919 5087.815 6356.131 11060.833 9671.259 8666.377 10991.393 7582.069 7895.303 8454.203 11175.462 13166.188 3374.459 8055.741 7522.101 9741.919 3591.906 12936.742 6075.690 9549.489 6502.146 12573.660 8360.339 5233.138 6488.802 2950.243 15917.997 6592.457 11249.016 11550.670
10332.107 0.000 3525.099 8258.090 4009.838 10800.018 9310.834 10756.960 3065.967 6967.492 6149.799 22135.282 11464.365 8647.522 3301.176 4145.669 13856.119 8225.674 6537.802 3617.214 6910.412 6624.007 9769.562 8808.983 6639.588 20641.570 20317.445 3996.420 4077.421 4577.535 4793.233 9336.554 3286.038 9911.958 5812.138 3808.060 7667.728 4577.587 22546.940 5337.302 18163.329 902.558 3988.124 6054.590 8952.239 6504.612 13828.520 4692.352 3621.935 5464.982 3026.142 3932.581 11458.259 6182.757 13502.087 18040.532 14164.507 21302.928 13458.547 5400.186 12769.783 9132.883 14099.142 9620.582 18263.288 12251.312 13679.770 12068.638 7487.949 20535.525 18426.665 13349.462 11699.026 13567.798 8023.895 7968.617 7322.830 18033.225 2883.547 17845.018 14586.718 20731.762 21851.329 9593.242 14195.312 4670.585 18886.766 13235.202 23257.366 13823.843 10929.895 14540.795 22903.877 9456.748 12575.708 13617.194 8116.439 23954.374 12334.053 8353.990 8673.718
7041.715 3525.099 0.000 4827.357 2781.538 7277.696 6305.001 7272.790 846.551 3808.434 2668.685 18868.668 7944.347 5510.446 1006.857 2959.093 10434.672 5049.352 3024.101 99.732 3724.451 3518.054 6772.119 5725.740 4300.070 17118.829 16793.380 2894.240 685.076 1412.611 3928.075 5859.837 502.836 6397.798 2420.955 2070.650 4421.219 3500.973 19258.463 2189.554 14809.482 3661.486 2530.118 2786.589 5430.908 2985.107 11572.182 1304.293 358.472 2393.067 948.762 1771.142 9984.154 5428.402 11643.705 14559.104 12096.962 18588.906 10095.054 4195.158 10551.566 5867.940 12015.655 6100.077 14741.210 9878.133 11335.630 8568.453 6297.277 17090.786 14904.358 10817.687 9429.156 11295.259 6703.342 6019.541 5065.350 14681.251 653.852 14351.926 12712.335 17207.463 19360.989 7063.297 12292.741 4154.022 15364.376 10240.752 19876.452 11409.917 8344.534 12079.683 19546.915 6757.478 10187.323 11372.841 4614.704 21730.137 10395.442 7018.955 7378.441
2367.088 8258.090 4827.357 0.000 5338.232 2880.916 2542.132 3775.852 5196.120 1739.750 2170.803 14083.629 3452.096 1680.322 4991.555 5372.910 5609.855 1382.403 1938.305 4728.075 1710.976 2061.343 2882.437 1969.557 5984.233 12523.125 12223.454 5463.301 4490.105 4455.788 5823.303 1149.143 4977.873 1944.044 2445.956 4955.152 1135.231 5514.345 14460.418 3007.408 11358.283 8485.614 5127.776 2270.530 1390.629 2024.313 8402.007 4078.758 4869.056 2956.414 5244.116 4630.216 8372.924 8556.374 9133.909 9791.686 9187.990 14384.985 5278.262 5466.799 7572.714 4236.647 9088.894 2362.222 10149.700 6716.723 8040.126 3885.554 8712.921 12279.824 10314.939 7248.256 6535.599 8127.806 8846.714 7515.908 6470.666 11242.873 5415.704 9610.494 10054.591 12641.077 15434.549 4237.985 9633.766 6264.873 10951.154 5902.666 15049.228 7986.296 7919.867 8515.403 14722.810 6539.558 6952.959 8245.121 746.369 18105.813 7929.742 9057.933 9375.924
6933.242 4009.838 2781.538 5338.232 0.000 8198.190 5616.148 8730.482 2061.702 3674.347 3794.562 18492.185 8789.124 5132.689 1793.854 184.196 10606.462 4797.896 4291.689 2764.545 3667.767 3318.567 6046.950 5219.980 7033.244 17800.861 17514.938 139.939 3344.789 4075.282 1151.602 6486.577 2315.516 7255.067 3258.553 724.230 4408.455 741.973 18930.301 2497.668 16451.482 4684.119 278.577 3152.578 6462.173 4329.534 9820.904 3791.968 3139.973 2452.968 1978.624 1105.064 7635.728 8124.173 9559.981 14915.739 10179.022 17321.957 10082.734 1542.057 8762.915 7945.608 10110.816 7357.221 15440.440 8243.456 9669.963 9187.996 9064.956 17246.871 15605.823 9354.863 7689.231 9559.153 9481.260 8780.439 7795.090 16329.252 2607.190 14780.057 10645.910 17932.593 17842.305 5627.612 10245.170 1388.655 16285.547 9423.582 19789.600 9816.021 10888.523 10535.090 19392.701 9286.731 8568.181 9609.988 5521.916 19961.434 8365.451 9798.436 10157.623
2853.609 10800.018 7277.696 2880.916 8198.190 0.000 4330.526 1699.456 7806.132 4615.810 4686.166 12369.514 677.874 3894.333 7652.435 8241.227 3748.897 3896.371 4266.248 7184.105 4591.396 4942.215 4383.273 4068.996 6857.721 9841.558 9518.715 8326.241 6785.966 6499.287 8702.835 1766.129 7536.373 943.127 5114.835 7770.135 3952.174 8394.995 12677.005 5785.610 8568.537 10890.214 7977.290 5069.939 1848.087 4295.660 9355.215 6234.239 7223.368 5772.886 7870.186 7420.101 10311.809 9684.879 10505.159 7398.023 10273.470 13854.803 3831.587 8330.349 8771.797 3736.299 10169.694 1395.710 7463.551 7885.876 8925.063 1484.657 9423.959 10030.399 7626.782 7974.118 7936.967 9112.553 9385.309 7910.166 7055.965 8458.244 7916.568 7150.727 11252.145 9933.702 15217.500 6131.347 10862.983 9144.938 8144.723 5847.381 12986.863 8761.326 7070.644 9097.277 12738.348 6130.404 8027.515 9249.980 2731.041 18133.334 9444.168 9508.175 9761.102
1718.784 9310.834 6305.001 2542.132 5616.148 4330.526 0.000 5774.374 6358.205 2507.076 4055.005 12884.699 4602.009 919.146 6068.464 5565.703 5243.155 1376.329 4081.680 6209.302 2601.162 2787.482 467.504 632.400 8410.764 12644.329 12404.068 5700.166 6205.019 6414.986 5588.569 2877.494 6263.461 3656.223 4003.361 5554.030 2037.555 5448.308 13317.829 4123.855 12762.144 9750.494 5511.566 3545.796 3689.053 4191.416 5876.926 5984.914 6471.169 3940.299 6367.574 5380.597 6037.781 10828.478 6604.740 9547.945 6647.578 12306.399 4605.107 5022.531 5030.960 6728.583 6548.883 4524.536 10367.698 4179.165 5529.542 4530.908 11122.751 11726.512 10529.738 4791.449 3998.221 5600.497 11296.855 10010.150 8948.512 12659.889 6751.046 9471.474 7513.586 12815.255 13185.386 1826.032 7093.548 6011.261 11438.560 3949.475 14184.961 5500.250 10422.421 6073.111 13780.415 9074.282 4423.655 5714.549 3287.624 15738.009 5418.721 11524.078 11851.268
4467.760 10756.960 7272.790 3775.852 8730.482 1699.456 5774.374 0.000 7935.414 5444.158 4967.540 13533.339 2012.815 5176.750 7847.786 8806.524 5121.161 5054.159 4479.958 7189.826 5387.778 5712.744 5902.577 5402.639 5854.875 10162.317 9804.630 8866.870 6680.633 6227.316 9413.193 2928.824 7622.704 2119.071 5483.386 8195.497 4910.230 9055.871 13797.852 6234.170 7721.532 10705.327 8480.962 5599.389 2398.837 4466.025 11034.357 6065.958 7137.254 6284.737 8014.991 7809.448 11810.616 8676.423 12138.055 8170.936 11943.408 15432.812 5359.864 9138.378 10421.092 2414.516 11839.750 1425.064 7843.143 9533.168 10608.113 2878.435 8222.790 10865.494 7996.932 9664.175 9548.114 10787.945 8110.562 6625.049 5898.259 7599.832 7926.610 7861.570 12912.700 10205.484 16848.524 7600.162 12518.172 9841.369 8229.994 7541.535 13921.734 10451.160 5420.042 10795.417 13731.764 4619.149 9687.753 10924.054 3298.380 19791.931 11045.436 8193.787 8414.705
7281.166 3065.967 846.551 5196.120 2061.702 7806.132 6358.205 7935.414 0.000 3936.572 3122.642 19102.846 8459.983 5636.940 328.279 2245.187 10790.234 5199.160 3546.731 879.269 3871.423 3605.593 6823.889 5819.890 5128.195 17635.927 17319.608 2158.063 1523.718 2258.789 3211.240 6287.314 352.292 6897.984 2751.651 1404.201 4618.661 2801.388 19507.523 2287.680 15539.508 3397.834 1840.202 2992.864 5961.756 3529.711 11342.301 2118.824 1179.355 2436.367 102.307 1226.009 9519.452 6062.835 11291.942 14985.041 11809.327 18546.619 10396.631 3557.483 10303.258 6654.241 11732.518 6701.247 15256.451 9678.820 11134.462 9030.545 7017.420 17470.422 15420.647 10682.332 9190.584 11069.366 7446.558 6828.155 5893.159 15412.247 556.833 14796.055 12370.810 17735.508 19235.034 6899.754 11957.139 3392.740 15936.092 10306.779 20195.456 11233.787 9191.036 11923.679 19846.311 7603.423 9995.396 11137.924 5091.900 21518.503 10058.827 7767.477 8125.392
3374.466 6967.492 3808.434 1739.750 3674.347 4615.810 2507.076 5444.158 3936.572 0.000 1690.665 15170.714 5166.259 1708.161 3671.703 3689.551 6988.549 1262.591 1903.194 3711.548 114.468 360.570 2972.056 1917.424 6248.538 14126.815 13840.634 3791.741 3700.864 3954.321 4087.544 2860.752 3803.589 3682.701 1516.760 3386.444 738.321 3790.318 15579.856 1654.109 13086.494 7331.229 3488.526 1039.268 3049.540 2013.243 8106.539 3516.914 3965.030 1503.674 3959.512 3118.293 7355.135 8460.306 8511.524 11272.968 8763.821 14812.357 6524.632 3729.201 7153.683 5437.592 8672.321 4019.168 11766.201 6380.910 7811.449 5518.460 8889.947 13664.142 11931.580 7178.644 6041.556 7825.918 9126.044 7957.188 6874.126 12970.011 4285.290 11124.342 9519.183 14258.279 15660.106 3597.172 9091.853 4530.249 12627.801 6432.422 16311.207 7834.652 8983.590 8459.890 15946.313 7477.063 6666.347 7922.803 2157.873 18146.594 7258.307 9381.643 9724.974
4464.222 6149.799 2668.685 2170.803 3794.562 4686.166 4055.005 4967.540 3122.642 1690.665 0.000 16249.149 5337.592 3160.428 2967.848 3888.315 7768.866 2687.080 497.179 2570.242 1576.644 1616.296 4500.261 3426.926 4567.530 14513.437 14197.013 3933.357 2324.473 2381.663 4606.332 3193.510 2866.217 3775.361 546.858 3229.679 2020.583 4208.893 16628.975 1314.375 12676.738 6330.119 3534.827 919.728 2847.047 545.545 9784.463 1968.328 2698.304 1429.936 3184.745 2841.908 8970.745 6794.404 10198.607 11897.374 10452.738 16311.568 7448.934 4474.183 8840.601 4263.961 10360.823 3643.714 12133.956 8058.697 9479.960 5918.917 7199.283 14422.158 12298.111 8815.189 7730.667 9503.938 7438.576 6294.991 5211.537 12553.212 3277.378 11696.603 11209.352 14612.963 17238.123 5286.884 10782.022 5006.881 12824.662 7851.945 17215.380 9490.600 7579.662 10098.785 16892.370 6018.503 8339.142 9603.213 1970.282 19780.275 8943.758 7697.326 8042.561
11831.749 22135.282 18868.668 14083.629 18492.185 12369.514 12884.699 13533.339 19102.846 15170.714 16249.149 0.000 11746.735 13489.531 18842.409 18431.651 8653.578 13910.270 16005.330 18768.957 15232.228 15511.566 12446.273 13340.601 19225.255 6991.383 7244.286 18570.140 18572.643 18505.593 18328.963 13192.949 18945.523 12955.680 16447.980 18431.093 14485.936 18258.564 530.723 16815.169 13148.794 22485.872 18395.482 16122.665 13917.157 16080.459 11049.341 18150.204 18941.097 16674.388 19128.991 18233.157 14642.888 22054.376 12705.947 5897.453 11653.891 6186.732 8821.547 17704.793 11731.138 15935.843 11613.556 13761.914 7435.025 11556.520 10796.066 10885.205 21736.833 3751.592 7399.963 10339.905 12199.725 11119.731 21642.910 20157.110 19383.781 13169.665 19413.785 6310.118 12336.086 7275.376 8166.381 13175.608 12321.151 18716.636 8555.605 9160.443 2319.546 10456.621 18484.091 9865.533 1723.390 18072.073 11302.774 11199.110 14467.367 10993.005 12861.425 21726.133 21940.489
2992.106 11464.365 7944.347 3452.096 8789.124 677.874 4602.009 2012.815 8459.983 5166.259 5337.592 11746.735 0.000 4281.817 8299.461 8825.006 3172.971 4345.438 4927.318 7850.202 5150.848 5503.468 4588.525 4422.332 7480.524 9178.875 8859.844 8914.873 7459.213 7177.052 9249.809 2307.790 8195.089 1564.995 5752.282 8383.302 4475.909 8956.029 12045.066 6405.934 8175.950 11563.233 8574.993 5682.251 2513.665 4960.075 9283.421 6910.430 7895.037 6382.251 8522.240 8040.894 10479.322 10313.241 10521.595 6721.574 10221.975 13421.250 3351.239 8852.058 8767.845 4261.477 10118.252 2049.950 6799.787 7890.097 8843.293 889.131 10011.262 9358.743 6963.501 7871.228 7996.777 9051.740 9952.184 8470.834 7648.118 8070.766 8580.868 6472.943 11217.988 9275.593 14839.322 6353.860 10840.382 9693.523 7515.223 5618.099 12325.961 8656.177 7430.930 8942.009 12084.659 6595.934 8006.257 9192.008 3372.396 17794.244 9509.021 10062.861 10305.316
1810.314 8647.522 5510.446 1680.322 5132.689 3894.333 919.146 5176.750 5636.940 1708.161 3160.428 13489.531 4281.817 0.000 5363.926 5108.870 5493.509 474.853 3166.515 5412.835 1786.686 2031.404 1343.311 296.044 7492.142 12802.422 12539.926 5232.031 5362.467 5533.713 5281.570 2249.835 5511.217 3098.370 3151.503 4969.899 1140.912 5077.096 13906.065 3361.051 12446.200 9034.142 4991.836 2725.846 2940.828 3275.655 6787.493 5108.679 5652.751 3200.579 5656.042 4748.844 6729.003 9916.997 7458.472 9815.525 7543.075 13162.800 4950.105 4780.165 5923.011 5911.335 7445.360 3844.495 10478.290 5081.796 6445.116 4388.387 10203.606 12114.332 10642.595 5710.114 4868.182 6510.117 10378.846 9097.987 8033.947 12338.427 5993.405 9701.717 8391.020 12955.343 14079.405 2561.408 7968.427 5720.394 11459.181 4738.672 14685.893 6419.007 9598.580 6991.310 14305.623 8217.075 5333.122 6622.133 2424.128 16651.400 6250.114 10607.304 10935.454
7031.229 3301.176 1006.857 4991.555 1793.854 7652.435 6068.464 7847.786 328.279 3671.703 2967.848 18842.409 8299.461 5363.926 0.000 1975.028 10568.265 4932.946 3413.692 1008.559 3611.567 3333.728 6533.035 5539.434 5304.117 17467.455 17155.112 1899.821 1637.986 2383.753 2945.255 6098.408 522.349 6734.920 2559.332 1107.649 4366.810 2526.335 19250.683 2036.213 15487.573 3682.030 1556.792 2757.863 5814.847 3406.411 11016.004 2186.622 1362.688 2168.036 304.110 900.438 9197.729 6345.496 10964.038 14783.073 11481.249 18235.343 10158.944 3262.002 9976.321 6659.836 11404.515 6584.082 15088.415 9354.471 10809.706 8847.688 7271.124 17251.665 15252.951 10362.666 8864.211 10743.290 7689.614 7026.363 6069.251 15361.096 873.132 14600.694 12042.756 17571.598 18914.804 6579.266 11628.989 3153.062 15792.510 10014.699 19957.304 10910.658 9304.879 11601.933 19602.719 7710.522 9671.450 10811.430 4927.137 21192.385 9730.638 8007.904 8366.769
6914.341 4145.669 2959.093 5372.910 184.196 8241.227 5565.703 8806.524 2245.187 3689.551 3888.315 18431.651 8825.006 5108.870 1975.028 0.000 10592.520 4786.770 4385.344 2940.314 3688.669 3337.327 5990.788 5186.139 7201.561 17810.332 17527.309 150.263 3514.767 4242.153 970.433 6519.399 2496.186 7298.293 3347.984 894.103 4419.307 557.777 18872.544 2582.125 16528.037 4835.384 435.831 3215.712 6521.074 4426.995 9682.870 3951.753 3317.399 2522.218 2162.494 1260.895 7464.896 8307.856 9402.259 14906.513 10030.419 17206.637 10057.933 1363.481 8624.120 8064.246 9963.068 7425.554 15453.387 8115.567 9537.498 9207.721 9245.736 17221.935 15618.735 9235.904 7555.663 9422.431 9660.483 8951.833 7962.636 16406.327 2791.223 14775.738 10488.259 17944.846 17711.731 5522.705 10088.916 1226.797 16312.521 9347.011 19746.802 9687.865 11036.902 10408.981 19345.818 9435.127 8440.625 9471.525 5580.138 19815.823 8212.248 9977.211 10336.505
3683.197 13856.119 10434.672 5609.855 10606.462 3748.897 5243.155 5121.161 10790.234 6988.549 7768.866 8653.578 3172.971 5493.509 10568.265 10592.520 0.000 5808.666 7466.478 10335.638 7022.105 7348.467 4946.143 5457.160 10598.687 7414.831 7190.346 10711.338 10062.913 9923.158 10762.208 4608.486 10583.931 4303.518 8049.992 10374.101 6254.310 10569.902 8984.109 8542.511 8844.568 14094.778 10447.811 7811.661 5273.226 7530.565 7696.228 9592.512 10460.860 8445.824 10832.683 10102.083 9921.465 13417.913 9257.203 4323.792 8669.827 10416.318 809.436 10231.248 7523.463 7433.969 8571.882 5127.498 5194.984 6760.854 7241.584 2285.257 13171.242 6684.478 5352.226 6253.474 7115.556 7528.948 13122.367 11642.344 10804.072 8775.304 11025.375 4229.481 9694.363 7596.845 11962.922 6439.904 9384.983 11196.726 6404.808 3706.677 9451.809 6964.085 10459.015 7011.814 9146.814 9739.350 6748.114 7672.366 5887.203 15006.986 8527.591 13235.491 13478.182
2145.639 8225.674 5049.352 1382.403 4797.896 3896.371 1376.329 5054.159 5199.160 1262.591 2687.080 13910.270 4345.438 474.853 4932.946 4786.770 5808.666 0.000 2706.425 4951.323 1332.364 1601.751 1813.714 744.110 7051.923 13054.838 12782.993 4903.689 4890.629 5059.032 5030.358 2169.697 5063.011 3038.693 2679.444 4590.267 666.672 4796.373 14321.424 2915.498 12464.765 8593.489 4641.212 2262.843 2732.168 2816.588 7215.340 4633.829 5185.527 2765.190 5221.733 4349.666 6993.172 9452.220 7829.814 10119.769 7951.856 13637.540 5303.835 4566.500 6330.260 5607.886 7855.284 3676.903 10714.363 5501.443 6881.758 4544.184 9756.685 12461.523 10879.278 6164.455 5258.511 6936.804 9940.982 8676.363 7607.422 12354.137 5542.691 9991.011 8781.264 13199.600 14551.491 2892.776 8356.833 5473.293 11651.896 5208.693 15071.784 6864.923 9279.933 7447.038 14700.117 7868.074 5760.765 7045.936 2100.377 17114.338 6607.166 10173.842 10504.699
4293.954 6537.802 3024.101 1938.305 4291.689 4266.248 4081.680 4479.958 3546.731 1903.194 497.179 16005.330 4927.318 3166.515 3413.692 4385.344 7466.478 2706.425 0.000 2928.394 1790.397 1914.890 4507.422 3449.359 4380.102 14105.947 13784.777 4430.511 2597.719 2517.489 5096.220 2861.715 3270.491 3374.871 1040.301 3722.346 2058.075 4701.786 16375.244 1809.089 12184.045 6671.464 4031.607 1340.620 2418.644 112.605 9895.530 2145.421 3007.184 1914.122 3614.810 3331.781 9253.486 6752.482 10389.570 11541.241 10596.532 16247.861 7187.787 4948.269 8977.708 3795.336 10502.520 3174.006 11727.037 8173.226 9574.375 5545.580 7062.824 14091.553 11890.665 8870.728 7879.961 9615.723 7268.609 6063.667 4982.193 12060.269 3654.839 11329.800 11382.345 14199.890 17227.037 5447.455 10955.350 5499.616 12389.370 7768.262 16918.279 9566.868 7177.183 10153.440 16607.402 5634.324 8443.471 9720.134 1595.842 19817.902 9141.243 7513.892 7852.462
6942.107 3617.214 99.732 4728.075 2764.545 7184.105 6209.302 7189.826 879.269 3711.548 2570.242 18768.957 7850.202 5412.835 1008.559 2940.314 10335.638 4951.323 2928.394 0.000 3627.092 3422.746 6676.335 5628.938 4296.185 17025.476 16700.513 2880.067 644.779 1384.806 3907.371 5761.911 528.044 6302.608 2321.284 2048.591 4322.429 3477.926 19158.731 2096.291 14736.427 3760.131 2508.856 2688.494 5336.968 2890.464 11489.417 1247.903 388.350 2301.727 980.475 1735.595 9922.159 5476.456 11570.316 14461.863 12018.262 18495.316 9995.430 4160.177 10470.288 5805.391 11936.629 6011.005 14647.656 9793.707 11251.016 8472.046 6328.300 16992.399 14810.867 10729.252 9347.479 11212.276 6728.671 6024.509 5061.200 14608.348 739.575 14255.273 12637.862 17114.714 19271.239 6977.568 12217.845 4142.597 15274.297 10143.959 19777.105 11323.733 8316.534 11992.208 19447.377 6726.847 10102.354 11290.457 4518.035 21645.212 10321.053 7042.784 7402.512
3424.387 6910.412 3724.451 1710.976 3667.767 4591.396 2601.162 5387.778 3871.423 114.468 1576.644 15232.228 5150.848 1786.686 3611.567 3688.669 7022.105 1332.364 1790.397 3627.092 0.000 352.773 3064.856 2004.675 6134.072 14137.272 13848.841 3787.441 3604.165 3847.938 4112.395 2843.317 3730.714 3654.912 1412.545 3358.644 768.228 3806.128 15639.229 1584.822 13043.044 7263.004 3475.421 945.620 2997.446 1900.204 8218.276 3411.214 3874.792 1445.720 3896.774 3080.251 7466.212 8349.130 8625.980 11298.957 8877.260 14907.505 6568.791 3769.593 7266.722 5343.451 8785.672 3963.429 11774.105 6492.561 7922.006 5520.451 8775.909 13701.118 11939.500 7285.599 6155.018 7937.658 9011.628 7843.072 6759.970 12926.055 4210.410 11146.443 9633.453 14266.551 15762.175 3710.759 9206.123 4553.899 12624.318 6518.358 16359.845 7943.772 8880.703 8567.236 15997.988 7371.077 6777.364 8034.868 2094.736 18253.869 7372.774 9267.178 9610.507
3728.008 6624.007 3518.054 2061.343 3318.567 4942.215 2787.482 5712.744 3605.593 360.570 1616.296 15511.566 5503.468 2031.404 3333.728 3337.327 7348.467 1601.751 1914.890 3422.746 352.773 0.000 3254.835 2220.866 6179.132 14483.913 14196.690 3437.280 3455.593 3762.266 3763.337 3195.845 3486.609 4004.690 1333.618 3026.103 1098.717 3454.053 15923.174 1338.637 13381.292 7003.040 3129.847 817.393 3329.696 2018.715 8269.267 3321.734 3693.816 1169.320 3624.859 2761.060 7357.549 8304.268 8605.120 11633.535 8898.281 15077.924 6880.841 3432.090 7297.574 5578.463 8808.711 4290.237 12122.086 6546.540 7988.147 5870.788 8785.194 14023.064 12287.475 7386.845 6178.446 7988.840 9040.792 7911.256 6827.824 13263.833 3971.720 11484.648 9627.528 14614.370 15894.640 3737.546 9200.460 4204.199 12976.307 6730.090 16664.200 8025.141 9070.092 8664.219 16297.015 7541.647 6839.191 8081.314 2414.811 18348.330 7347.597 9304.311 9651.426
1612.168 9769.562 6772.119 2882.437 6046.950 4383.273 467.504 5902.577 6823.889 2972.056 4500.261 12446.273 4588.525 1343.311 6533.035 5990.788 4946.143 1813.714 4507.422 6676.335 3064.856 3254.835 0.000 1074.655 8809.697 12360.161 12129.624 6127.385 6667.607 6867.378 5975.081 3067.295 6730.656 3788.248 4463.195 6004.057 2479.746 5852.990 12883.354 4591.355 12702.549 10214.995 5950.094 4010.100 3933.353 4615.918 5520.599 6439.108 6936.836 4407.594 6832.565 5837.909 5929.602 11259.261 6338.491 9224.944 6321.491 11844.062 4273.575 5393.095 4715.566 7002.004 6221.257 4715.084 10108.071 3847.050 5158.017 4427.310 11528.268 11354.826 10268.748 4385.842 3723.633 5247.231 11691.056 10386.587 9331.501 12603.430 7218.337 9163.668 7213.992 12538.388 12737.914 1765.677 6798.452 6391.191 11216.419 3483.065 13774.315 5110.828 10693.506 5663.070 13362.851 9378.582 4074.149 5366.073 3619.880 15311.497 5183.700 11912.881 12236.675
1789.855 8808.983 5725.740 1969.557 5219.980 4068.996 632.400 5402.639 5819.890 1917.424 3426.926 13340.601 4422.332 296.044 5539.434 5186.139 5457.160 744.110 3449.359 5628.938 2004.675 2220.866 1074.655 0.000 7783.995 12805.597 12550.165 5313.826 5600.726 5792.734 5305.230 2474.306 5707.463 3306.546 3392.902 5095.595 1407.294 5122.958 13763.280 3558.761 12596.917 9217.443 5092.542 2949.814 3204.046 3559.176 6492.447 5364.705 5879.345 3387.264 5834.871 4893.150 6465.880 10196.324 7165.820 9780.668 7247.035 12913.938 4880.941 4779.747 5627.009 6194.585 7149.315 4091.038 10495.250 4785.950 6151.524 4473.759 10493.493 12040.831 10658.961 5422.800 4573.389 6214.919 10671.411 9393.157 8328.505 12490.730 6192.463 9679.057 8095.912 12964.447 13811.388 2282.174 7673.516 5739.608 11505.671 4515.023 14574.438 6128.007 9884.006 6704.855 14185.489 8508.430 5037.966 6326.648 2714.786 16370.304 5960.294 10900.820 11229.465
8247.099 6639.588 4300.070 5984.233 7033.244 6857.721 8410.764 5854.875 5128.195 6248.538 4567.530 19225.255 7480.524 7492.142 5304.117 7201.561 10598.687 7051.923 4380.102 4296.185 6134.072 6179.132 8809.697 7783.995 0.000 15905.268 15532.748 7156.119 3689.442 2960.552 8152.260 6393.228 4800.182 6363.565 4900.070 6309.175 6424.905 7715.726 19525.468 5376.902 12112.304 6177.588 6765.763 5413.414 5498.357 4267.502 14264.757 3289.839 3951.391 5599.505 5229.445 5949.743 13506.565 2836.004 14759.335 14021.749 14976.101 20284.899 10583.482 8308.548 13356.624 3502.158 14881.823 5471.223 13640.053 12545.865 13933.605 8340.836 2729.152 16712.382 13788.436 13195.332 12260.062 13985.597 2890.207 1782.159 765.292 11980.039 4712.447 13716.125 15759.731 15919.989 21403.491 9825.815 15332.565 8420.904 13858.107 11837.959 19748.915 13911.015 4290.757 14472.431 19536.036 2850.163 12810.779 14092.374 5310.043 24089.562 13506.816 3134.652 3476.455
11015.828 20641.570 17118.829 12523.125 17800.861 9841.558 12644.329 10162.317 17635.927 14126.815 14513.437 6991.383 9178.875 12802.422 17467.455 17810.332 7414.831 13054.838 14105.947 17025.476 14137.272 14483.913 12360.161 12805.597 15905.268 0.000 398.217 17916.748 16613.974 16273.287 18079.079 11386.141 17373.804 10738.170 14911.025 17471.821 13392.601 17850.690 6844.227 15528.122 6558.111 20714.685 17612.682 14792.836 11689.389 14137.069 13995.767 16043.312 17056.624 15478.306 17696.430 17153.204 16924.947 18647.931 15736.337 3333.722 14890.701 12494.722 8127.437 17580.667 14189.805 12406.033 14810.970 11070.131 2379.481 13601.228 13586.540 8637.577 17943.905 3324.522 2215.435 12729.639 14092.359 13922.385 17692.645 16280.183 15798.012 6611.389 17758.089 3262.260 15840.033 301.431 14498.757 13819.216 15644.029 18519.914 2217.304 10425.831 5694.992 13245.868 13785.392 12976.090 5922.159 13915.467 13489.133 14050.917 12544.202 17555.577 15320.363 17679.054 17802.065
10761.459 20317.445 16793.380 12223.454 17514.938 9518.715 12404.068 9804.630 17319.608 13840.634 14197.013 7244.286 8859.844 12539.926 17155.112 17527.309 7190.346 12782.993 13784.777 16700.513 13848.841 14196.690 12129.624 12550.165 15532.748 398.217 0.000 17632.041 16282.332 15932.965 17811.074 11083.066 17054.257 10421.949 14600.885 17175.909 13108.160 17576.611 7118.831 15225.639 6196.052 20380.725 17323.559 14491.552 11366.775 13814.079 13911.565 15707.969 16726.465 15179.726 17381.249 16853.421 16785.729 18269.706 15645.084 3225.588 14816.613 12641.509 7919.033 17319.932 14076.905 12035.173 14735.154 10732.663 2074.884 13470.317 13496.827 8339.015 17558.274 3533.319 1909.493 12625.232 13949.480 13830.653 17304.356 15894.493 15419.125 6246.243 17434.418 3106.858 15775.552 417.758 14638.502 13613.757 15570.129 18252.783 1819.111 10286.747 6028.177 13158.987 13389.397 12909.818 6233.463 13527.081 13366.825 13960.951 12229.273 17711.176 15199.750 17289.157 17410.678
7035.380 3996.420 2894.240 5463.301 139.939 8326.241 5700.166 8866.870 2158.063 3791.741 3933.357 18570.140 8914.873 5232.031 1899.821 150.263 10711.338 4903.689 4430.511 2880.067 3787.441 3437.280 6127.385 5313.826 7156.119 17916.748 17632.041 0.000 3466.839 4199.867 1054.671 6611.124 2422.154 7383.123 3396.754 850.608 4524.224 667.443 19010.094 2634.973 16588.077 4689.723 416.139 3285.667 6594.650 4468.742 9832.228 3921.520 3252.680 2587.273 2072.119 1238.604 7600.305 8217.015 9546.227 15023.060 10177.641 17356.650 10181.948 1491.682 8773.388 8085.392 10110.521 7491.996 15557.750 8265.768 9687.442 9307.860 9169.484 17346.183 15723.122 9386.073 7705.538 9571.960 9589.411 8900.153 7918.581 16465.940 2698.111 14889.722 10632.227 18049.652 17861.777 5671.579 10233.504 1264.947 16408.350 9490.202 19878.782 9838.050 11022.767 10559.221 19479.399 9421.014 8590.835 9620.827 5654.142 19963.714 8358.074 9907.481 10266.434
6782.155 4077.421 685.076 4490.105 3344.789 6785.966 6205.019 6680.633 1523.718 3700.864 2324.473 18572.643 7459.213 5362.467 1637.986 3514.767 10062.913 4890.629 2597.719 644.779 3604.165 3455.593 6667.607 5600.726 3689.442 16613.974 16282.332 3466.839 0.000 745.804 4471.875 5459.425 1172.823 5933.815 2211.185 2621.212 4237.054 4037.143 18950.522 2208.114 14165.638 4104.255 3079.329 2662.010 4950.622 2539.429 11664.517 635.056 457.211 2436.746 1625.123 2272.182 10277.972 5077.727 11836.639 14123.845 12235.061 18511.375 9766.740 4674.273 10663.253 5198.452 12150.307 5558.690 14240.209 9952.986 11405.328 8121.740 5836.668 16686.508 14402.402 10835.844 9538.530 11385.393 6211.241 5437.635 4452.498 14036.900 1295.144 13903.476 12893.327 16694.759 19350.176 7129.840 12470.062 4731.735 14822.664 10098.911 19514.587 11458.834 7673.340 12109.640 19200.232 6082.669 10254.568 11470.080 4189.430 21786.803 10580.633 6518.582 6878.631
6806.675 4577.535 1412.611 4455.788 4075.282 6499.287 6414.986 6227.316 2258.789 3954.321 2381.663 18505.593 7177.052 5533.713 2383.753 4242.153 9923.158 5059.032 2517.489 1384.806 3847.938 3762.266 6867.378 5792.734 2960.552 16273.287 15932.965 4199.867 745.804 0.000 5191.746 5321.221 1910.939 5697.873 2439.324 3351.056 4392.926 4755.315 18868.408 2649.661 13592.398 4478.092 3806.323 2945.148 4704.445 2433.740 12030.049 440.936 1109.323 2883.920 2360.862 2989.200 10822.389 4572.009 12292.888 13886.047 12641.311 18692.035 9684.127 5363.287 11050.143 4578.154 12553.636 5205.032 13909.010 10308.339 11750.278 7891.003 5217.997 16485.474 14069.495 11132.925 9927.802 11749.747 5563.043 4722.616 3720.567 13462.689 1964.538 13647.995 13336.542 16342.372 19599.062 7494.268 12910.998 5463.764 14428.871 10233.129 19364.458 11783.655 6932.511 12413.875 19069.715 5344.872 10601.454 11840.821 4042.167 22100.538 11033.738 5862.230 6221.512
7085.285 4793.233 3928.075 5823.303 1151.602 8702.835 5588.569 9413.193 3211.240 4087.544 4606.332 18328.963 9249.809 5281.570 2945.255 970.433 10762.208 5030.358 5096.220 3907.371 4112.395 3763.337 5975.081 5305.230 8152.260 18079.079 17811.074 1054.671 4471.875 5191.746 0.000 6947.409 3466.589 7767.301 4059.511 1858.795 4777.376 437.464 18784.594 3295.662 17118.949 5558.776 1398.520 3830.891 7066.737 5151.821 9134.124 4884.653 4286.173 3183.927 3126.266 2202.577 6677.833 9271.602 8714.300 15085.858 9406.987 16785.532 10173.826 656.875 8075.124 8848.576 9345.920 8005.822 15743.911 7643.204 9026.867 9553.181 10216.147 17314.405 15908.731 8814.941 7049.088 8883.710 10630.443 9909.141 8911.101 16999.742 3752.753 14980.586 9797.710 18227.342 17193.785 5227.177 9409.840 444.560 16670.649 9182.399 19739.560 9205.055 11925.363 9936.443 19316.939 10325.029 7968.386 8920.755 6132.165 19196.685 7562.712 10946.824 11306.202
1931.999 9336.554 5859.837 1149.143 6486.577 1766.129 2877.494 2928.824 6287.314 2860.752 3193.510 13192.949 2307.790 2249.835 6098.408 6519.399 4608.486 2169.697 2861.715 5761.911 2843.317 3195.845 3067.295 2474.306 6393.228 11386.141 11083.066 6611.124 5459.425 5321.221 6947.409 0.000 6050.519 869.708 3539.672 6101.424 2186.286 6649.105 13549.930 4142.587 10314.142 9519.592 6276.901 3408.916 950.022 2923.011 8466.938 4984.397 5865.383 4100.851 6340.755 5771.614 8910.001 9107.999 9397.960 8705.012 9320.780 13896.618 4374.903 6565.578 7739.721 4006.558 9218.618 1650.172 9010.459 6857.055 8070.054 2751.740 9100.418 11233.744 9175.565 7195.972 6784.272 8203.584 9167.044 7759.681 6772.046 10201.747 6470.430 8509.486 10245.643 11500.534 15068.434 4699.289 9835.996 7390.536 9802.028 5493.162 14059.177 7966.888 7672.835 8419.437 13754.041 6439.518 7053.033 8331.410 1279.720 17843.997 8250.994 9345.497 9641.117
7115.020 3286.038 502.836 4977.873 2315.516 7536.373 6263.461 7622.704 352.292 3803.589 2866.217 18945.523 8195.089 5511.217 522.349 2496.186 10583.931 5063.011 3270.491 528.044 3730.714 3486.609 6730.656 5707.463 4800.182 17373.804 17054.257 2422.154 1172.823 1910.939 3466.589 6050.519 0.000 6636.873 2533.939 1621.204 4462.039 3045.880 19344.541 2150.309 15208.732 3540.448 2074.984 2822.900 5689.103 3246.490 11372.269 1766.966 849.633 2323.356 452.764 1368.453 9653.991 5835.132 11375.768 14754.752 11864.869 18499.921 10210.189 3769.925 10340.558 6308.340 11786.034 6406.682 14994.508 9694.314 11151.858 8784.620 6749.559 17257.696 15158.377 10671.241 9222.698 11097.427 7167.268 6512.919 5565.464 15081.191 489.396 14559.151 12450.596 17469.596 19223.486 6896.413 12034.071 3674.567 15654.941 10212.082 20005.928 11240.476 8843.385 11922.191 19664.142 7254.438 10007.969 11169.955 4835.582 21543.945 10135.069 7485.578 7844.429
2425.293 9911.958 6397.798 1944.044 7255.067 943.127 3656.223 2119.071 6897.984 3682.701 3775.361 12955.680 1564.995 3098.370 6734.920 7298.293 4303.518 3038.693 3374.871 6302.608 3654.912 4004.690 3788.248 3306.546 6363.565 10738.170 10421.949 7383.123 5933.815 5697.873 7767.301 869.708 6636.873 0.000 4187.509 6830.098 3035.118 7455.574 13287.268 4847.732 9448.997 10032.799 7034.462 4129.135 993.485 3413.314 9036.640 5405.589 6362.420 4831.532 6959.301 6482.736 9691.607 9154.042 10064.186 8195.432 9921.281 14052.722 4222.130 7405.052 8369.265 3576.669 9818.128 1055.386 8358.696 7481.495 8623.541 2194.058 9013.721 10787.968 8522.803 7710.925 7461.488 8781.391 9027.355 7578.663 6651.196 9335.997 7029.551 7969.929 10871.502 10838.063 15317.810 5481.618 10469.591 8208.717 9075.611 5796.767 13690.202 8492.958 7146.710 8894.977 13415.433 6030.603 7654.680 8913.898 1807.805 18163.000 8949.852 9178.897 9454.708
4621.195 5812.138 2420.955 2445.956 3258.553 5114.835 4003.361 5483.386 2751.651 1516.760 546.858 16447.980 5752.282 3151.503 2559.332 3347.984 8049.992 2679.444 1040.301 2321.284 1412.545 1333.618 4463.195 3392.902 4900.070 14911.025 14600.885 3396.754 2211.185 2439.324 4059.511 3539.672 2533.939 4187.509 0.000 2714.871 2027.743 3662.328 16838.994 768.807 13199.970 6057.808 3002.445 522.749 3297.439 1092.310 9600.235 2000.855 2519.521 887.170 2802.332 2336.995 8606.563 6970.704 9927.919 12233.415 10231.693 16306.611 7684.385 3934.581 8631.090 4805.295 10142.232 4136.426 12532.461 7876.430 9314.590 6288.356 7467.979 14724.885 12697.151 8694.222 7512.058 9319.720 7738.442 6655.935 5576.282 13077.033 2981.004 12045.807 10955.669 15017.682 17174.309 5070.859 10528.810 4460.284 13259.524 7887.838 17475.908 9344.872 8078.122 9974.800 17138.780 6505.730 8166.850 9413.171 2383.799 19661.381 8669.239 8009.003 8359.404
6735.243 3808.060 2070.650 4955.152 724.230 7770.135 5554.030 8195.497 1404.201 3386.444 3229.679 18431.093 8383.302 4969.899 1107.649 894.103 10374.101 4590.267 3722.346 2048.591 3358.644 3026.103 6004.057 5095.595 6309.175 17471.821 17175.909 850.608 2621.212 3351.056 1858.795 6101.424 1621.204 6830.098 2714.871 0.000 4123.213 1430.323 18857.319 1989.361 15906.198 4377.223 460.349 2701.348 5988.809 3748.353 10131.262 3071.286 2428.314 2001.649 1333.961 407.348 8145.904 7453.008 9980.761 14657.567 10545.694 17506.229 9893.323 2155.149 9080.274 7295.625 10472.872 6849.809 15101.441 8507.089 9951.940 8836.929 8364.912 17045.164 15266.768 9570.848 7983.616 9863.355 8773.985 8057.860 7070.901 15782.529 1960.555 14503.966 11064.175 17593.624 18102.096 5798.364 10655.785 2112.776 15897.138 9447.089 19655.295 10075.818 10179.081 10782.798 19275.071 8577.578 8828.940 9923.147 5056.460 20300.297 8762.709 9089.486 9449.020
2664.420 7667.728 4421.219 1135.231 4408.455 3952.174 2037.555 4910.230 4618.661 738.321 2020.583 14485.936 4475.909 1140.912 4366.810 4419.307 6254.310 666.672 2058.075 4322.429 768.228 1098.717 2479.746 1407.294 6424.905 13392.601 13108.160 4524.224 4237.054 4392.926 4777.376 2186.286 4462.039 3035.118 2027.743 4123.213 0.000 4498.361 14888.978 2332.133 12477.004 8001.127 4225.782 1641.337 2518.294 2169.526 7841.114 3968.679 4543.337 2207.528 4647.954 3848.404 7432.888 8793.064 8392.929 10535.101 8556.553 14301.752 5802.518 4380.078 6935.559 5188.425 8461.334 3493.264 11034.117 6121.024 7516.816 4794.375 9119.096 12932.896 11199.470 6816.994 5848.481 7561.645 9315.112 8073.370 6998.785 12362.644 4935.467 10386.021 9364.398 13525.730 15217.660 3439.876 8938.430 5221.663 11909.254 5863.256 15596.054 7509.173 8822.160 8100.364 15237.051 7370.194 6387.972 7667.665 1724.546 17773.329 7156.901 9553.680 9887.963
6887.017 4577.587 3500.973 5514.345 741.973 8394.995 5448.308 9055.871 2801.388 3790.318 4208.893 18258.564 8956.029 5077.096 2526.335 557.777 10569.902 4796.373 4701.786 3477.926 3806.128 3454.053 5852.990 5122.958 7715.726 17850.690 17576.611 667.443 4037.143 4755.315 437.464 6649.105 3045.880 7455.574 3662.328 1430.323 4498.361 0.000 18707.735 2894.980 16770.171 5306.095 971.618 3460.177 6727.213 4753.663 9274.746 4447.191 3858.572 2796.295 2719.560 1766.440 6951.797 8864.217 8930.894 14892.557 9588.033 16864.982 10003.279 837.751 8214.801 8437.950 9523.483 7655.926 15505.994 7742.241 9147.382 9289.610 9793.965 17158.382 15671.092 8889.348 7164.990 9018.802 10204.307 9473.816 8474.255 16650.084 3348.621 14776.776 10016.455 17993.518 17322.357 5231.920 9621.851 798.013 16406.664 9134.006 19627.294 9311.346 11492.608 10038.144 19214.033 9891.904 8067.812 9062.253 5788.814 19378.965 7756.619 10519.739 10879.298
12229.590 22546.940 19258.463 14460.418 18930.301 12677.005 13317.829 13797.852 19507.523 15579.856 16628.975 530.723 12045.066 13906.065 19250.683 18872.544 8984.109 14321.424 16375.244 19158.731 15639.229 15923.174 12883.354 13763.280 19525.468 6844.227 7118.831 19010.094 18950.522 18868.408 18784.594 13549.930 19344.541 13287.268 16838.994 18857.319 14888.978 18707.735 0.000 17220.190 13116.177 22884.834 18829.374 16522.541 14255.875 16448.381 11573.939 18518.521 19324.192 17083.202 19535.416 18653.263 15162.959 22358.117 13233.808 6014.076 12182.636 6630.127 9187.468 18163.516 12248.832 16206.646 12141.916 14071.801 7458.209 12064.291 11317.647 11192.519 22013.353 3697.980 7411.698 10851.729 12705.799 11642.252 21907.921 20422.691 19666.887 13142.295 19810.146 6419.932 12866.657 7120.202 8591.992 13646.294 12850.986 19175.355 8511.538 9627.886 1847.825 10977.323 18680.230 10390.122 1267.502 18309.137 11813.184 11722.579 14827.104 11367.624 13381.591 21984.311 22192.489
4996.148 5337.302 2189.554 3007.408 2497.668 5785.610 4123.855 6234.170 2287.680 1654.109 1314.375 16815.169 6405.934 3361.051 2036.213 2582.125 8542.511 2915.498 1809.089 2096.291 1584.822 1338.637 4591.355 3558.761 5376.902 15528.122 15225.639 2634.973 2208.114 2649.661 3295.662 4142.587 2150.309 4847.732 768.807 1989.361 2332.133 2894.980 17220.190 0.000 13954.420 5678.295 2246.916 737.975 3999.662 1858.729 9456.883 2218.838 2390.246 234.293 2315.824 1635.091 8186.811 7218.046 9651.489 12780.193 10029.967 16399.358 8123.447 3198.674 8455.354 5557.548 9944.622 4870.272 13152.982 7747.070 9200.814 6891.168 7836.961 15226.987 13318.107 8649.342 7330.650 9177.900 8148.039 7154.432 6087.721 13832.020 2633.933 12608.743 10701.292 15643.092 17182.827 4924.022 10276.805 3692.992 13921.138 8068.566 17921.389 9259.863 8760.707 9918.163 17566.582 7175.407 8050.186 9262.134 3067.301 19587.483 8393.204 8433.172 8788.866
11090.709 18163.329 14809.482 11358.283 16451.482 8568.537 12762.144 7721.532 15539.508 13086.494 12676.738 13148.794 8175.950 12446.200 15487.573 16528.037 8844.568 12464.765 12184.045 14736.427 13043.044 13381.292 12702.549 12596.917 12112.304 6558.111 6196.052 16588.077 14165.638 13592.398 17118.949 10314.142 15208.732 9448.997 13199.970 15906.198 12477.004 16770.171 13116.177 13954.420 0.000 17956.424 16200.614 13318.764 10055.197 12161.427 16537.641 13531.302 14618.343 14006.118 15626.133 15515.235 18444.729 14447.515 18060.598 7600.987 17511.780 17728.738 9622.333 16812.479 16304.609 9035.794 17413.216 9114.413 5782.167 15494.687 16082.377 8288.562 13413.405 9418.527 5787.725 15090.505 15758.583 16363.904 13023.399 11833.211 11728.869 132.265 15454.059 7203.409 18536.854 6360.144 19610.139 14459.104 18221.115 17551.111 4606.047 12547.135 12202.744 15808.332 8729.374 15839.678 12360.712 9477.729 15521.896 16507.765 10986.935 22750.980 17236.050 12911.653 12931.027
10655.415 902.558 3661.486 8485.614 4684.119 10890.214 9750.494 10705.327 3397.834 7331.229 6330.119 22485.872 11563.233 9034.142 3682.030 4835.384 14094.778 8593.489 6671.464 3760.131 7263.004 7003.040 10214.995 9217.443 6177.588 20714.685 20380.725 4689.723 4104.255 4478.092 5558.776 9519.592 3540.448 10032.799 6057.808 4377.223 8001.127 5306.095 22884.834 5678.295 17956.424 0.000 4622.741 6363.211 9053.117 6624.009 14489.470 4673.580 3670.389 5833.720 3383.604 4431.776 12236.594 5425.101 14233.890 18212.704 14863.028 21870.346 13742.150 6140.307 13434.095 8925.979 14794.520 9649.671 18342.436 12880.886 14321.752 12215.069 6764.507 20751.970 18504.358 13947.155 12347.656 14224.435 7310.806 7375.709 6817.464 17825.312 3077.457 17999.263 15319.793 20792.301 22478.483 10170.372 14922.472 5473.801 18899.902 13696.191 23531.971 14450.973 10443.643 15159.573 23196.587 9024.136 13203.454 14279.776 8266.778 24642.826 13047.629 7637.291 7945.322
6783.354 3988.124 2530.118 5127.776 278.577 7977.290 5511.566 8480.962 1840.202 3488.526 3534.827 18395.482 8574.993 4991.836 1556.792 435.831 10447.811 4641.212 4031.607 2508.856 3475.421 3129.847 5950.094 5092.542 6765.763 17612.682 17323.559 416.139 3079.329 3806.323 1398.520 6276.901 2074.984 7034.462 3002.445 460.349 4225.782 971.618 18829.374 2246.916 16200.614 4622.741 0.000 2918.264 6227.540 4066.992 9866.985 3517.646 2888.019 2215.352 1762.861 828.194 7770.941 7900.053 9654.335 14749.966 10249.583 17318.486 9938.268 1722.385 8811.364 7671.623 10179.328 7114.162 15248.725 8268.824 9703.963 8990.552 8822.366 17100.506 15414.122 9361.373 7727.079 9602.475 9233.240 8516.664 7526.805 16078.012 2392.790 14608.370 10739.570 17741.293 17869.611 5611.752 10335.236 1660.778 16078.704 9354.883 19666.973 9840.838 10610.495 10555.280 19275.895 9008.693 8592.598 9657.149 5288.553 20022.267 8448.592 9549.073 9908.550
4293.041 6054.590 2786.589 2270.530 3152.578 5069.939 3545.796 5599.389 2992.864 1039.268 919.728 16122.665 5682.251 2725.846 2757.863 3215.712 7811.661 2262.843 1340.620 2688.494 945.620 817.393 4010.100 2949.814 5413.414 14792.836 14491.552 3285.667 2662.010 2945.148 3830.891 3408.916 2822.900 4129.135 522.749 2701.348 1641.337 3460.177 16522.541 737.975 13318.764 6363.211 2918.264 0.000 3309.935 1423.339 9086.615 2504.774 2929.566 704.036 3028.558 2362.938 8095.614 7489.137 9405.177 12043.227 9712.102 15851.561 7404.328 3631.831 8113.392 5131.830 9622.955 4210.457 12418.414 7363.929 8805.131 6155.413 7990.192 14495.797 12583.588 8197.347 6993.404 8806.198 8258.162 7163.213 6081.900 13197.799 3294.397 11870.937 10433.327 14909.080 16693.604 4553.962 10006.510 4251.037 13196.784 7462.006 17203.269 8840.332 8496.494 9476.149 16853.486 6937.849 7656.365 8898.503 2370.364 19161.557 8146.489 8527.232 8876.921
2881.997 8952.239 5430.908 1390.629 6462.173 1848.087 3689.053 2398.837 5961.756 3049.540 2847.047 13917.157 2513.665 2940.828 5814.847 6521.074 5273.226 2732.168 2418.644 5336.968 2997.446 3329.696 3933.353 3204.046 5498.357 11689.389 11366.775 6594.650 4950.622 4704.445 7066.737 950.022 5689.103 993.485 3297.439 5988.809 2518.294 6727.213 14255.875 3999.662 10055.197 9053.117 6227.540 3309.935 0.000 2447.681 9388.793 4415.020 5383.471 4012.188 6027.285 5625.024 9668.781 8251.395 10271.058 9186.394 10229.582 14814.631 5141.109 6761.606 8637.523 3080.158 10127.984 975.996 9311.062 7759.451 8997.626 3186.882 8189.079 11781.445 9474.427 8134.304 7656.458 9122.946 8240.364 6822.444 5847.509 9936.978 6068.719 8957.169 11141.178 11781.696 16007.674 5480.301 10727.985 7501.438 9977.754 6435.767 14679.185 8901.927 6763.989 9363.609 14400.129 5499.089 7965.178 9248.863 940.985 18792.070 9102.733 8412.563 8704.287
4384.818 6504.612 2985.107 2024.313 4329.534 4295.660 4191.416 4466.025 3529.711 2013.243 545.545 16080.459 4960.075 3275.655 3406.411 4426.995 7530.565 2816.588 112.605 2890.464 1900.204 2018.715 4615.918 3559.176 4267.502 14137.069 13814.079 4468.742 2539.429 2433.740 5151.821 2923.011 3246.490 3413.314 1092.310 3748.353 2169.526 4753.663 16448.381 1858.729 12161.427 6624.009 4066.992 1423.339 2447.681 0.000 10007.643 2070.146 2955.864 1974.509 3600.139 3354.378 9361.657 6644.859 10501.883 11589.988 10709.094 16348.975 7261.099 5015.827 9090.234 3723.290 10615.067 3177.674 11758.681 8285.460 9686.080 5591.068 6950.786 14147.115 11922.081 8981.025 7992.562 9727.859 7156.046 5951.683 4870.072 12037.232 3621.070 11375.341 11494.893 14228.816 17332.789 5560.016 11067.892 5551.675 12408.914 7868.234 16981.944 9677.976 7083.223 10263.613 16673.876 5536.414 8555.480 9832.369 1650.024 19926.868 9253.401 7401.288 7739.878
6611.471 13828.520 11572.182 8402.007 9820.904 9355.215 5876.926 11034.357 11342.301 8106.539 9784.463 11049.341 9283.421 6787.493 11016.004 9682.870 7696.228 7215.340 9895.530 11489.417 8218.276 8269.267 5520.599 6492.447 14264.757 13995.767 13911.565 9832.228 11664.517 12030.049 9134.124 8466.938 11372.269 9036.640 9600.235 10131.262 7841.114 9274.746 11573.939 9456.883 16537.641 14489.470 9866.985 9086.615 9388.793 10007.643 0.000 11589.178 11822.843 9230.339 11313.955 10148.895 3646.332 16566.147 1757.842 10686.581 974.323 7831.185 6915.734 8487.070 1059.960 12468.293 875.668 10058.219 12271.404 1725.852 455.823 8717.575 16958.292 11726.311 12398.206 1453.135 2151.869 280.622 17154.711 15885.470 14820.571 16466.001 11846.298 10845.741 1999.711 14254.486 8062.995 4538.029 1698.811 9383.442 13690.391 3990.577 13055.628 757.114 16139.001 1183.821 12502.557 14877.448 1454.685 213.851 9140.471 10176.576 1900.925 17389.145 17719.843
6416.379 4692.352 1304.293 4078.758 3791.968 6234.239 5984.914 6065.958 2118.824 3516.914 1968.328 18150.204 6910.430 5108.679 2186.622 3951.753 9592.512 4633.829 2145.421 1247.903 3411.214 3321.734 6439.108 5364.705 3289.839 16043.312 15707.969 3921.520 635.056 440.936 4884.653 4984.397 1766.966 5405.589 2000.855 3071.286 3968.679 4447.191 18518.521 2218.838 13531.302 4673.580 3517.646 2504.774 4415.020 2070.146 11589.178 0.000 1087.508 2452.795 2217.831 2691.018 10400.075 5009.532 11855.584 13600.958 12200.829 18270.247 9331.239 5019.126 10609.282 4565.890 12113.069 4976.138 13673.043 9867.580 11309.852 7599.149 5629.386 16183.823 13834.545 10695.061 9487.012 11308.886 5960.479 5066.655 4039.341 13402.499 1929.434 13371.538 12898.007 16119.231 19166.952 7053.333 12472.328 5178.295 14230.653 9818.455 19041.238 11344.079 7129.466 11975.633 18738.434 5531.457 10160.909 11399.902 3705.312 21662.168 10596.311 6254.690 6613.012
7129.700 3621.935 358.472 4869.056 3139.973 7223.368 6471.169 7137.254 1179.355 3965.030 2698.304 18941.097 7895.037 5652.751 1362.688 3317.399 10460.860 5185.527 3007.184 388.350 3874.792 3693.816 6936.836 5879.345 3951.391 17056.624 16726.465 3252.680 457.211 1109.323 4286.173 5865.383 849.633 6362.420 2519.521 2428.314 4543.337 3858.572 19324.192 2390.246 14618.343 3670.389 2888.019 2929.566 5383.471 2955.864 11822.843 1087.508 0.000 2606.418 1281.300 2122.608 10300.028 5089.482 11929.774 14545.830 12364.502 18771.348 10146.903 4547.322 10808.962 5640.151 12281.944 6007.739 14681.693 10121.361 11577.586 8545.987 5942.261 17098.104 14844.145 11038.956 9685.109 11544.980 6345.957 5664.398 4716.618 14489.469 859.494 14329.733 12994.803 17139.312 19572.584 7301.110 12573.855 4512.128 15273.240 10390.795 19910.527 11643.801 8025.595 12306.281 19590.090 6443.936 10427.788 11625.256 4602.845 21969.366 10678.472 6661.175 7020.726
4869.628 5464.982 2393.067 2956.414 2452.968 5772.886 3940.299 6284.737 2436.367 1503.674 1429.936 16674.388 6382.251 3200.579 2168.036 2522.218 8445.824 2765.190 1914.122 2301.727 1445.720 1169.320 4407.594 3387.264 5599.505 15478.306 15179.726 2587.273 2436.746 2883.920 3183.927 4100.851 2323.356 4831.532 887.170 2001.649 2207.528 2796.295 17083.202 234.293 14006.118 5833.720 2215.352 704.036 4012.188 1974.509 9230.339 2452.795 2606.418 0.000 2456.800 1675.982 7954.752 7452.274 9417.812 12700.496 9799.287 16199.676 8009.391 3047.605 8226.654 5692.290 9714.193 4904.822 13105.781 7522.324 8976.911 6841.177 8068.975 15129.239 13271.045 8432.967 7101.925 8951.560 8377.799 7375.372 6306.438 13884.557 2810.748 12535.734 10468.172 15597.370 16970.736 4699.743 10043.799 3592.643 13895.578 7888.726 17803.552 9038.755 8939.576 9699.868 17443.277 7358.798 7826.465 9035.034 3073.424 19365.655 8159.638 8661.946 9017.305
7311.782 3026.142 948.762 5244.116 1978.624 7870.186 6367.574 8014.991 102.307 3959.512 3184.745 19128.991 8522.240 5656.042 304.110 2162.494 10832.683 5221.733 3614.810 980.475 3896.774 3624.859 6832.565 5834.871 5229.445 17696.430 17381.249 2072.119 1625.123 2360.862 3126.266 6340.755 452.764 6959.301 2802.332 1333.961 4647.954 2719.560 19535.416 2315.824 15626.133 3383.604 1762.861 3028.558 6027.285 3600.139 11313.955 2217.831 1281.300 2456.800 0.000 1180.055 9462.899 6145.782 11248.701 15034.895 11773.775 18539.437 10432.801 3483.116 10273.053 6748.548 11697.539 6774.262 15317.007 9654.894 11109.695 9086.280 7108.548 17514.334 15481.308 10665.764 9162.092 11041.604 7539.859 6927.672 5994.345 15498.999 629.996 14848.126 12328.514 17797.327 19217.644 6882.138 11915.679 3301.320 16003.382 10314.773 20231.727 11212.037 9293.185 11904.141 19880.249 7705.396 9972.224 11109.036 5152.300 21490.504 10017.879 7861.245 8218.953
6487.582 3932.581 1771.142 4630.216 1105.064 7420.101 5380.597 7809.448 1226.009 3118.293 2841.908 18233.157 8040.894 4748.844 900.438 1260.895 10102.083 4349.666 3331.781 1735.595 3080.251 2761.060 5837.909 4893.150 5949.743 17153.204 16853.421 1238.604 2272.182 2989.200 2202.577 5771.614 1368.453 6482.736 2336.995 407.348 3848.404 1766.440 18653.263 1635.091 15515.235 4431.776 828.194 2362.938 5625.024 3354.378 10148.895 2691.018 2122.608 1675.982 1180.055 0.000 8298.725 7192.349 10068.661 14369.982 10597.568 17439.971 9641.856 2424.714 9104.679 6888.422 10521.962 6473.184 14779.858 8500.691 9952.735 8515.709 8063.764 16781.201 14945.082 9533.497 7997.354 9877.813 8460.514 7707.593 6708.996 15391.228 1772.636 14208.756 11148.476 17271.006 18079.568 5750.391 10735.755 2487.659 15556.116 9303.154 19421.223 10063.063 9784.164 10761.420 19049.111 8182.416 8819.878 9942.945 4697.758 20324.947 8838.102 8772.794 9132.737
7490.086 11458.259 9984.154 8372.924 7635.728 10311.809 6037.781 11810.616 9519.452 7355.135 8970.745 14642.888 10479.322 6729.003 9197.729 7464.896 9921.465 6993.172 9253.486 9922.159 7466.212 7357.549 5929.602 6465.880 13506.565 16924.947 16785.729 7600.305 10277.972 10822.389 6677.833 8910.001 9653.991 9691.607 8606.563 8145.904 7432.888 6951.797 15162.959 8186.811 18444.729 12236.594 7770.941 8095.614 9668.781 9361.657 3646.332 10400.075 10300.028 7954.752 9462.899 8298.725 0.000 15355.621 2354.895 13593.797 3350.501 11299.036 9114.720 6114.238 2926.903 12598.225 3338.948 10548.933 14960.222 3336.673 3850.793 10186.189 16023.713 14997.675 15104.023 4388.579 2838.652 3536.549 16326.587 15258.380 14176.342 18354.445 10070.810 13678.894 3338.550 17159.337 11213.225 4211.989 3030.822 6792.380 16280.240 6499.699 16579.768 4186.684 16253.815 4812.144 16042.302 14796.599 3493.722 3472.625 9091.369 12790.275 1781.473 16605.244 16958.228
10892.074 6182.757 5428.402 8556.374 8124.173 9684.879 10828.478 8676.423 6062.835 8460.306 6794.404 22054.376 10313.241 9916.997 6345.496 8307.856 13417.913 9452.220 6752.482 5476.456 8349.130 8304.268 11259.261 10196.324 2836.004 18647.931 18269.706 8217.015 5077.727 4572.009 9271.602 9107.999 5835.132 9154.042 6970.704 7453.008 8793.064 8864.217 22358.117 7218.046 14447.515 5425.101 7900.053 7489.137 8251.395 6644.859 16566.147 5009.532 5089.482 7452.274 6145.782 7192.349 15355.621 0.000 16864.867 16847.201 17200.977 22938.482 13375.300 9605.026 15601.789 6291.964 17112.025 8293.772 16414.332 14840.833 16270.456 11169.201 1390.317 19540.449 16559.706 15606.968 14482.480 16285.531 1949.515 2635.365 2851.720 14316.306 5518.949 16536.565 17907.245 18649.611 23972.005 12041.455 17481.419 9423.586 16561.597 14458.678 22582.794 16284.901 5917.337 16890.669 22371.835 4975.400 15126.485 16381.012 7943.925 26566.257 15605.675 2257.811 2538.432
7670.562 13502.087 11643.705 9133.909 9559.981 10505.159 6604.740 12138.055 11291.942 8511.524 10198.607 12705.947 10521.595 7458.472 10964.038 9402.259 9257.203 7829.814 10389.570 11570.316 8625.980 8605.120 6338.491 7165.820 14759.335 15736.337 15645.084 9546.227 11836.639 12292.888 8714.300 9397.960 11375.768 10064.186 9927.919 9980.761 8392.929 8930.894 13233.808 9651.489 18060.598 14233.890 9654.335 9405.177 10271.058 10501.883 1757.842 11855.584 11929.774 9417.812 11248.701 10068.661 2354.895 16864.867 0.000 12419.512 1073.931 8977.534 8458.824 8102.454 1768.387 13330.852 1098.470 11037.121 13971.763 2632.331 2149.997 10045.608 17390.186 13482.861 14102.039 3051.638 2614.875 1814.439 17637.022 16451.331 15371.140 17983.362 11825.976 12567.831 1086.003 15992.385 8859.597 4953.205 702.086 8890.303 15374.919 5569.706 14757.337 2493.785 17024.698 2895.408 14196.839 15673.434 2549.820 1685.640 9879.953 10529.369 1259.464 17893.050 18235.713
8005.573 18040.532 14559.104 9791.686 14915.739 7398.023 9547.945 8170.936 14985.041 11272.968 11897.374 5897.453 6721.574 9815.525 14783.073 14906.513 4323.792 10119.769 11541.241 14461.863 11298.957 11633.535 9224.944 9780.668 14021.749 3333.722 3225.588 15023.060 14123.845 13886.047 15085.858 8705.012 14754.752 8195.432 12233.415 14657.567 10535.101 14892.557 6014.076 12780.193 7600.987 18212.704 14749.966 12043.227 9186.394 11589.988 10686.581 13600.958 14545.830 12700.496 15034.895 14369.982 13593.797 16847.201 12419.512 0.000 11594.676 10162.965 4951.506 14551.758 10858.320 10570.752 11512.506 8754.025 1904.016 10268.060 10271.260 6002.859 16349.417 2698.774 1963.301 9402.155 10763.502 10605.077 16188.228 14715.410 14057.872 7595.928 15174.751 417.528 12558.747 3578.280 12086.447 10592.307 12348.118 15520.003 3366.835 7096.380 5795.209 9933.650 12737.340 9693.039 5677.775 12492.548 10155.511 10735.372 9946.125 15219.139 11986.993 16233.271 16414.120
7497.896 14164.507 12096.962 9187.990 10179.022 10273.470 6647.578 11943.408 11809.327 8763.821 10452.738 11653.891 10221.975 7543.075 11481.249 10030.419 8669.827 7951.856 10596.532 12018.262 8877.260 8898.281 6321.491 7247.035 14976.101 14890.701 14816.613 10177.641 12235.061 12641.311 9406.987 9320.780 11864.869 9921.281 10231.693 10545.694 8556.553 9588.033 12182.636 10029.967 17511.780 14863.028 10249.583 9712.102 10229.582 10709.094 974.323 12200.829 12364.502 9799.287 11773.775 10597.568 3350.501 17200.977 1073.931 11594.676 0.000 7948.640 7890.001 8775.244 1621.663 13308.915 103.809 10930.756 13206.721 2474.470 1430.017 9672.754 17648.494 12537.370 13331.196 2426.157 2722.279 1173.857 17865.140 16626.596 15554.450 17440.243 12329.040 11765.380 1025.400 15153.373 7933.418 5166.896 753.520 9618.204 14633.828 4964.652 13726.107 1714.088 16991.287 1930.793 13161.272 15699.468 2268.812 1031.566 9931.782 9791.463 1859.163 18108.263 18443.945
12050.256 21302.928 18588.906 14384.985 17321.957 13854.803 12306.399 15432.812 18546.619 14812.357 16311.568 6186.732 13421.250 13162.800 18235.343 17206.637 10416.318 13637.540 16247.861 18495.316 14907.505 15077.924 11844.062 12913.938 20284.899 12494.722 12641.509 17356.650 18511.375 18692.035 16785.532 13896.618 18499.921 14052.722 16306.611 17506.229 14301.752 16864.982 6630.127 16399.358 17728.738 21870.346 17318.486 15851.561 14814.631 16348.975 7831.185 18270.247 18771.348 16199.676 18539.437 17439.971 11299.036 22938.482 8977.534 10162.965 7948.640 0.000 10074.295 16129.007 8839.919 17570.660 7961.473 15071.934 12052.724 9148.959 7830.581 12559.070 22997.022 9213.748 12088.923 7975.634 9764.912 8038.123 23054.190 21623.345 20662.134 17713.420 18989.067 10544.061 8189.533 12795.850 2017.071 11709.938 8368.518 17078.706 13461.238 8484.001 8477.624 7608.627 20838.659 6872.020 7894.463 19985.162 8825.302 8039.748 15000.476 5078.147 9686.690 23220.051 23502.974
3158.240 13458.547 10095.054 5278.262 10082.734 3831.587 4605.107 5359.864 10396.631 6524.632 7448.934 8821.547 3351.239 4950.105 10158.944 10057.933 809.436 5303.835 7187.787 9995.430 6568.791 6880.841 4273.575 4880.941 10583.482 8127.437 7919.033 10181.948 9766.740 9684.127 10173.826 4374.903 10210.189 4222.130 7684.385 9893.323 5802.518 10003.279 9187.468 8123.447 9622.333 13742.150 9938.268 7404.328 5141.109 7261.099 6915.734 9331.239 10146.903 8009.391 10432.801 9641.856 9114.720 13375.300 8458.824 4951.506 7890.001 10074.295 0.000 9622.946 6720.159 7567.458 7791.189 5147.362 5953.919 5952.685 6460.309 2484.895 13212.359 7164.248 6108.368 5468.240 6306.453 6742.195 13197.697 11729.316 10843.967 9550.284 10664.962 4900.409 8915.267 8320.656 11533.730 5694.724 8599.287 10602.896 7194.962 2926.039 9798.941 6190.279 10765.821 6269.174 9454.521 9940.662 5943.333 6885.954 5646.507 14534.331 7718.962 13329.637 13587.816
6568.412 5400.186 4195.158 5466.799 1542.057 8330.349 5022.531 9138.378 3557.483 3729.201 4474.183 17704.793 8852.058 4780.165 3262.002 1363.481 10231.248 4566.500 4948.269 4160.177 3769.593 3432.090 5393.095 4779.747 8308.548 17580.667 17319.932 1491.682 4674.273 5363.287 656.875 6565.578 3769.925 7405.052 3934.581 2155.149 4380.078 837.751 18163.516 3198.674 16812.479 6140.307 1722.385 3631.831 6761.606 5015.827 8487.070 5019.126 4547.322 3047.605 3483.116 2424.714 6114.238 9605.026 8102.454 14551.758 8775.244 16129.007 9622.946 0.000 7427.557 8738.140 8712.547 7718.852 15258.262 6987.743 8374.920 9109.148 10487.792 16745.638 15422.625 8158.092 6395.867 8235.092 10879.951 10082.069 9057.928 16695.313 4112.402 14457.185 9187.493 17735.211 16544.408 4580.972 8795.167 1011.868 16217.986 8551.570 19138.404 8550.710 11939.301 9281.568 18710.110 10345.824 7313.013 8273.908 5840.873 18566.583 6936.972 11190.140 11550.198
5956.604 12769.783 10551.566 7572.714 8762.915 8771.797 5030.960 10421.092 10303.258 7153.683 8840.601 11731.138 8767.845 5923.011 9976.321 8624.120 7523.463 6330.260 8977.708 10470.288 7266.722 7297.574 4715.566 5627.009 13356.624 14189.805 14076.905 8773.388 10663.253 11050.143 8075.124 7739.721 10340.558 8369.265 8631.090 9080.274 6935.559 8214.801 12248.832 8455.354 16304.609 13434.095 8811.364 8113.392 8637.523 9090.234 1059.960 10609.282 10808.962 8226.654 10273.053 9104.679 2926.903 15601.789 1768.387 10858.320 1621.663 8839.919 6720.159 7427.557 0.000 11713.700 1525.802 9363.452 12340.090 888.246 1021.757 8279.337 16032.992 12118.070 12475.498 1486.003 1124.729 812.019 16246.082 15004.969 13933.024 16226.103 10811.873 10979.435 2506.051 14436.488 9119.997 3560.534 2100.343 8327.283 13718.853 3869.495 13653.014 1310.328 15401.511 2014.854 13116.558 14093.289 783.376 847.624 8317.457 11221.404 1165.404 16488.130 16823.329
5915.842 9132.883 5867.940 4236.647 7945.608 3736.299 6728.583 2414.516 6654.241 5437.592 4263.961 15935.843 4261.477 5911.335 6659.836 8064.246 7433.969 5607.886 3795.336 5805.391 5343.451 5578.463 7002.004 6194.585 3502.158 12406.033 12035.173 8085.392 5198.452 4578.154 8848.576 4006.558 6308.340 3576.669 4805.295 7295.625 5188.425 8437.950 16206.646 5557.548 9035.794 8925.979 7671.623 5131.830 3080.158 3723.290 12468.293 4565.890 5640.151 5692.290 6748.548 6888.422 12598.225 6291.964 13330.852 10570.752 13308.915 17570.660 7567.458 8738.140 11713.700 0.000 13207.444 2524.842 10138.317 10837.585 12074.997 5150.379 5809.059 13268.145 10286.431 11201.491 10718.948 12202.875 5709.499 4224.015 3487.755 8905.157 6493.319 10252.282 14215.360 12424.619 18881.116 8472.496 13800.418 9233.461 10376.384 9373.226 16332.732 11973.373 3693.961 12417.663 16145.971 2454.643 11045.207 12328.972 3507.654 21739.275 12145.734 5807.223 6044.513
7394.621 14099.142 12015.655 9088.894 10110.816 10169.694 6548.883 11839.750 11732.518 8672.321 10360.823 11613.556 10118.252 7445.360 11404.515 9963.068 8571.882 7855.284 10502.520 11936.629 8785.672 8808.711 6221.257 7149.315 14881.823 14810.970 14735.154 10110.521 12150.307 12553.636 9345.920 9218.618 11786.034 9818.128 10142.232 10472.872 8461.334 9523.483 12141.916 9944.622 17413.216 14794.520 10179.328 9622.955 10127.984 10615.067 875.668 12113.069 12281.944 9714.193 11697.539 10521.962 3338.948 17112.025 1098.470 11512.506 103.809 7961.473 7791.189 8712.547 1525.802 13207.444 0.000 10827.994 13119.603 2374.225 1330.881 9569.591 17555.744 12470.272 13244.544 2325.973 2631.223 1070.795 17771.072 16530.542 15458.790 17341.473 12251.072 11681.175 1125.202 15072.987 7971.751 5075.804 837.394 9560.643 14545.073 4866.211 13677.964 1620.043 16889.405 1861.022 13114.527 15598.917 2166.236 928.262 9832.482 9855.492 1809.837 18013.647 18349.025
3452.594 9620.582 6100.077 2362.222 7357.221 1395.710 4524.536 1425.064 6701.247 4019.168 3643.714 13761.914 2049.950 3844.495 6584.082 7425.554 5127.498 3676.903 3174.006 6011.005 3963.429 4290.237 4715.084 4091.038 5471.223 11070.131 10732.663 7491.996 5558.690 5205.032 8005.822 1650.172 6406.682 1055.386 4136.426 6849.809 3493.264 7655.926 14071.801 4870.272 9114.413 9649.671 7114.162 4210.457 975.996 3177.674 10058.219 4976.138 6007.739 4904.822 6774.262 6473.184 10548.933 8293.772 11037.121 8754.025 10930.756 15071.934 5147.362 7718.852 9363.452 2524.842 10827.994 0.000 8704.055 8477.676 9650.524 2879.380 8067.012 11403.706 8864.674 8748.381 8425.604 9799.715 8052.104 6588.829 5697.967 8994.634 6750.272 8491.744 11868.985 11143.490 16359.778 6341.928 11462.706 8436.982 9266.460 6850.791 14375.765 9528.108 6100.066 9941.535 14131.676 4977.243 8662.065 9930.458 1878.227 19214.766 9898.153 8190.199 8456.431
8709.049 18263.288 14741.210 10149.700 15440.440 7463.551 10367.698 7843.143 15256.451 11766.201 12133.956 7435.025 6799.787 10478.290 15088.415 15453.387 5194.984 10714.363 11727.037 14647.656 11774.105 12122.086 10108.071 10495.250 13640.053 2379.481 2074.884 15557.750 14240.209 13909.010 15743.911 9010.459 14994.508 8358.696 12532.461 15101.441 11034.117 15505.994 7458.209 13152.982 5782.167 18342.436 15248.725 12418.414 9311.062 11758.681 12271.404 13673.043 14681.693 13105.781 15317.007 14779.858 14960.222 16414.332 13971.763 1904.016 13206.721 12052.724 5953.919 15258.262 12340.090 10138.317 13119.603 8704.055 0.000 11680.595 11840.139 6264.731 15774.076 3803.724 165.397 10924.375 12122.641 12165.012 15553.450 14114.407 13573.537 5788.705 15379.751 1566.742 14194.893 2492.638 13985.383 11634.845 13956.902 16186.133 1484.413 8491.807 6843.335 11514.324 11808.013 11341.012 6872.497 11788.161 11603.938 12300.587 10164.753 17115.448 13433.971 15561.172 15706.371
5068.367 12251.312 9878.133 6716.723 8243.456 7885.876 4179.165 9533.168 9678.820 6380.910 8058.697 11556.520 7890.097 5081.796 9354.471 8115.567 6760.854 5501.443 8173.226 9793.707 6492.561 6546.540 3847.050 4785.950 12545.865 13601.228 13470.317 8265.768 9952.986 10308.339 7643.204 6857.055 9694.314 7481.495 7876.430 8507.089 6121.024 7742.241 12064.291 7747.070 15494.687 12880.886 8268.824 7363.929 7759.451 8285.460 1725.852 9867.580 10121.361 7522.324 9654.894 8500.691 3336.673 14840.833 2632.331 10268.060 2474.470 9148.959 5952.685 6987.743 888.246 10837.585 2374.225 8477.676 11680.595 0.000 1457.883 7417.964 15235.449 11678.837 11820.536 1252.935 655.584 1445.277 15436.061 14176.831 13108.856 15413.771 10172.668 10364.395 3391.409 13839.461 9600.819 2823.173 2988.198 7930.096 13032.757 3190.356 13384.893 1572.578 14522.915 2295.903 12866.697 13225.068 325.575 1546.909 7459.569 11852.577 1768.367 15672.925 16005.219
6199.814 13679.770 11335.630 8040.126 9669.963 8925.063 5529.542 10608.113 11134.462 7811.449 9479.960 10796.066 8843.293 6445.116 10809.706 9537.498 7241.584 6881.758 9574.375 11251.016 7922.006 7988.147 5158.017 6151.524 13933.605 13586.540 13496.827 9687.442 11405.328 11750.278 9026.867 8070.054 11151.858 8623.541 9314.590 9951.940 7516.816 9147.382 11317.647 9200.814 16082.377 14321.752 9703.963 8805.131 8997.626 9686.080 455.823 11309.852 11577.586 8976.911 11109.695 9952.735 3850.793 16270.456 2149.997 10271.260 1430.017 7830.581 6460.309 8374.920 1021.757 12074.997 1330.881 9650.524 11840.139 1457.883 0.000 8269.558 16635.637 11363.621 11968.242 997.791 1982.719 342.391 16822.198 15538.805 14478.053 16010.594 11629.833 10423.807 2455.415 13843.028 8175.634 4277.193 2148.154 9293.678 13254.250 3535.505 12765.549 353.027 15738.600 995.056 12219.189 14492.080 1150.762 464.383 8774.744 10394.779 2071.461 17052.328 17380.470
2823.548 12068.638 8568.453 3885.554 9187.996 1484.657 4530.908 2878.435 9030.545 5518.460 5918.917 10885.205 889.131 4388.387 8847.688 9207.721 2285.257 4544.184 5545.580 8472.046 5520.451 5870.788 4427.310 4473.759 8340.836 8637.577 8339.015 9307.860 8121.740 7891.003 9553.181 2751.740 8784.620 2194.058 6288.356 8836.929 4794.375 9289.610 11192.519 6891.168 8288.562 12215.069 8990.552 6155.413 3186.882 5591.068 8717.575 7599.149 8545.987 6841.177 9086.280 8515.709 10186.189 11169.201 10045.608 6002.859 9672.754 12559.070 2484.895 9109.148 8279.337 5150.379 9569.591 2879.380 6264.731 7417.964 8269.558 0.000 10891.000 8597.117 6430.026 7282.088 7588.744 8498.906 10837.551 9357.162 8525.605 8192.614 9192.032 5784.370 10682.948 8756.718 14004.325 6174.513 10319.470 9997.601 7117.971 4924.304 11522.633 8059.343 8281.188 8293.638 11264.578 7479.591 7504.239 8641.365 3954.428 16980.972 9095.071 10950.281 11193.838
10970.224 7487.949 6297.277 8712.921 9064.956 9423.959 11122.751 8222.790 7017.420 8889.947 7199.283 21736.833 10011.262 10203.606 7271.124 9245.736 13171.242 9756.685 7062.824 6328.300 8775.909 8785.194 11528.268 10493.493 2729.152 17943.905 17558.274 9169.484 5836.668 5217.997 10216.147 9100.418 6749.559 9013.721 7467.979 8364.912 9119.096 9793.965 22013.353 7836.961 13413.405 6764.507 8822.366 7990.192 8189.079 6950.786 16958.292 5629.386 5942.261 8068.975 7108.548 8063.764 16023.713 1390.317 17390.186 16349.417 17648.494 22997.022 13212.359 10487.792 16032.992 5809.059 17555.744 8067.012 15774.076 15235.449 16635.637 10891.000 0.000 19048.091 15913.016 15912.084 14927.406 16678.426 559.262 1663.789 2369.206 13283.611 6499.479 16017.795 18407.448 17925.928 24130.854 12485.078 17980.146 10409.851 15810.849 14561.998 22128.015 16621.213 4742.971 17191.153 21950.684 4055.897 15506.264 16782.297 8038.118 26817.358 16132.789 874.981 1186.140
10317.272 20535.525 17090.786 12279.824 17246.871 10030.399 11726.512 10865.494 17470.422 13664.142 14422.158 3751.592 9358.743 12114.332 17251.665 17221.935 6684.478 12461.523 14091.553 16992.399 13701.118 14023.064 11354.826 12040.831 16712.382 3324.522 3533.319 17346.183 16686.508 16485.474 17314.405 11233.744 17257.696 10787.968 14724.885 17045.164 12932.896 17158.382 3697.980 15226.987 9418.527 20751.970 17100.506 14495.797 11781.445 14147.115 11726.311 16183.823 17098.104 15129.239 17514.334 16781.201 14997.675 19540.449 13482.861 2698.774 12537.370 9213.748 7164.248 16745.638 12118.070 13268.145 12470.272 11403.706 3803.724 11678.837 11363.621 8597.117 19048.091 0.000 3742.119 10632.471 12250.783 11706.012 18884.940 17413.191 16755.601 9444.320 17692.293 3040.657 13410.781 3621.269 11226.461 12521.906 13277.385 17737.726 4815.155 8682.828 3120.300 11011.309 15381.012 10609.566 3079.804 15180.854 11504.088 11819.631 12497.240 14256.121 13281.788 18927.519 19105.177
8872.474 18426.665 14904.358 10314.939 15605.823 7626.782 10529.738 7996.932 15420.647 11931.580 12298.111 7399.963 6963.501 10642.595 15252.951 15618.735 5352.226 10879.278 11890.665 14810.867 11939.500 12287.475 10268.748 10658.961 13788.436 2215.435 1909.493 15723.122 14402.402 14069.495 15908.731 9175.565 15158.377 8522.803 12697.151 15266.768 11199.470 15671.092 7411.698 13318.107 5787.725 18504.358 15414.122 12583.588 9474.427 11922.081 12398.206 13834.545 14844.145 13271.045 15481.308 14945.082 15104.023 16559.706 14102.039 1963.301 13331.196 12088.923 6108.368 15422.625 12475.498 10286.431 13244.544 8864.674 165.397 11820.536 11968.242 6430.026 15913.016 3742.119 0.000 11056.060 12266.022 12294.035 15689.390 14252.673 13717.620 5798.030 15543.143 1648.113 14317.142 2327.248 14028.564 11791.795 14081.917 16350.914 1404.457 8630.987 6759.755 11641.220 11927.633 11461.062 6801.753 11922.079 11741.449 12429.191 10329.026 17155.755 13572.235 15695.076 15838.206
5296.919 13349.462 10817.687 7248.256 9354.863 7974.118 4791.449 9664.175 10682.332 7178.644 8815.189 10339.905 7871.228 5710.114 10362.666 9235.904 6253.474 6164.455 8870.728 10729.252 7285.599 7386.845 4385.842 5422.800 13195.332 12729.639 12625.232 9386.073 10835.844 11132.925 8814.941 7195.972 10671.241 7710.925 8694.222 9570.848 6816.994 8889.348 10851.729 8649.342 15090.505 13947.155 9361.373 8197.347 8134.304 8981.025 1453.135 10695.061 11038.956 8432.967 10665.764 9533.497 4388.579 15606.968 3051.638 9402.155 2426.157 7975.634 5468.240 8158.092 1486.003 11201.491 2325.973 8748.381 10924.375 1252.935 997.791 7282.088 15912.084 10632.471 11056.060 0.000 1908.350 1275.866 16076.726 14763.769 13713.634 15017.973 11155.995 9535.967 3451.166 12979.908 8553.139 3784.215 3131.610 9118.549 12323.634 2547.093 12212.157 787.218 14846.405 1283.704 11683.971 13633.326 968.388 1419.012 7970.924 10968.503 2649.413 16297.146 16619.333
5087.815 11699.026 9429.156 6535.599 7689.231 7936.967 3998.221 9548.114 9190.584 6041.556 7730.667 12199.725 7996.777 4868.182 8864.211 7555.663 7115.556 5258.511 7879.961 9347.479 6155.018 6178.446 3723.633 4573.389 12260.062 14092.359 13949.480 7705.538 9538.530 9927.802 7049.088 6784.272 9222.698 7461.488 7512.058 7983.616 5848.481 7164.990 12705.799 7330.650 15758.583 12347.656 7727.079 6993.404 7656.458 7992.562 2151.869 9487.012 9685.109 7101.925 9162.092 7997.354 2838.652 14482.480 2614.875 10763.502 2722.279 9764.912 6306.453 6395.867 1124.729 10718.948 2631.223 8425.604 12122.641 655.584 1982.719 7588.744 14927.406 12250.783 12266.022 1908.350 0.000 1880.659 15147.938 13921.850 12846.762 15673.693 9695.703 10842.869 3523.538 14324.688 10158.351 2444.656 3100.310 7323.843 13449.589 3667.123 14009.716 2159.769 14412.395 2894.971 13495.869 13072.253 957.461 1947.592 7281.950 12328.443 1512.256 15393.573 15730.877
6356.131 13567.798 11295.259 8127.806 9559.153 9112.553 5600.497 10787.945 11069.366 7825.918 9503.938 11119.731 9051.740 6510.117 10743.290 9422.431 7528.948 6936.804 9615.723 11212.276 7937.658 7988.840 5247.231 6214.919 13985.597 13922.385 13830.653 9571.960 11385.393 11749.747 8883.710 8203.584 11097.427 8781.391 9319.720 9863.355 7561.645 9018.802 11642.252 9177.900 16363.904 14224.435 9602.475 8806.198 9122.946 9727.859 280.622 11308.886 11544.980 8951.560 11041.604 9877.813 3536.549 16285.531 1814.439 10605.077 1173.857 8038.123 6742.195 8235.092 812.019 12202.875 1070.795 9799.715 12165.012 1445.277 342.391 8498.906 16678.426 11706.012 12294.035 1275.866 1880.659 0.000 16875.617 15608.071 14542.640 16290.782 11572.066 10754.576 2190.622 14178.088 8310.257 4258.184 1857.217 9138.308 13575.011 3822.857 13098.929 695.066 15876.294 1279.065 12550.994 14608.967 1177.023 144.176 8867.022 10449.137 1764.556 17110.479 17441.457
11060.833 8023.895 6703.342 8846.714 9481.260 9385.309 11296.855 8110.562 7446.558 9126.044 7438.576 21642.910 9952.184 10378.846 7689.614 9660.483 13122.367 9940.982 7268.609 6728.671 9011.628 9040.792 11691.056 10671.411 2890.207 17692.645 17304.356 9589.411 6211.241 5563.043 10630.443 9167.044 7167.268 9027.355 7738.442 8773.985 9315.112 10204.307 21907.921 8148.039 13023.399 7310.806 9233.240 8258.162 8240.364 7156.046 17154.711 5960.479 6345.957 8377.799 7539.859 8460.514 16326.587 1949.515 17637.022 16188.228 17865.140 23054.190 13197.697 10879.951 16246.082 5709.499 17771.072 8052.104 15553.450 15436.061 16822.198 10837.551 559.262 18884.940 15689.390 16076.726 15147.938 16875.617 0.000 1485.833 2395.323 12894.441 6939.599 15848.370 18643.235 17666.269 24226.874 12711.279 18215.959 10838.014 15542.587 14650.542 21976.933 16796.618 4313.671 17351.624 21813.744 3777.280 15700.609 16982.543 8152.705 26947.718 16382.321 332.466 680.699
9671.259 7968.617 6019.541 7515.908 8780.439 7910.166 10010.150 6625.049 6828.155 7957.188 6294.991 20157.110 8470.834 9097.987 7026.363 8951.833 11642.344 8676.363 6063.667 6024.509 7843.072 7911.256 10386.587 9393.157 1782.159 16280.183 15894.493 8900.153 5437.635 4722.616 9909.141 7759.681 6512.919 7578.663 6655.935 8057.860 8073.370 9473.816 20422.691 7154.432 11833.211 7375.709 8516.664 7163.213 6822.444 5951.683 15885.470 5066.655 5664.398 7375.372 6927.672 7707.593 15258.380 2635.365 16451.331 14715.410 16626.596 21623.345 11729.316 10082.069 15004.969 4224.015 16530.542 6588.829 14114.407 14176.831 15538.805 9357.162 1663.789 17413.191 14252.673 14763.769 13921.850 15608.071 1485.833 0.000 1083.592 11702.474 6376.500 14378.890 17435.746 16262.202 22828.109 11502.924 17009.310 10164.648 14147.760 13252.292 20501.029 15497.238 3299.667 16031.047 20333.714 2404.517 14431.096 15719.499 6801.712 25582.672 15204.531 1601.426 1881.845
8666.377 7322.830 5065.350 6470.666 7795.090 7055.965 8948.512 5898.259 5893.159 6874.126 5211.537 19383.781 7648.118 8033.947 6069.251 7962.636 10804.072 7607.422 4982.193 5061.200 6759.970 6827.824 9331.501 8328.505 765.292 15798.012 15419.125 7918.581 4452.498 3720.567 8911.101 6772.046 5565.464 6651.196 5576.282 7070.901 6998.785 8474.255 19666.887 6087.721 11728.869 6817.464 7526.805 6081.900 5847.509 4870.072 14820.571 4039.341 4716.618 6306.438 5994.345 6708.996 14176.342 2851.720 15371.140 14057.872 15554.450 20662.134 10843.967 9057.928 13933.024 3487.755 15458.790 5697.967 13573.537 13108.856 14478.053 8525.605 2369.206 16755.601 13717.620 13713.634 12846.762 14542.640 2395.323 1083.592 0.000 11596.842 5473.988 13737.046 16358.357 15798.352 21832.083 10424.438 15931.741 9183.156 13710.050 12255.497 19819.578 14441.961 3626.724 14984.473 19628.522 2302.694 13365.921 14652.884 5767.199 24561.108 14123.428 2588.739 2905.758
10991.393 18033.225 14681.251 11242.873 16329.252 8458.244 12659.889 7599.832 15412.247 12970.011 12553.212 13169.665 8070.766 12338.427 15361.096 16406.327 8775.304 12354.137 12060.269 14608.348 12926.055 13263.833 12603.430 12490.730 11980.039 6611.389 6246.243 16465.940 14036.900 13462.689 16999.742 10201.747 15081.191 9335.997 13077.033 15782.529 12362.644 16650.084 13142.295 13832.020 132.265 17825.312 16078.012 13197.799 9936.978 12037.232 16466.001 13402.499 14489.469 13884.557 15498.999 15391.228 18354.445 14316.306 17983.362 7595.928 17440.243 17713.420 9550.284 16695.313 16226.103 8905.157 17341.473 8994.634 5788.705 15413.771 16010.594 8192.614 13283.611 9444.320 5798.030 15017.973 15673.693 16290.782 12894.441 11702.474 11596.842 0.000 15325.594 7196.137 18465.457 6417.666 19589.661 14361.119 18147.985 17431.558 4635.906 12475.799 12245.104 15738.117 8601.676 15774.760 12397.127 9346.212 15443.192 16434.703 10867.963 22730.649 17153.137 12783.448 12803.781
7582.069 2883.547 653.852 5415.704 2607.190 7916.568 6751.046 7926.610 556.833 4285.290 3277.378 19413.785 8580.868 5993.405 873.132 2791.223 11025.375 5542.691 3654.839 739.575 4210.410 3971.720 7218.337 6192.463 4712.447 17758.089 17434.418 2698.111 1295.144 1964.538 3752.753 6470.430 489.396 7029.551 2981.004 1960.555 4935.467 3348.621 19810.146 2633.933 15454.059 3077.457 2392.790 3294.397 6068.719 3621.070 11846.298 1929.434 859.494 2810.748 629.996 1772.636 10070.810 5518.949 11825.976 15174.751 12329.040 18989.067 10664.962 4112.402 10811.873 6493.319 12251.072 6750.272 15379.751 10172.668 11629.833 9192.032 6499.479 17692.293 15543.143 11155.995 9695.703 11572.066 6939.599 6376.500 5473.988 15325.594 0.000 14972.816 12903.096 17848.898 19708.710 7379.063 12488.032 3915.740 16012.770 10699.162 20456.699 11721.376 8852.153 12405.085 20119.471 7278.513 10487.184 11643.254 5237.857 22020.030 10589.157 7263.113 7619.663
7895.303 17845.018 14351.926 9610.494 14780.057 7150.727 9471.474 7861.570 14796.055 11124.342 11696.603 6310.118 6472.943 9701.717 14600.694 14775.738 4229.481 9991.011 11329.800 14255.273 11146.443 11484.648 9163.668 9679.057 13716.125 3262.260 3106.858 14889.722 13903.476 13647.995 14980.586 8509.486 14559.151 7969.929 12045.807 14503.966 10386.021 14776.776 6419.932 12608.743 7203.409 17999.263 14608.370 11870.937 8957.169 11375.341 10845.741 13371.538 14329.733 12535.734 14848.126 14208.756 13678.894 16536.565 12567.831 417.528 11765.380 10544.061 4900.409 14457.185 10979.435 10252.282 11681.175 8491.744 1566.742 10364.395 10423.807 5784.370 16017.795 3040.657 1648.113 9535.967 10842.869 10754.576 15848.370 14378.890 13737.046 7196.137 14972.816 0.000 12739.864 3483.965 12457.540 10576.886 12518.100 15417.115 3048.398 7179.922 6153.566 10090.373 12359.372 9876.751 6055.682 12140.225 10263.980 10887.022 9737.242 15593.072 12097.263 15888.499 16064.854
8454.203 14586.718 12712.335 10054.591 10645.910 11252.145 7513.586 12912.700 12370.810 9519.183 11209.352 12336.086 11217.988 8391.020 12042.756 10488.259 9694.363 8781.264 11382.345 12637.862 9633.453 9627.528 7213.992 8095.912 15759.731 15840.033 15775.552 10632.227 12893.327 13336.542 9797.710 10245.643 12450.596 10871.502 10955.669 11064.175 9364.398 10016.455 12866.657 10701.292 18536.854 15319.793 10739.570 10433.327 11141.178 11494.893 1999.711 12898.007 12994.803 10468.172 12328.514 11148.476 3338.550 17907.245 1086.003 12558.747 1025.400 8189.533 8915.267 9187.493 2506.051 14215.360 1125.202 11868.985 14194.893 3391.409 2455.415 10682.948 18407.448 13410.781 14317.142 3451.166 3523.538 2190.622 18643.235 17435.746 16358.357 18465.457 12903.096 12739.864 0.000 16106.282 7917.917 5934.956 427.331 9969.380 15629.151 5989.734 14464.199 2733.913 17904.936 2865.850 13889.687 16585.976 3225.299 2046.811 10800.659 9470.873 2316.905 18894.383 19234.434
11175.462 20731.762 17207.463 12641.077 17932.593 9933.702 12815.255 10205.484 17735.508 14258.279 14612.963 7275.376 9275.593 12955.343 17571.598 17944.846 7596.845 13199.600 14199.890 17114.714 14266.551 14614.370 12538.388 12964.447 15919.989 301.431 417.758 18049.652 16694.759 16342.372 18227.342 11500.534 17469.596 10838.063 15017.682 17593.624 13525.730 17993.518 7120.202 15643.092 6360.144 20792.301 17741.293 14909.080 11781.696 14228.816 14254.486 16119.231 17139.312 15597.370 17797.327 17271.006 17159.337 18649.611 15992.385 3578.280 15153.373 12795.850 8320.656 17735.211 14436.488 12424.619 15072.987 11143.490 2492.638 13839.461 13843.028 8756.718 17925.928 3621.269 2327.248 12979.908 14324.688 14178.088 17666.269 16262.202 15798.352 6417.666 17848.898 3483.965 16106.282 0.000 14800.069 14015.057 15906.830 18668.952 2139.551 10659.640 5936.885 13503.455 13724.772 13241.450 6179.714 13889.251 13731.447 14307.347 12645.510 17856.205 15563.625 17647.040 17764.317
13166.188 21851.329 19360.989 15434.549 17842.305 15217.500 13185.386 16848.524 19235.034 15660.106 17238.123 8166.381 14839.322 14079.405 18914.804 17711.731 11962.922 14551.491 17227.037 19271.239 15762.175 15894.640 12737.914 13811.388 21403.491 14498.757 14638.502 17861.777 19350.176 19599.062 17193.785 15068.434 19223.486 15317.810 17174.309 18102.096 15217.660 17322.357 8591.992 17182.827 19610.139 22478.483 17869.611 16693.604 16007.674 17332.789 8062.995 19166.952 19572.584 16970.736 19217.644 18079.568 11213.225 23972.005 8859.597 12086.447 7933.418 2017.071 11533.730 16544.408 9119.997 18881.116 7971.751 16359.778 13985.383 9600.819 8175.634 14004.325 24130.854 11226.461 14028.564 8553.139 10158.351 8310.257 24226.874 22828.109 21832.083 19589.661 19708.710 12457.540 7917.917 14800.069 0.000 12335.539 8186.051 17446.437 15411.487 9577.013 10434.526 8028.848 22268.515 7319.606 9859.369 21322.849 9277.047 8276.771 16093.502 3141.020 9776.160 24412.180 24709.525
3374.459 9593.242 7063.297 4237.985 5627.612 6131.347 1826.032 7600.162 6899.754 3597.172 5286.884 13175.608 6353.860 2561.408 6579.266 5522.705 6439.904 2892.776 5447.455 6977.568 3710.759 3737.546 1765.677 2282.174 9825.815 13819.216 13613.757 5671.579 7129.840 7494.268 5227.177 4699.289 6896.413 5481.618 5070.859 5798.364 3439.876 5231.920 13646.294 4924.022 14459.104 10170.372 5611.752 4553.962 5480.301 5560.016 4538.029 7053.333 7301.110 4699.743 6882.138 5750.391 4211.989 12041.455 4953.205 10592.307 5166.896 11709.938 5694.724 4580.972 3560.534 8472.496 5075.804 6341.928 11634.845 2823.173 4277.193 6174.513 12485.078 12521.906 11791.795 3784.215 2444.656 4258.184 12711.279 11502.924 10424.438 14361.119 7379.063 10576.886 5934.956 14015.057 12335.539 0.000 5508.034 5585.092 12811.514 4019.706 14713.517 4347.150 12157.834 5026.027 14257.565 10760.044 3126.896 4347.011 4977.080 14668.534 3718.928 12960.355 13299.783
8055.741 14195.312 12292.741 9633.766 10245.170 10862.983 7093.548 12518.172 11957.139 9091.853 10782.022 12321.151 10840.382 7968.427 11628.989 10088.916 9384.983 8356.833 10955.350 12217.845 9206.123 9200.460 6798.452 7673.516 15332.565 15644.029 15570.129 10233.504 12470.062 12910.998 9409.840 9835.996 12034.071 10469.591 10528.810 10655.785 8938.430 9621.851 12850.986 10276.805 18221.115 14922.472 10335.236 10006.510 10727.985 11067.892 1698.811 12472.328 12573.855 10043.799 11915.679 10735.755 3030.822 17481.419 702.086 12348.118 753.520 8368.518 8599.287 8795.167 2100.343 13800.418 837.394 11462.706 13956.902 2988.198 2148.154 10319.470 17980.146 13277.385 14081.917 3131.610 3100.310 1857.217 18215.959 17009.310 15931.741 18147.985 12488.032 12518.100 427.331 15906.830 8186.051 5508.034 0.000 9589.413 15381.647 5678.376 14418.704 2451.871 17491.106 2678.696 13849.603 16167.067 2836.729 1713.359 10379.969 9827.285 1899.017 18467.217 18807.351
7522.101 4670.585 4154.022 6264.873 1388.655 9144.938 6011.261 9841.369 3392.740 4530.249 5006.881 18716.636 9693.523 5720.394 3153.062 1226.797 11196.726 5473.293 5499.616 4142.597 4553.899 4204.199 6391.191 5739.608 8420.904 18519.914 18252.783 1264.947 4731.735 5463.764 444.560 7390.536 3674.567 8208.717 4460.284 2112.776 5221.663 798.013 19175.355 3692.992 17551.111 5473.801 1660.778 4251.037 7501.438 5551.675 9383.442 5178.295 4512.128 3592.643 3301.320 2487.659 6792.380 9423.586 8890.303 15520.003 9618.204 17078.706 10602.896 1011.868 8327.283 9233.461 9560.643 8436.982 16186.133 7930.096 9293.678 9997.601 10409.851 17737.726 16350.914 9118.549 7323.843 9138.308 10838.014 10164.648 9183.156 17431.558 3915.740 15417.115 9969.380 18668.952 17446.437 5585.092 9589.413 0.000 17114.981 9562.829 20146.208 9483.306 12258.520 10217.354 19719.640 10656.936 8254.295 9169.669 6565.405 19398.367 7765.068 11157.868 11516.251
9741.919 18886.766 15364.376 10951.154 16285.547 8144.723 11438.560 8229.994 15936.092 12627.801 12824.662 8555.605 7515.223 11459.181 15792.510 16312.521 6404.808 11651.896 12389.370 15274.297 12624.318 12976.307 11216.419 11505.671 13858.107 2217.304 1819.111 16408.350 14822.664 14428.871 16670.649 9802.028 15654.941 9075.611 13259.524 15897.138 11909.254 16406.664 8511.538 13921.138 4606.047 18899.902 16078.704 13196.784 9977.754 12408.914 13690.391 14230.653 15273.240 13895.578 16003.382 15556.116 16280.240 16561.597 15374.919 3366.835 14633.828 13461.238 7194.962 16217.986 13718.853 10376.384 14545.073 9266.460 1484.413 13032.757 13254.250 7117.971 15810.849 4815.155 1404.457 12323.634 13449.589 13575.011 15542.587 14147.760 13710.050 4635.906 16012.770 3048.398 15629.151 2139.551 15411.487 12811.514 15381.647 17114.981 0.000 9854.706 7638.998 12933.516 11585.224 12783.498 7767.880 11767.012 12971.486 13712.252 10875.751 18533.575 14794.799 15518.574 15631.832
3591.906 13235.202 10240.752 5902.666 9423.582 5847.381 3949.475 7541.535 10306.779 6432.422 7851.945 9160.443 5618.099 4738.672 10014.699 9347.011 3706.677 5208.693 7768.262 10143.959 6518.358 6730.090 3483.065 4515.023 11837.959 10425.831 10286.747 9490.202 10098.911 10233.129 9182.399 5493.162 10212.082 5796.767 7887.838 9447.089 5863.256 9134.006 9627.886 8068.566 12547.135 13696.191 9354.883 7462.006 6435.767 7868.234 3990.577 9818.455 10390.795 7888.726 10314.773 9303.154 6499.699 14458.678 5569.706 7096.380 4964.652 8484.001 2926.039 8551.570 3869.495 9373.226 4866.211 6850.791 8491.807 3190.356 3535.505 4924.304 14561.998 8682.828 8630.987 2547.093 3667.123 3822.857 14650.542 13252.292 12255.497 12475.799 10699.162 7179.922 5989.734 10659.640 9577.013 4019.706 5678.376 9562.829 9854.706 0.000 10713.836 3264.821 12894.953 3390.606 10247.360 11827.368 3116.780 3966.101 6533.265 12370.056 4942.960 14835.201 15133.349
12936.742 23257.366 19876.452 15049.228 19789.600 12986.863 14184.961 13921.734 20195.456 16311.207 17215.380 2319.546 12325.961 14685.893 19957.304 19746.802 9451.809 15071.784 16918.279 19777.105 16359.845 16664.200 13774.315 14574.438 19748.915 5694.992 6028.177 19878.782 19514.587 19364.458 19739.560 14059.177 20005.928 13690.202 17475.908 19655.295 15596.054 19627.294 1847.825 17921.389 12202.744 23531.971 19666.973 17203.269 14679.185 16981.944 13055.628 19041.238 19910.527 17803.552 20231.727 19421.223 16579.768 22582.794 14757.337 5795.209 13726.107 8477.624 9798.941 19138.404 13653.014 16332.732 13677.964 14375.765 6843.335 13384.893 12765.549 11522.633 22128.015 3120.300 6759.755 12212.157 14009.716 13098.929 21976.933 20501.029 19819.578 12245.104 20456.699 6153.566 14464.199 5936.885 10434.526 14713.517 14418.704 20146.208 7638.998 10713.836 0.000 12417.714 18501.305 11877.362 599.562 18287.756 13156.148 13189.829 15336.585 13172.668 14805.496 22025.880 22208.794
6075.690 13823.843 11409.917 7986.296 9816.021 8761.326 5500.250 10451.160 11233.787 7834.652 9490.600 10456.621 8656.177 6419.007 10910.658 9687.865 6964.085 6864.923 9566.868 11323.733 7943.772 8025.141 5110.828 6128.007 13911.015 13245.868 13158.987 9838.050 11458.834 11783.655 9205.055 7966.888 11240.476 8492.958 9344.872 10075.818 7509.173 9311.346 10977.323 9259.863 15808.332 14450.973 9840.838 8840.332 8901.927 9677.976 757.114 11344.079 11643.801 9038.755 11212.037 10063.063 4186.684 16284.901 2493.785 9933.650 1714.088 7608.627 6190.279 8550.710 1310.328 11973.373 1620.043 9528.108 11514.324 1572.578 353.027 8059.343 16621.213 11011.309 11641.220 787.218 2159.769 695.066 16796.618 15497.238 14441.961 15738.117 11721.376 10090.373 2733.913 13503.455 8028.848 4347.150 2451.871 9483.306 12933.516 3264.821 12417.714 0.000 15624.312 736.631 11872.641 14400.675 1248.253 810.815 8714.788 10328.066 2405.334 17021.709 17346.753
9549.489 10929.895 8344.534 7919.867 10888.523 7070.644 10422.421 5420.042 9191.036 8983.590 7579.662 18484.091 7430.930 9598.580 9304.879 11036.902 10459.015 9279.933 7177.183 8316.534 8880.703 9070.092 10693.506 9884.006 4290.757 13785.392 13389.397 11022.767 7673.340 6932.511 11925.363 7672.835 8843.385 7146.710 8078.122 10179.081 8822.160 11492.608 18680.230 8760.707 8729.374 10443.643 10610.495 8496.494 6763.989 7083.223 16139.001 7129.466 8025.595 8939.576 9293.185 9784.164 16253.815 5917.337 17024.698 12737.340 16991.287 20838.659 10765.821 11939.301 15401.511 3693.961 16889.405 6100.066 11808.013 14522.915 15738.600 8281.188 4742.971 15381.012 11927.633 14846.405 14412.395 15876.294 4313.671 3299.667 3626.724 8601.676 8852.153 12359.372 17904.936 13724.772 22268.515 12157.834 17491.106 12258.520 11585.224 12894.953 18501.305 15624.312 0.000 16041.049 18414.099 1601.808 14724.748 16004.245 7182.478 25202.974 15838.839 4185.081 4204.065
6502.146 14540.795 12079.683 8515.403 10535.090 9097.277 6073.111 10795.417 11923.679 8459.890 10098.785 9865.533 8942.009 6991.310 11601.933 10408.981 7011.814 7447.038 10153.440 11992.208 8567.236 8664.219 5663.070 6704.855 14472.431 12976.090 12909.818 10559.221 12109.640 12413.875 9936.443 8419.437 11922.191 8894.977 9974.800 10782.798 8100.364 10038.144 10390.122 9918.163 15839.678 15159.573 10555.280 9476.149 9363.609 10263.613 1183.821 11975.633 12306.281 9699.868 11904.141 10761.420 4812.144 16890.669 2895.408 9693.039 1930.793 6872.020 6269.174 9281.568 2014.854 12417.663 1861.022 9941.535 11341.012 2295.903 995.056 8293.638 17191.153 10609.566 11461.062 1283.704 2894.971 1279.065 17351.624 16031.047 14984.473 15774.760 12405.085 9876.751 2865.850 13241.450 7319.606 5026.027 2678.696 10217.354 12783.498 3390.606 11877.362 736.631 16041.049 0.000 11322.343 14858.584 1970.332 1340.752 9232.795 9686.706 3043.563 17569.671 17890.193
12573.660 22903.877 19546.915 14722.810 19392.701 12738.348 13780.415 13731.764 19846.311 15946.313 16892.370 1723.390 12084.659 14305.623 19602.719 19345.818 9146.814 14700.117 16607.402 19447.377 15997.988 16297.015 13362.851 14185.489 19536.036 5922.159 6233.463 19479.399 19200.232 19069.715 19316.939 13754.041 19664.142 13415.433 17138.780 19275.071 15237.051 19214.033 1267.502 17566.582 12360.712 23196.587 19275.895 16853.486 14400.129 16673.876 12502.557 18738.434 19590.090 17443.277 19880.249 19049.111 16042.302 22371.835 14196.839 5677.775 13161.272 7894.463 9454.521 18710.110 13116.558 16145.971 13114.527 14131.676 6872.497 12866.697 12219.189 11264.578 21950.684 3079.804 6801.753 11683.971 13495.869 12550.994 21813.744 20333.714 19628.522 12397.127 20119.471 6055.682 13889.687 6179.714 9859.369 14257.565 13849.603 19719.640 7767.880 10247.360 599.562 11872.641 18414.099 11322.343 0.000 18149.689 12632.722 12639.783 15033.375 12624.920 14265.554 21871.346 22062.362
8360.339 9456.748 6757.478 6539.558 9286.731 6130.404 9074.282 4619.149 7603.423 7477.063 6018.503 18072.073 6595.934 8217.075 7710.522 9435.127 9739.350 7868.074 5634.324 6726.847 7371.077 7541.647 9378.582 8508.430 2850.163 13915.467 13527.081 9421.014 6082.669 5344.872 10325.029 6439.518 7254.438 6030.603 6505.730 8577.578 7370.194 9891.904 18309.137 7175.407 9477.729 9024.136 9008.693 6937.849 5499.089 5536.414 14877.448 5531.457 6443.936 7358.798 7705.396 8182.416 14796.599 4975.400 15673.434 12492.548 15699.468 19985.162 9940.662 10345.824 14093.289 2454.643 15598.917 4977.243 11788.161 13225.068 14492.080 7479.591 4055.897 15180.854 11922.079 13633.326 13072.253 14608.967 3777.280 2404.517 2302.694 9346.212 7278.513 12140.225 16585.976 13889.251 21322.849 10760.044 16167.067 10656.936 11767.012 11827.368 18287.756 14400.675 1601.808 14858.584 18149.689 0.000 13443.810 14732.415 5793.700 24191.710 14466.538 3773.029 3927.868
5233.138 12575.708 10187.323 6952.959 8568.181 8027.515 4423.655 9687.753 9995.396 6666.347 8339.142 11302.774 8006.257 5333.122 9671.450 8440.625 6748.114 5760.765 8443.471 10102.354 6777.364 6839.191 4074.149 5037.966 12810.779 13489.133 13366.825 8590.835 10254.568 10601.454 7968.386 7053.033 10007.969 7654.680 8166.850 8828.940 6387.972 8067.812 11813.184 8050.186 15521.896 13203.454 8592.598 7656.365 7965.178 8555.480 1454.685 10160.909 10427.788 7826.465 9972.224 8819.878 3493.722 15126.485 2549.820 10155.511 2268.812 8825.302 5943.333 7313.013 783.376 11045.207 2166.236 8662.065 11603.938 325.575 1150.762 7504.239 15506.264 11504.088 11741.449 968.388 957.461 1177.023 15700.609 14431.096 13365.921 15443.192 10487.184 10263.980 3225.299 13731.447 9277.047 3126.896 2836.729 8254.295 12971.486 3116.780 13156.148 1248.253 14724.748 1970.332 12632.722 13443.810 0.000 1292.173 7693.171 11542.860 1833.355 15934.604 16265.180
6488.802 13617.194 11372.841 8245.121 9609.988 9249.980 5714.549 10924.054 11137.924 7922.803 9603.213 11199.110 9192.008 6622.133 10811.430 9471.525 7672.366 7045.936 9720.134 11290.457 8034.868 8081.314 5366.073 6326.648 14092.374 14050.917 13960.951 9620.827 11470.080 11840.821 8920.755 8331.410 11169.955 8913.898 9413.171 9923.147 7667.665 9062.253 11722.579 9262.134 16507.765 14279.776 9657.149 8898.503 9248.863 9832.369 213.851 11399.902 11625.256 9035.034 11109.036 9942.945 3472.625 16381.012 1685.640 10735.372 1031.566 8039.748 6885.954 8273.908 847.624 12328.972 928.262 9930.458 12300.587 1546.909 464.383 8641.365 16782.297 11819.631 12429.191 1419.012 1947.592 144.176 16982.543 15719.499 14652.884 16434.703 11643.254 10887.022 2046.811 14307.347 8276.771 4347.011 1713.359 9169.669 13712.252 3966.101 13189.829 810.815 16004.245 1340.752 12639.783 14732.415 1292.173 0.000 8985.304 10382.022 1712.987 17218.727 17550.475
2950.243 8116.439 4614.704 746.369 5521.916 2731.041 3287.624 3298.380 5091.900 2157.873 1970.282 14467.367 3372.396 2424.128 4927.137 5580.138 5887.203 2100.377 1595.842 4518.035 2094.736 2414.811 3619.880 2714.786 5310.043 12544.202 12229.273 5654.142 4189.430 4042.167 6132.165 1279.720 4835.582 1807.805 2383.799 5056.460 1724.546 5788.814 14827.104 3067.301 10986.935 8266.778 5288.553 2370.364 940.985 1650.024 9140.471 3705.312 4602.845 3073.424 5152.300 4697.758 9091.369 7943.925 9879.953 9946.125 9931.782 15000.476 5646.507 5840.873 8317.457 3507.654 9832.482 1878.227 10164.753 7459.569 8774.744 3954.428 8038.118 12497.240 10329.026 7970.924 7281.950 8867.022 8152.705 6801.712 5767.199 10867.963 5237.857 9737.242 10800.659 12645.510 16093.502 4977.080 10379.969 6565.405 10875.751 6533.265 15336.585 8714.788 7182.478 9232.795 15033.375 5793.700 7693.171 8985.304 0.000 18795.178 8674.240 8355.937 8669.101
15917.997 23954.374 21730.137 18105.813 19961.434 18133.334 15738.009 19791.931 21518.503 18146.594 19780.275 10993.005 17794.244 16651.400 21192.385 19815.823 15006.986 17114.338 19817.902 21645.212 18253.869 18348.330 15311.497 16370.304 24089.562 17555.577 17711.176 19963.714 21786.803 22100.538 19196.685 17843.997 21543.945 18163.000 19661.381 20300.297 17773.329 19378.965 11367.624 19587.483 22750.980 24642.826 20022.267 19161.557 18792.070 19926.868 10176.576 21662.168 21969.366 19365.655 21490.504 20324.947 12790.275 26566.257 10529.369 15219.139 9791.463 5078.147 14534.331 18566.583 11221.404 21739.275 9855.492 19214.766 17115.448 11852.577 10394.779 16980.972 26817.358 14256.121 17155.755 10968.503 12328.443 10449.137 26947.718 25582.672 24561.108 22730.649 22020.030 15593.072 9470.873 17856.205 3141.020 14668.534 9827.285 19398.367 18533.575 12370.056 13172.668 10328.066 25202.974 9686.706 12624.920 24191.710 11542.860 10382.022 18795.178 0.000 11635.197 27149.412 27458.234
6592.457 12334.053 10395.442 7929.742 8365.451 9444.168 5418.721 11045.436 10058.827 7258.307 8943.758 12861.425 9509.021 6250.114 9730.638 8212.248 8527.591 6607.166 9141.243 10321.053 7372.774 7347.597 5183.700 5960.294 13506.816 15320.363 15199.750 8358.074 10580.633 11033.738 7562.712 8250.994 10135.069 8949.852 8669.239 8762.709 7156.901 7756.619 13381.591 8393.204 17236.050 13047.629 8448.592 8146.489 9102.733 9253.401 1900.925 10596.311 10678.472 8159.638 10017.879 8838.102 1781.473 15605.675 1259.464 11986.993 1859.163 9686.690 7718.962 6936.972 1165.404 12145.734 1809.837 9898.153 13433.971 1768.367 2071.461 9095.071 16132.789 13281.788 13572.235 2649.413 1512.256 1764.556 16382.321 15204.531 14123.428 17153.137 10589.157 12097.263 2316.905 15563.625 9776.160 3718.928 1899.017 7765.068 14794.799 4942.960 14805.496 2405.334 15838.839 3043.563 14265.554 14466.538 1833.355 1712.987 8674.240 11635.197 0.000 16639.794 16983.266
11249.016 8353.990 7018.955 9057.933 9798.436 9508.175 11524.078 8193.787 7767.477 9381.643 7697.326 21726.133 10062.861 10607.304 8007.904 9977.211 13235.491 10173.842 7513.892 7042.784 9267.178 9304.311 11912.881 10900.820 3134.652 17679.054 17289.157 9907.481 6518.582 5862.230 10946.824 9345.497 7485.578 9178.897 8009.003 9089.486 9553.680 10519.739 21984.311 8433.172 12911.653 7637.291 9549.073 8527.232 8412.563 7401.288 17389.145 6254.690 6661.175 8661.946 7861.245 8772.794 16605.244 2257.811 17893.050 16233.271 18108.263 23220.051 13329.637 11190.140 16488.130 5807.223 18013.647 8190.199 15561.172 15672.925 17052.328 10950.281 874.981 18927.519 15695.076 16297.146 15393.573 17110.479 332.466 1601.426 2588.739 12783.448 7263.113 15888.499 18894.383 17647.040 24412.180 12960.355 18467.217 11157.868 15518.574 14835.201 22025.880 17021.709 4185.081 17569.671 21871.346 3773.029 15934.604 17218.727 8355.937 27149.412 16639.794 0.000 360.069
11550.670 8673.718 7378.441 9375.924 10157.623 9761.102 11851.268 8414.705 8125.392 9724.974 8042.561 21940.489 10305.316 10935.454 8366.769 10336.505 13478.182 10504.699 7852.462 7402.512 9610.507 9651.426 12236.675 11229.465 3476.455 17802.065 17410.678 10266.434 6878.631 6221.512 11306.202 9641.117 7844.429 9454.708 8359.404 9449.020 9887.963 10879.298 22192.489 8788.866 12931.027 7945.322 9908.550 8876.921 8704.287 7739.878 17719.843 6613.012 7020.726 9017.305 8218.953 9132.737 16958.228 2538.432 18235.713 16414.120 18443.945 23502.974 13587.816 11550.198 16823.329 6044.513 18349.025 8456.431 15706.371 16005.219 17380.470 11193.838 1186.140 19105.177 15838.206 16619.333 15730.877 17441.457 680.699 1881.845 2905.758 12803.781 7619.663 16064.854 19234.434 17764.317 24709.525 13299.783 18807.351 11516.251 15631.832 15133.349 22208.794 17346.753 4204.065 17890.193 22062.362 3927.868 16265.180 17550.475 8669.101 27458.234 16983.266 360.069 0.000
NODE_COORD_SECTION
1 1438.942575 -1211.855723
2 939.158778 -11531.868099
3 2142.106030 -8218.374716
4 2352.380656 -3395.599907
5 -612.822743 -7834.551377
6 4292.047124 -1265.489382
7 77.496783 -2260.990907
8 5843.925895 -1958.182873
9 1341.120703 -8492.364950
10 1064.730310 -4565.508184
11 2428.259185 -5565.076025
12 807.320126 10603.021714
13 4366.068450 -591.668719
14 751.071667 -2886.391631
15 1135.412396 -8236.530602
16 -781.275824 -7760.041969
17 2844.425478 2192.634833
18 972.867694 -3306.263017
19 2831.202955 -5273.831785
20 2137.073368 -8118.770210
21 1162.484312 -4625.065240
22 951.608241 -4907.873216
23 -56.870542 -1813.212673
24 497.277146 -2733.975518
25 6420.243642 -7784.623827
26 7333.143994 8094.424466
27 7450.568068 7713.914141
28 -734.896877 -7902.968621
29 2731.781905 -7869.647298
30 3460.597680 -7711.373782
31 -1728.629456 -7549.659314
32 2950.887162 -2414.620834
33 1650.430894 -8323.731675
34 3725.747249 -2019.673597
35 1937.377083 -5806.091845
36 111.141581 -7814.918860
37 1322.754172 -3873.740896
38 -1291.427586 -7534.520196
39 1142.938388 11014.151094
40 1280.456270 -6205.489853
41 11637.408454 3146.482613
42 1779.237300 -11861.835569
43 -345.460474 -7756.303899
44 1510.541706 -5504.299636
45 3689.195135 -3012.485751
46 2924.074524 -5337.508979
47 -4768.561372 1063.762217
48 3153.570737 -7394.894815
49 2497.853685 -8262.482261
50 1090.048387 -6068.969058
51 1242.905609 -8521.008912
52 472.586913 -7627.062863
53 -5959.056795 -2382.751663
54 7043.656749 -10551.259614
55 -6140.783966 -34.879118
56 4643.951558 6124.159060
57 -5737.387521 960.408825
58 -5136.459514 8886.300591
59 2099.239907 1876.588291
60 -1841.346635 -6902.527357
61 -4376.077185 79.144782
62 6494.992315 -4283.263570
63 -5635.508566 940.483453
64 4586.985795 -2629.680134
65 6528.846455 5854.996958
66 -3509.730537 -116.877073
67 -4314.104218 1099.020184
68 3902.790818 167.230100
69 8230.449009 -9827.031378
70 4076.458403 8762.592586
71 6603.485344 6002.595017
72 -3316.556730 1121.076982
73 -3628.904395 -761.537810
74 -4567.144707 868.364766
75 8712.998828 -9544.330600
76 8161.407706 -8164.675820
77 7181.154797 -7702.856729
78 11579.939728 3027.354702
79 1815.112860 -8784.587814
80 4962.105160 5853.774410
81 -6757.745935 858.854680
82 7634.525802 8088.988791
83 -7150.002003 8767.049182
84 -1747.498830 -2322.516625
85 -6406.969505 614.789550
86 -1999.843362 -7901.904908
87 8007.794993 5982.249805
88 -812.425339 1586.916973
89 2879.968550 11644.377281
90 -4068.851646 1352.947297
91 10006.703741 -5429.226013
92 -4166.532546 2083.073014
93 2371.174511 11327.197739
94 8443.040420 -5776.709396
95 -3601.394954 195.527556
96 -4710.934791 857.821470
97 3037.633157 -3691.397022
98 -10148.686692 9701.872500
99 -5140.661415 -800.388374
100 9042.730381 -9501.775337
101 9392.285565 -9588.150580
DEMAND_SECTION
1 0
2 63
3 4
4 8
5 8
6 7
7 5
8 1
9 6
10 5
11 6
12 7
13 1
14 2
15 4
16 7
17 10
18 3
19 6
20 10
21 5
22 6
23 4
24 8
25 6
26 8
27 3
28 8
29 72
30 4
31 2
32 56
33 6
34 9
35 5
36 3
37 9
38 61
39 6
40 9
41 1
42 64
43 9
44 4
45 5
46 10
47 57
48 88
49 10
50 8
51 6
52 2
53 4
54 1
55 4
56 10
57 2
58 7
59 2
60 10
61 2
62 7
63 1
64 69
65 9
66 82
67 7
68 3
69 73
70 7
71 2
72 1
73 1
74 1
75 8
76 10
77 5
78 51
79 8
80 4
81 4
82 2
83 8
84 2
85 1
86 3
87 1
88 1
89 7
90 2
91 1
92 67
93 1
94 2
95 5
96 8
97 6
98 6
99 6
100 7
101 1
DEPOT_SECTION
1
-1
EOF
