NAME : mamut-hong_kong-n25-hyb
COMMENT : Mamut2026 shortest metric; city hong_kong; 3-decimal seconds/meters; ENU ref in mamut-hong_kong-n25-hyb.vrp.json
TYPE : CVRP
DIMENSION : 26
EDGE_WEIGHT_TYPE : EXPLICIT
EDGE_WEIGHT_FORMAT : FULL_MATRIX
CAPACITY : 131
EDGE_WEIGHT_SECTION
0.000 5234.725 4328.839 10174.335 10433.417 16402.898 4654.548 9857.743 8800.804 5778.913 10130.833 17183.688 5777.310 8525.402 10997.439 5084.204 9757.577 13330.541 16870.655 24961.368 10092.789 4315.720 15659.696 8103.616 5678.628 9640.956
5649.138 0.000 2694.611 6744.643 8437.125 17047.421 2862.754 6428.050 5371.111 7483.087 8134.542 13753.996 811.098 5095.710 7567.746 2360.384 6327.884 17559.353 18865.610 27985.942 6663.097 3113.947 18627.719 12332.427 9907.440 6211.263
4405.571 3215.776 0.000 7800.141 6582.002 17067.427 803.134 7483.549 6426.610 5229.616 6279.419 14809.494 3758.362 6151.208 7481.447 1497.115 7383.383 16315.787 16540.616 25732.471 7718.595 464.305 18585.184 11088.861 8663.874 7266.762
10620.144 7171.170 7371.703 0.000 6889.012 20108.859 7539.846 559.522 3584.147 12152.121 8439.508 7768.316 7982.268 3577.089 5990.086 7037.476 4750.224 22530.360 23542.702 32654.976 632.015 7791.039 23966.592 17303.434 14878.447 4633.603
10877.790 8456.662 6920.626 7199.096 0.000 23539.646 6791.137 6882.504 3793.485 9957.141 3521.447 14072.208 9267.760 3832.024 2204.402 6693.688 2568.302 22788.005 20910.448 30106.444 7117.550 6935.343 25057.403 17561.079 15136.092 2451.681
16763.135 17396.740 17601.300 20045.620 23705.878 0.000 17927.010 20160.540 21391.491 20602.881 23403.294 24113.628 17939.326 21116.089 23588.126 18356.665 22348.264 25230.492 32114.474 40744.837 20523.436 17588.181 26105.691 20358.253 20033.691 22231.643
4925.693 3430.172 742.570 8037.717 6409.738 17587.549 0.000 7721.125 6664.186 5485.465 6107.154 15047.070 3995.938 6388.784 7309.182 1412.795 7505.625 16835.908 16538.220 25734.217 7956.171 864.274 19105.306 11608.983 9183.995 7389.004
10689.055 7240.081 7440.614 780.131 6957.923 19994.841 7608.757 0.000 3653.058 12221.032 8508.419 7734.414 8051.179 3646.000 6058.997 7106.387 4819.135 22599.271 23611.613 32723.887 700.926 7859.950 23852.574 17372.345 14947.358 4702.514
8852.907 5403.932 5604.465 3908.413 4028.713 21017.403 5772.609 3690.524 0.000 10384.884 5758.492 10917.766 6215.030 838.735 2883.185 5270.239 1920.329 20763.122 21775.465 30887.739 3826.867 6023.802 22597.700 15536.196 13111.209 1803.707
5746.087 7924.350 5433.812 12687.674 10474.826 20295.693 5759.521 12371.081 11314.143 0.000 10172.243 19697.027 8466.936 11038.741 11374.270 6384.648 11570.713 15077.352 13415.211 21251.843 12606.128 5420.693 17822.624 10266.544 7564.171 11454.092
10894.650 8742.721 6937.486 9356.747 3784.498 23556.506 6807.998 9040.154 6245.855 9974.002 0.000 16229.858 9394.866 5989.674 4191.978 6710.548 5020.672 22804.866 20927.308 30123.305 9275.200 6952.204 25074.264 17577.940 15152.953 4904.051
17964.180 14515.205 14715.738 7498.234 14159.187 23804.106 14883.882 7613.154 10928.182 19496.156 15709.682 0.000 15326.303 10921.124 13334.121 14381.511 12094.260 26786.641 30886.738 39999.011 7976.050 15135.075 27661.839 21914.401 21670.678 11977.638
6258.788 866.285 3083.244 7226.910 8825.759 17589.368 3251.388 6910.318 5853.379 7859.965 8523.175 14236.263 0.000 5577.977 8050.014 2602.759 6810.152 18169.004 19254.244 28362.820 7145.364 3502.580 19151.159 12942.078 10517.091 6693.531
8430.722 4981.748 5182.281 3724.182 3790.901 20595.218 5350.424 3407.589 753.411 9962.699 5341.397 10733.535 5792.846 0.000 3050.275 4848.054 1992.483 20340.938 21353.280 30465.554 3642.636 5601.617 22175.516 15114.012 12689.025 1875.862
11130.615 7681.640 7799.994 6411.661 2704.255 23295.111 7670.505 6095.068 2933.899 10836.509 4285.248 13400.488 8492.738 3144.808 0.000 7547.947 1708.717 23040.830 21789.816 30985.812 6330.115 7814.711 24875.408 17813.904 15388.917 1592.095
5123.445 2036.384 975.509 6987.416 6400.899 17785.301 1143.653 6670.823 5613.885 5948.584 6098.316 13996.769 2847.482 5338.483 7300.344 0.000 6570.658 17033.660 16901.890 26097.887 6905.870 1394.846 19303.058 11806.735 9381.747 6454.036
9635.307 6186.332 6386.865 4916.353 2957.331 21799.803 6555.009 4599.760 1394.920 10902.143 4610.851 11925.706 6997.430 1656.169 1828.591 6052.638 0.000 21545.522 21855.449 31051.446 4834.807 6806.202 23380.100 16318.596 13893.609 363.639
13643.870 17343.860 16437.974 22283.471 22542.552 24647.205 16763.684 21966.878 20909.940 15798.560 22239.969 26914.112 17886.446 20634.538 23106.574 17193.339 21866.713 0.000 24263.472 17867.427 22201.925 16424.855 11338.920 8180.146 8584.715 21750.091
16836.164 19130.956 16491.370 23715.321 21063.658 31846.825 16688.300 23398.729 22341.790 13392.014 20761.074 30724.674 19673.542 22066.388 21963.102 17170.421 22159.545 24622.182 0.000 17809.106 23633.775 16478.251 27973.799 21044.683 17924.069 22042.924
24395.090 27641.951 25074.726 32298.677 29707.136 39540.966 25271.657 31982.085 30925.146 20776.343 29404.553 39308.030 28184.537 30649.744 30606.580 25813.899 30803.023 28811.428 17605.694 0.000 32217.131 25061.607 32163.045 25233.929 22113.315 30686.402
10240.886 6791.911 6992.444 1051.531 6509.754 20401.426 7160.588 833.641 3204.888 11772.862 8060.249 8060.883 7603.009 3197.830 5610.827 6658.217 4370.966 22151.101 23163.444 32275.718 0.000 7411.781 23985.679 16924.175 14499.188 4254.344
4467.166 3103.203 537.838 7687.568 6117.697 17129.021 660.548 7370.976 6314.037 4782.060 5815.114 14696.921 3645.789 6038.635 7017.141 1454.432 7213.584 16377.381 16102.715 25284.915 7606.022 0.000 18646.779 11150.455 8725.468 7096.963
15407.877 18217.476 18201.981 22995.949 24306.560 24797.050 18527.691 23110.869 22212.227 18575.099 24003.976 27063.957 18760.061 21936.825 24408.861 18957.346 23169.000 9797.241 27069.904 25096.614 23473.765 18188.862 0.000 9624.322 10767.291 23052.378
8224.055 11924.045 11018.159 16863.656 17122.737 19780.711 11343.869 16547.063 15490.124 11391.277 16820.154 22047.619 12466.631 15214.722 17686.759 11773.524 16446.897 8012.907 20445.859 25384.466 16782.109 11005.040 10147.680 0.000 3583.469 16330.276
6073.375 9773.365 8867.479 14712.975 14948.791 19154.990 9193.188 14396.383 13339.444 8407.419 14646.207 21477.403 10315.950 13064.042 15536.078 9622.844 14296.217 8390.646 17276.683 22236.416 14631.429 8854.360 11042.394 3486.313 0.000 14179.595
9582.191 6133.216 6333.749 4863.237 2991.007 21746.687 6501.893 4546.644 1341.804 10935.819 4644.526 11872.589 6944.314 1603.053 1862.267 5999.522 116.621 21492.406 21889.125 31085.122 4781.690 6753.086 23326.984 16265.480 13840.493 0.000
NODE_COORD_SECTION
1 1438.942575 -1211.855723
2 2854.090999 -5289.485434
3 1064.730310 -4565.508184
4 4135.942078 -6886.538572
5 -1291.427586 -7534.520196
6 11628.232688 3269.857197
7 923.626381 -4613.631347
8 4060.200084 -6650.307221
9 1650.430894 -8323.731675
10 -2096.642136 -1536.455502
11 -3269.283285 -7706.210746
12 9158.652102 -10012.655047
13 3141.704469 -5482.583833
14 1591.151434 -7826.520165
15 -640.676540 -8525.795925
16 1223.021177 -5454.771332
17 406.870232 -8091.660322
18 3895.017294 7567.627211
19 -10047.765793 98.291207
20 -7824.829985 10307.260476
21 3725.391552 -7028.847295
22 787.775746 -4445.289215
23 9396.927948 8593.772059
24 3941.763288 2088.584272
25 1773.235849 2432.926155
26 387.033116 -8158.699173
DEMAND_SECTION
1 0
2 7
3 100
4 8
5 4
6 3
7 7
8 7
9 7
10 8
11 1
12 76
13 3
14 5
15 1
16 7
17 55
18 3
19 93
20 2
21 5
22 10
23 5
24 8
25 2
26 2
DEPOT_SECTION
1
-1
EOF
