NAME : poryos-lyon-n100-hyb
COMMENT : Poryos2026 euclidean metric; city lyon; 3-decimal seconds/meters; ENU ref in poryos-lyon-n100-hyb.vrp.json
TYPE : CVRP
DIMENSION : 101
EDGE_WEIGHT_TYPE : EXPLICIT
EDGE_WEIGHT_FORMAT : FULL_MATRIX
CAPACITY : 166
EDGE_WEIGHT_SECTION
0.000 5531.192 4553.515 4757.898 3873.958 775.571 1197.281 2519.920 6967.190 4818.935 3175.161 3164.905 375.686 1152.647 4666.872 2507.001 1201.185 1761.479 2978.123 1172.739 1989.084 2037.572 4864.781 1174.889 3192.275 5781.017 720.768 4967.393 1708.251 3486.390 1680.093 1351.356 1335.273 4100.706 1708.438 1193.794 1852.265 2963.649 1461.882 1090.272 2057.220 1171.754 3195.017 2500.222 3872.005 969.083 1169.281 1665.464 4072.381 2474.312 2411.193 4753.594 3637.054 4644.489 2839.615 4864.395 6076.078 3302.297 6222.571 3310.314 5011.456 2079.506 2590.420 3601.595 4540.015 5876.577 3571.892 4148.263 3582.511 5490.886 6071.551 4411.450 618.645 4624.672 4939.517 4808.061 1363.257 5860.764 4710.754 4197.218 3986.854 4703.727 3654.772 4275.666 3752.736 5199.940 2914.203 4446.035 4048.438 4834.308 5079.522 2302.926 3502.571 4013.085 1951.067 4989.438 5482.075 3427.455 5567.911 3698.579 3719.816
5531.192 0.000 3112.754 4325.431 6542.554 5762.024 6708.027 8028.052 12130.456 9193.734 7831.722 8315.584 5899.328 6087.871 3319.725 8026.263 5054.700 7291.271 4902.036 5837.373 3558.441 5589.308 8522.967 4467.729 7853.100 7320.366 6149.493 8781.806 6193.313 7591.961 7200.019 5947.978 6077.578 9526.787 7088.381 6034.023 6139.135 4902.271 6857.766 6495.490 7523.902 5750.730 4526.078 5283.134 8784.938 6025.966 5632.405 7075.729 8496.956 3494.887 5285.130 1991.247 5302.138 9010.361 6686.299 5063.424 9339.605 8634.059 9673.503 8812.825 6433.385 6124.215 6473.539 5151.978 9707.118 7947.021 3519.563 8258.696 8921.538 657.128 2626.838 2980.452 6009.507 8676.779 10353.087 6948.587 6892.492 5522.053 7183.853 2016.376 5367.152 7922.908 8851.278 8377.338 4319.205 1037.579 7412.739 1196.613 8991.444 9181.320 9918.583 6817.592 4874.260 2022.707 3712.903 9548.064 7766.044 7754.480 6579.690 2146.343 2198.420
4553.515 3112.754 0.000 6187.541 3745.284 4340.040 5454.447 6610.822 9937.869 6683.293 7618.121 7718.041 4821.466 5564.783 5356.435 6652.384 4809.946 6123.486 2369.923 5428.929 2958.146 3490.728 8963.354 4029.478 7637.459 8734.453 5274.083 9145.387 5950.785 7713.895 6101.662 4217.225 5668.297 8558.191 6253.865 4401.931 4161.600 2377.582 6008.521 5641.748 6061.134 4107.946 5524.097 5747.430 6619.755 4525.493 3993.576 6203.107 8467.670 3979.351 5700.682 1123.932 6358.653 6512.519 6869.868 1951.811 10041.919 6849.554 10286.391 7686.349 3360.340 4028.630 6609.109 2330.911 7656.275 9166.765 4877.731 5725.809 7118.365 3631.033 5463.281 198.685 5167.977 6073.035 8553.211 8041.788 5693.814 2488.813 8140.079 3869.979 2424.380 8564.661 8206.307 5826.625 1457.343 2102.533 5197.982 2211.432 8587.600 6658.906 7602.802 4743.730 2094.026 1438.129 2747.876 7099.055 8868.732 5392.260 3468.982 1665.445 1561.499
4757.898 4325.431 6187.541 0.000 7989.656 5457.758 5755.979 6888.295 11536.692 9564.506 5092.250 5965.389 5062.525 4391.897 1008.715 6824.591 3590.319 6011.988 6457.456 4109.592 3963.557 6266.524 4881.781 3744.303 5111.047 3034.093 4912.703 5186.753 4053.268 4482.341 5853.472 5970.561 4227.343 7431.859 5412.110 5884.472 6420.754 6447.889 5285.334 5073.689 6590.777 5746.259 1613.591 2617.607 8616.047 5701.230 5680.531 5456.830 5386.302 2648.295 2692.142 5428.756 1717.897 9386.816 3754.825 7729.397 5380.981 7892.860 5763.535 7073.230 8628.345 6577.547 3684.979 7028.158 9184.120 3723.781 1409.823 8834.427 8148.645 3751.484 2543.753 5990.100 4794.053 9313.753 9326.715 2887.259 5794.398 8556.459 3214.924 2450.257 7402.099 4157.460 6449.786 8964.324 6560.678 4958.519 7635.646 4247.625 6253.065 9577.090 9817.185 6997.055 6783.493 4774.810 4354.759 9747.144 3622.729 8134.092 9027.740 4522.107 4626.256
3873.958 6542.554 3745.284 7989.656 0.000 3141.743 3893.362 4409.945 6427.811 3029.635 6773.946 6364.242 3838.777 4972.592 7516.494 4502.966 4925.336 4429.808 1681.976 5042.401 4048.062 1854.027 8652.371 4393.700 6786.307 9594.191 4341.840 8713.168 5559.932 7260.036 4515.032 2593.770 5178.633 6568.565 4983.217 2815.773 2125.113 1685.532 4804.110 4574.990 3953.468 2721.142 6670.844 6256.552 3350.468 3075.453 2706.523 4897.540 7675.834 5342.007 6173.318 4735.730 7307.887 2876.412 6700.056 2347.927 9886.241 4067.233 9992.933 5644.256 1427.267 1864.054 6457.226 1423.063 4413.100 9739.855 6595.862 2102.604 4262.327 6887.982 8331.137 3778.342 4334.177 2372.820 5521.441 8651.925 4113.849 3065.205 8576.501 6376.820 1362.457 8559.981 6692.577 2179.180 2300.969 5667.630 2147.138 5389.561 7309.562 2996.949 4077.373 2144.406 1686.064 4522.321 3661.201 3478.368 9350.338 2041.361 2017.285 4456.961 4383.031
775.571 5762.024 4340.040 5457.758 3141.743 0.000 1115.371 2330.720 6478.500 4108.090 3725.426 3528.173 701.886 1831.011 5286.788 2353.764 1959.085 1785.476 2451.185 1911.301 2228.837 1353.684 5528.197 1746.907 3740.290 6554.809 1220.700 5606.633 2418.901 4137.507 1776.127 577.010 2037.276 4221.236 2042.036 429.789 1078.793 2436.747 1816.664 1509.903 1794.823 421.365 3926.638 3273.235 3258.020 275.175 461.864 1972.180 4633.939 3031.525 3184.522 4721.198 4403.913 3929.555 3559.378 4357.624 6755.357 2881.157 6878.172 3347.162 4345.556 1313.275 3319.195 3036.408 4033.669 6637.708 4209.649 3396.619 3168.750 5806.186 6588.680 4223.720 1196.785 3875.073 4591.775 5577.672 1357.816 5347.059 5471.211 4650.464 3401.115 5418.254 3966.008 3525.240 3335.775 5297.416 2178.974 4614.249 4458.426 4119.846 4464.886 1548.791 2983.251 4050.057 2052.387 4311.043 6239.670 2683.476 4917.817 3770.097 3769.628
1197.281 6708.027 5454.447 5755.979 3893.362 1115.371 0.000 1324.531 5828.244 4029.288 2895.110 2508.070 821.598 1477.992 5773.590 1318.241 2181.740 670.255 3506.783 1709.952 3151.283 2313.366 4839.604 2361.761 2906.146 6311.184 849.486 4867.039 2031.190 3463.063 677.114 1410.641 1692.949 3105.903 1091.282 1175.487 1789.835 3492.664 933.442 826.501 871.386 1416.357 4149.293 3275.104 2908.830 968.870 1511.219 1004.605 3789.118 3644.794 3186.391 5801.142 4429.014 3872.159 3092.994 5400.308 6082.061 2156.549 6151.125 2236.699 5218.688 2051.050 2899.777 4053.808 3433.553 6263.846 4672.485 3537.483 2427.148 6684.622 7239.322 5335.961 962.051 3985.432 3749.584 5293.604 247.842 6377.727 5114.614 5388.754 4393.703 4864.841 2903.886 3653.326 4428.726 6324.603 2309.299 5599.392 3454.140 4054.971 4086.304 1864.806 4033.908 5101.278 3054.433 4113.203 5849.578 2818.045 5808.224 4804.295 4813.848
2519.920 8028.052 6610.822 6888.295 4409.945 2330.720 1324.531 0.000 4651.167 3541.289 3041.083 2245.019 2144.665 2496.497 7000.563 115.468 3401.139 876.656 4472.275 2779.728 4469.737 3229.310 5049.695 3673.980 3043.112 7009.278 2043.605 4993.648 2905.677 3800.908 1035.599 2400.237 2669.023 2160.766 1548.540 2208.895 2576.968 4459.316 1618.507 1819.626 549.743 2504.060 5275.695 4307.620 2236.098 2104.787 2620.322 1481.280 3802.868 4938.631 4224.544 7050.169 5420.629 3425.721 3738.594 6285.054 6258.212 1116.433 6239.776 1234.378 5825.426 2796.120 3617.475 4930.087 2388.117 6825.205 5903.035 3367.774 1314.098 8009.119 8519.822 6509.859 2181.332 3726.738 2467.507 5985.509 1172.432 7219.194 5738.376 6698.999 5215.506 5266.581 2412.591 3453.549 5452.958 7618.086 2373.537 6909.574 3112.671 3581.007 3242.419 2276.036 4970.815 6378.449 4353.184 3476.760 6406.665 2760.523 6420.579 6092.442 6095.755
6967.190 12130.456 9937.869 11536.692 6427.811 6478.500 5828.244 4651.167 0.000 3436.361 7245.146 6233.482 6607.204 7146.517 11601.781 4720.675 8004.194 5525.963 7570.831 7427.147 8688.517 6587.512 9041.558 8137.222 7238.128 11442.935 6646.061 8877.312 7543.110 8076.519 5686.731 6196.479 7319.967 5009.354 6170.036 6140.554 5996.118 7563.926 6266.140 6463.110 4965.568 6405.816 9923.252 8957.354 3358.569 6203.411 6519.891 6113.008 7714.668 9440.798 8874.865 10718.820 10058.885 3568.056 8255.164 8775.499 10080.935 3672.587 9923.083 4791.128 7605.056 6036.932 8179.064 7686.874 2444.944 11125.392 10500.664 4325.845 3401.917 12247.704 13035.814 9911.643 6774.474 4127.613 2310.924 10442.569 5756.129 9414.602 10144.684 11124.479 7755.570 9473.431 6021.957 4256.569 8507.665 11498.783 4772.007 10942.356 6682.938 3478.109 2355.034 5324.520 7878.328 10228.284 8454.263 2970.530 10719.354 4546.793 8064.563 10018.408 9987.957
4818.935 9193.734 6683.293 9564.506 3029.635 4108.090 4029.288 3541.289 3436.361 0.000 6569.988 5775.843 4551.102 5502.888 9368.364 3656.078 6014.934 4146.159 4371.322 5714.653 6046.223 3643.642 8583.948 5844.951 6573.381 10334.860 4842.852 8534.494 6059.435 7296.701 4306.316 3623.260 5720.339 5272.629 4899.121 3684.287 3233.720 4367.363 4854.399 4850.406 3439.376 3852.721 8013.949 7252.455 1326.395 3863.781 3936.781 4812.514 7343.683 7094.378 7162.458 7573.054 8409.121 186.000 7085.328 5365.954 9798.420 2540.537 9779.693 4514.173 4169.259 3157.400 6911.252 4368.417 1946.364 10248.010 8306.704 957.920 2522.646 9422.316 10543.606 6684.881 4924.079 692.512 3147.447 9313.691 4108.921 5978.733 9116.295 8558.154 4383.785 8755.576 5869.748 858.767 5227.691 8436.023 1940.832 7999.266 6594.770 54.409 1164.235 2590.601 4590.310 7199.407 5729.093 468.136 9830.143 1481.885 4639.654 7047.454 6997.141
3175.161 7831.722 7618.121 5092.250 6773.946 3725.426 2895.110 3041.083 7245.146 6569.988 0.000 1022.975 3040.903 2063.362 5610.340 2928.864 2886.344 2489.564 6137.955 2191.602 4740.884 5074.829 2014.974 3635.424 21.393 4210.735 2516.578 1992.868 1698.278 832.147 2354.928 4208.543 1949.972 2460.758 1808.673 3975.759 4651.306 6123.419 1970.520 2219.706 3165.123 4132.531 3704.465 2682.763 5276.196 3723.184 4187.242 1898.116 908.676 4337.367 2648.752 7608.304 3379.076 6444.912 1338.761 8035.105 3242.130 4129.882 3271.667 2455.357 8055.755 4913.668 1451.609 6747.157 5310.064 3887.919 4679.774 6283.526 4269.565 7566.084 7342.019 7457.029 2575.011 6689.076 4936.316 3235.513 2697.384 9031.076 2912.708 5993.592 7120.715 2260.680 1399.761 6385.478 6925.863 7816.203 5123.260 6977.738 1196.207 6607.441 6248.750 4750.850 6667.057 6808.892 4880.228 6517.774 3477.732 5600.576 8635.191 6466.123 6518.124
3164.905 8315.584 7718.041 5965.389 6364.242 3528.173 2508.070 2245.019 6233.482 5775.843 1022.975 0.000 2923.146 2253.902 6390.518 2129.562 3262.040 1935.211 5977.626 2483.273 4992.948 4814.965 2888.612 3918.736 1013.396 5233.072 2445.104 2790.601 2149.532 1853.163 1853.125 3914.123 2239.573 1477.689 1489.518 3677.323 4291.990 5963.243 1726.378 2081.096 2504.695 3893.057 4484.844 3428.968 4457.041 3450.748 3972.583 1556.160 1585.376 4849.984 3376.393 7855.147 4277.116 5666.226 2245.238 7882.387 4054.602 3266.326 4008.487 1455.952 7717.712 4550.937 2281.428 6547.369 4376.310 4892.062 5392.683 5597.606 3369.848 8118.130 8092.862 7573.944 2550.399 5969.196 3928.666 4257.641 2269.999 8867.829 3935.440 6591.851 6895.778 3244.961 536.541 5688.539 6852.604 8180.183 4518.205 7366.162 947.431 5817.219 5349.545 4250.440 6509.112 7080.002 5055.403 5677.258 4486.044 4956.340 8309.606 6746.944 6784.757
375.686 5899.328 4821.466 5062.525 3838.777 701.886 821.598 2144.665 6607.204 4551.102 3040.903 2923.146 0.000 1136.408 5010.171 2133.097 1475.603 1400.943 3103.041 1247.250 2349.639 2052.870 4826.312 1545.764 3056.466 5927.659 524.959 4906.048 1729.978 3435.737 1331.783 1251.260 1348.188 3776.603 1439.010 1048.912 1745.398 3088.506 1197.364 850.463 1683.242 1122.528 3479.123 2711.509 3553.768 792.686 1158.952 1383.481 3947.999 2839.471 2621.485 5074.519 3864.158 4380.673 2869.463 5006.788 6053.811 2938.020 6176.594 2963.775 5045.616 1993.406 2634.631 3706.750 4186.985 5976.256 3911.660 3926.570 3216.369 5865.199 6437.104 4687.420 495.657 4398.015 4565.590 4935.559 993.198 6000.904 4810.363 4570.909 4079.960 4723.596 3392.628 4051.616 3937.140 5549.107 2680.813 4805.262 3832.815 4569.397 4757.072 2101.672 3634.168 4347.808 2286.598 4698.415 5573.612 3199.634 5615.726 4039.396 4056.279
1152.647 6087.871 5564.783 4391.897 4972.592 1831.011 1477.992 2496.497 7146.517 5502.888 2063.362 2253.902 1136.408 0.000 4548.342 2433.311 1051.009 1620.597 4128.576 292.726 2748.419 3165.625 3715.451 1665.029 2081.883 4857.085 679.350 3814.772 596.878 2334.038 1461.621 2387.660 221.473 3457.478 1079.847 2181.820 2880.371 4114.132 907.517 693.501 2233.342 2252.112 2779.841 1827.022 4380.050 1922.607 2276.447 1102.257 2943.896 2679.923 1740.968 5620.277 2968.521 5343.039 1733.550 6007.136 4933.175 3525.203 5072.036 2845.356 6153.062 3129.692 1502.708 4753.934 4823.751 4861.702 3465.078 4966.079 3770.451 5930.268 6143.144 5407.805 646.145 5426.275 4942.519 3848.538 1447.279 7003.250 3699.025 4461.923 5139.499 3587.834 2782.768 5086.665 4875.062 5926.329 3720.397 5114.517 3047.026 5527.329 5543.173 3187.921 4650.821 4836.325 2843.578 5590.907 4454.703 4238.794 6714.449 4500.295 4541.653
4666.872 3319.725 5356.435 1008.715 7516.494 5286.788 5773.590 7000.563 11601.781 9368.364 5610.340 6390.518 5010.171 4548.342 0.000 6951.437 3602.869 6130.888 5909.361 4255.811 3476.063 5899.931 5685.049 3540.597 5630.536 4035.181 4964.653 5979.528 4329.664 5101.588 5984.604 5745.156 4421.274 7819.306 5618.557 5697.642 6153.861 5901.384 5455.525 5188.941 6637.919 5515.646 1910.061 2961.648 8528.372 5549.398 5433.144 5648.537 6029.096 2275.891 3015.082 4522.249 2383.487 9185.872 4285.005 7008.510 6290.043 7929.918 6660.227 7353.873 8016.763 6276.846 4160.976 6437.550 9195.450 4707.307 1101.118 8575.523 8200.163 2742.865 1744.079 5162.259 4832.245 9051.084 9466.980 3808.201 5853.860 7783.883 4106.015 1514.206 6792.098 4991.113 6902.631 8705.736 5883.455 3987.564 7427.567 3316.886 6800.729 9375.360 9737.561 6777.933 6177.703 3922.549 3857.822 9594.718 4579.738 7903.366 8373.637 3703.639 3809.121
2507.001 8026.263 6652.384 6824.591 4502.966 2353.764 1318.241 115.468 4720.675 3656.078 2928.864 2129.562 2133.097 2433.311 6951.437 0.000 3356.284 820.640 4533.521 2719.112 4469.188 3290.929 4936.408 3651.961 2930.702 6910.467 2004.319 4879.192 2827.365 3691.981 972.348 2449.536 2600.550 2073.496 1462.791 2252.017 2644.682 4520.422 1545.466 1764.307 601.567 2544.450 5213.111 4236.710 2349.501 2136.024 2659.165 1398.890 3687.855 4907.651 4154.406 7074.961 5343.653 3540.928 3642.160 6356.481 6143.913 1219.339 6124.642 1144.870 5915.803 2868.590 3525.371 5000.259 2480.608 6720.395 5855.511 3481.754 1406.666 7997.885 8482.455 6548.620 2143.799 3841.902 2516.009 5887.316 1148.721 7295.090 5637.158 6673.641 5290.573 5157.578 2300.389 3568.005 5510.009 7630.395 2478.911 6914.512 2998.683 3695.919 3347.067 2364.892 5035.753 6395.706 4362.438 3588.957 6301.995 2871.187 6511.297 6106.201 6111.492
1201.185 5054.700 4809.946 3590.319 4925.336 1959.085 2181.740 3401.139 8004.194 6014.934 2886.344 3262.040 1475.603 1051.009 3602.869 3356.284 0.000 2537.784 3767.286 784.320 1872.543 3072.948 4179.860 780.816 2907.034 4668.943 1361.785 4344.921 1188.577 2903.985 2398.782 2521.888 1022.917 4507.900 2114.248 2386.219 3013.824 3753.708 1914.031 1606.287 3038.627 2319.635 2003.886 1336.313 5026.634 2169.652 2288.244 2123.971 3684.992 1629.418 1250.894 4725.087 2446.467 5841.790 2074.925 5541.501 5317.203 4336.165 5525.044 3883.230 5932.118 3220.845 1811.172 4408.742 5614.880 4842.765 2503.264 5348.319 4602.521 4881.689 5136.169 4637.292 1230.146 5825.203 5868.642 3735.852 2251.267 6522.957 3692.551 3413.502 4808.426 3867.487 3797.154 5475.994 4347.161 4947.399 4115.380 4119.404 3983.401 6031.328 6226.877 3501.481 4251.422 3923.470 2067.734 6172.655 4468.398 4628.433 6453.730 3580.210 3633.668
1761.479 7291.271 6123.486 6011.988 4429.808 1785.476 670.255 876.656 5525.963 4146.159 2489.564 1935.211 1400.943 1620.597 6130.888 820.640 2537.784 0.000 4160.044 1903.091 3749.048 2948.584 4492.704 2869.297 2496.775 6238.629 1194.600 4482.370 2052.669 3162.703 169.572 2049.735 1797.327 2435.773 755.304 1820.109 2379.462 4146.071 762.400 944.152 707.969 2076.744 4399.190 3437.230 2909.901 1631.382 2175.771 671.547 3343.892 4103.908 3353.262 6452.063 4559.483 4007.418 2965.240 6044.293 5728.272 1929.091 5758.990 1575.994 5792.551 2633.830 2817.230 4691.975 3225.755 6108.829 5035.322 3797.208 2160.581 7234.260 7668.658 6003.620 1336.151 4211.902 3336.627 5213.086 430.511 7015.064 4990.936 5878.227 5021.154 4613.636 2282.287 3901.532 5092.682 6948.929 2637.837 6205.538 2879.760 4179.195 4011.570 2318.950 4683.959 5739.692 3682.511 4154.651 5690.262 3111.031 6386.258 5435.771 5449.795
2978.123 4902.036 2369.923 6457.456 1681.976 2451.185 3506.783 4472.275 7570.831 4371.322 6137.955 5977.626 3103.041 4128.576 5909.361 4533.521 3767.286 4160.044 0.000 4106.707 2496.333 1242.965 7825.073 3094.881 6154.139 8347.079 3624.030 7939.767 4658.129 6457.834 4183.886 2114.461 4299.498 6555.692 4493.147 2340.281 1906.372 14.539 4266.998 3947.376 3932.050 2092.116 5264.086 5031.760 4250.648 2539.476 2006.128 4422.477 7041.685 3822.985 4957.433 3201.732 5979.543 4194.306 5755.130 1906.730 9018.221 4550.174 9184.371 5641.191 2212.534 1724.168 5494.984 641.482 5292.064 8591.598 5049.104 3416.276 4807.873 5219.142 6654.211 2341.462 3563.501 3803.983 6223.962 7469.041 3754.422 2898.569 7452.941 4711.331 1041.301 7603.675 6404.027 3526.468 1000.948 4080.141 2830.555 3730.809 6909.601 4351.841 5243.411 2412.064 532.207 2880.357 2106.033 4767.479 8227.111 3029.254 2697.766 2787.955 2719.077
1172.739 5837.373 5428.929 4109.592 5042.401 1911.301 1709.952 2779.728 7427.147 5714.653 2191.602 2483.273 1247.250 292.726 4255.811 2719.112 784.320 1903.091 4106.707 0.000 2560.656 3210.293 3718.471 1460.003 2211.298 4685.488 872.179 3840.569 552.559 2361.049 1746.775 2483.021 248.927 3728.684 1371.092 2292.411 2982.931 4092.418 1199.775 964.908 2497.303 2326.451 2496.362 1567.653 4618.767 2039.025 2335.895 1394.857 3043.157 2405.843 1479.725 5434.665 2719.316 5551.405 1667.822 5962.918 4916.481 3794.790 5077.757 3133.876 6179.609 3223.794 1417.684 4740.140 5091.943 4731.067 3172.386 5145.945 4044.265 5664.871 5851.905 5266.332 797.066 5611.527 5230.912 3689.173 1704.246 6957.018 3564.737 4183.345 5131.453 3531.759 3017.075 5268.627 4808.436 5705.966 3897.918 4885.824 3235.416 5737.322 5791.898 3341.101 4620.953 4642.707 2688.629 5818.337 4330.428 4417.649 6731.340 4303.261 4349.365
1989.084 3558.441 2958.146 3963.557 4048.062 2228.837 3151.283 4469.737 8688.517 6046.223 4740.884 4992.948 2349.639 2748.419 3476.063 4469.188 1872.543 3749.048 2496.333 2560.656 0.000 2456.258 6005.219 1105.491 4761.141 5997.781 2651.952 6189.267 3046.503 4769.613 3668.779 2510.080 2808.668 6063.994 3631.067 2548.097 2820.402 2486.407 3389.209 3015.486 3967.081 2290.871 2821.935 2824.357 5402.035 2500.258 2182.181 3604.231 5556.270 1328.062 2769.671 2874.411 3595.944 5860.530 3914.118 3962.486 7092.045 5109.725 7330.150 5296.871 4687.616 2891.986 3654.581 3083.894 6245.201 6338.826 2557.959 5191.123 5397.238 3577.390 4497.661 2779.105 2518.653 5656.967 6813.906 5204.125 3341.661 4894.552 5258.082 2512.431 3469.329 5617.848 5513.679 5319.926 2745.620 3221.372 4133.800 2456.953 5791.380 6045.926 6587.773 3491.532 2854.433 2088.095 391.210 6329.323 6010.454 4564.345 5122.706 1754.039 1793.272
2037.572 5589.308 3490.728 6266.524 1854.027 1353.684 2313.366 3229.310 6587.512 3643.642 5074.829 4814.965 2052.870 3165.625 5899.931 3290.929 3072.948 2948.584 1242.965 3210.293 2456.258 0.000 6875.801 2578.440 5089.300 7741.770 2574.235 6958.891 3740.883 5486.921 2986.956 902.740 3362.824 5321.166 3350.630 1138.412 675.472 1230.013 3139.710 2855.526 2689.583 942.395 4870.357 4406.395 3229.042 1368.427 893.925 3273.422 5983.500 3648.301 4322.430 4146.969 5473.472 3457.910 4876.348 3097.001 8098.377 3359.281 8228.238 4403.085 2992.778 553.380 4627.977 1743.403 4218.839 7887.867 4905.935 2751.561 3627.676 5785.527 6936.724 3423.430 2544.422 3209.556 5064.987 6797.957 2558.204 4066.928 6725.626 4947.314 2081.047 6740.258 5216.649 2878.609 2230.052 4912.151 1827.560 4392.957 5757.374 3637.593 4332.112 1276.095 1748.806 3643.983 2109.778 3970.477 7500.248 2175.778 3564.163 3450.941 3412.700
4864.781 8522.967 8963.354 4881.781 8652.371 5528.197 4839.604 5049.695 9041.558 8583.948 2014.974 2888.612 4826.312 3715.451 5685.049 4936.408 4179.860 4492.704 7825.073 3718.471 6005.219 6875.801 0.000 4955.418 2010.960 2839.251 4313.043 314.030 3167.001 1392.361 4350.646 6059.430 3530.619 4051.049 3780.828 5836.795 6531.562 7810.769 3906.606 4085.482 5177.050 5948.418 4008.736 3311.067 7285.790 5576.923 5982.913 3871.420 1328.887 5202.215 3334.591 8737.272 3315.784 8459.711 2105.138 9674.474 1242.465 6124.807 1359.298 4331.205 9866.834 6790.320 2369.247 8457.450 7264.586 2253.787 5043.444 8289.912 6247.740 8122.085 7396.337 8783.643 4332.205 8700.607 6764.467 2162.581 4663.467 10666.074 1773.329 6530.567 8847.152 753.991 3020.458 8393.785 8503.210 8739.365 7112.923 7890.548 2378.077 8621.707 8229.819 6704.262 8338.968 7929.463 6240.964 8523.880 1920.996 7599.164 10429.843 7586.309 7658.462
1174.889 4467.729 4029.478 3744.303 4393.700 1746.907 2361.761 3673.980 8137.222 5844.951 3635.424 3918.736 1545.764 1665.029 3540.597 3651.961 780.816 2869.297 3094.881 1460.003 1105.491 2578.440 4955.418 0.000 3655.696 5257.352 1692.896 5124.391 1941.497 3684.452 2760.747 2230.458 1708.788 5062.047 2621.492 2162.618 2676.664 3082.001 2390.040 2029.503 3228.540 2004.198 2292.486 1938.039 4991.944 2008.865 1936.266 2608.004 4454.311 1304.975 1865.590 3976.302 2919.264 5664.439 2851.890 4808.016 6079.653 4476.154 6296.319 4351.707 5293.759 2839.948 2588.820 3732.159 5704.323 5500.992 2463.677 5091.745 4757.006 4370.756 4898.933 3857.565 1550.912 5570.884 6110.484 4375.362 2503.527 5780.685 4372.417 3027.079 4132.556 4619.703 4446.145 5221.792 3602.189 4262.202 3906.651 3456.225 4695.035 5854.570 6200.955 3261.851 3553.803 3182.762 1287.429 6057.470 5143.221 4397.095 5792.638 2843.310 2889.614
3192.275 7853.100 7637.459 5111.047 6786.307 3740.290 2906.146 3043.112 7238.128 6573.381 21.393 1013.396 3056.466 2081.883 5630.536 2930.702 2907.034 2496.775 6154.139 2211.298 4761.141 5089.300 2010.960 3655.696 0.000 4219.781 2532.284 1985.626 1718.884 840.341 2362.993 4222.133 1969.421 2447.212 1818.913 3989.168 4663.993 6139.603 1982.547 2233.983 3170.779 4146.961 3724.850 2703.638 5278.545 3736.874 4202.077 1908.206 894.311 4358.735 2669.764 7628.778 3397.557 6448.752 1357.959 8051.660 3236.489 4130.404 3263.473 2448.939 8069.549 4926.393 1472.128 6762.895 5308.095 3893.428 4700.646 6289.882 4268.803 7587.460 7362.432 7476.506 2591.436 6694.621 4929.644 3246.201 2707.431 9047.584 2922.044 6014.911 7136.148 2263.799 1384.582 6391.572 6943.295 7837.287 5131.256 6998.888 1175.378 6610.961 6248.419 4760.943 6683.364 6829.471 4899.905 6519.659 3483.723 5607.801 8649.256 6486.738 6538.657
5781.017 7320.366 8734.453 3034.093 9594.191 6554.809 6311.184 7009.278 11442.935 10334.860 4210.735 5233.072 5927.659 4857.085 4035.181 6910.467 4668.943 6238.629 8347.079 4685.488 5997.781 7741.770 2839.251 5257.352 4219.781 0.000 5534.314 3134.716 4281.191 3380.047 6070.790 7131.685 4635.963 6621.176 5488.968 6959.662 7633.102 8334.517 5495.563 5486.270 6939.680 6949.769 3216.028 3340.187 9144.736 6713.349 6934.195 5568.731 3954.228 4773.448 3421.978 8167.143 2403.238 10181.189 3275.387 9959.814 2726.748 8124.701 3138.011 6653.890 10550.918 7858.531 3427.606 8979.804 9385.290 782.881 3948.559 9822.976 8314.462 6771.363 5477.837 8537.101 5478.670 10283.125 9132.013 1025.585 6226.862 10887.398 1298.953 5354.940 9379.020 2147.626 5542.765 9943.741 8742.105 7851.877 8576.511 7071.119 5035.473 10362.326 10241.547 8026.429 8786.013 7424.367 6348.680 10383.738 938.712 9095.392 11043.042 7119.178 7214.798
720.768 6149.493 5274.083 4912.703 4341.840 1220.700 849.486 2043.605 6646.061 4842.852 2516.578 2445.104 524.959 679.350 4964.653 2004.319 1361.785 1194.600 3624.030 872.179 2651.952 2574.235 4313.043 1692.896 2532.284 5534.314 0.000 4386.615 1271.911 2921.037 1072.879 1748.096 900.752 3412.233 992.567 1530.618 2229.773 3609.491 746.368 371.440 1682.438 1638.027 3303.327 2429.362 3754.115 1269.801 1680.919 956.367 3423.298 2909.401 2340.250 5460.209 3585.286 4680.179 2396.819 5525.669 5544.664 2983.849 5660.003 2663.348 5566.220 2484.691 2174.719 4230.612 4271.692 5539.291 3864.911 4288.768 3245.947 6063.557 6478.147 5132.208 142.683 4750.642 4510.283 4527.395 890.279 6520.594 4377.522 4685.748 4604.686 4235.567 2934.164 4409.938 4442.514 5873.283 3042.259 5098.931 3336.374 4865.800 4935.402 2509.856 4154.435 4708.675 2652.461 4947.548 5131.213 3561.082 6138.153 4387.713 4414.099
4967.393 8781.806 9145.387 5186.753 8713.168 5606.633 4867.039 4993.648 8877.312 8534.494 1992.868 2790.601 4906.048 3814.772 5979.528 4879.192 4344.921 4482.370 7939.767 3840.569 6189.267 6958.891 314.030 5124.391 1985.626 3134.716 4386.615 0.000 3288.122 1481.933 4347.247 6125.319 3640.367 3872.503 3791.776 5898.775 6588.606 7925.377 3934.378 4138.317 5153.458 6024.635 4278.632 3542.193 7226.654 5640.466 6064.967 3882.025 1205.717 5430.786 3560.219 8949.429 3604.313 8415.397 2275.518 9803.485 1265.854 6050.389 1284.098 4211.406 9951.660 6849.150 2536.754 8567.885 7160.686 2523.916 5316.534 8274.476 6160.334 8391.458 7695.783 8968.158 4415.581 8675.756 6615.477 2476.246 4679.819 10797.421 2087.226 6796.945 8954.233 1068.008 2870.017 8375.316 8643.191 8975.831 7115.451 8125.983 2195.513 8573.645 8140.038 6730.181 8458.289 8140.587 6411.786 8457.659 2208.310 7593.401 10520.215 7796.438 7866.222
1708.251 6193.313 5950.785 4053.268 5559.932 2418.901 2031.190 2905.677 7543.110 6059.435 1698.278 2149.532 1729.978 596.878 4329.664 2827.365 1188.577 2052.669 4658.129 552.559 3046.503 3740.883 3167.001 1941.497 1718.884 4281.191 1271.911 3288.122 0.000 1809.278 1884.222 2980.671 381.966 3508.770 1374.350 2777.356 3475.205 4643.818 1291.239 1209.832 2718.931 2838.867 2470.095 1436.198 4903.578 2518.622 2857.412 1430.227 2517.492 2708.919 1361.322 5910.506 2516.519 5903.216 1140.521 6515.378 4369.580 3981.713 4526.286 3034.009 6719.704 3723.059 905.905 5290.637 5278.135 4267.457 3286.504 5548.050 4210.367 5974.051 5992.016 5784.471 1242.710 6004.661 5292.747 3266.595 1963.119 7509.343 3106.474 4442.344 5681.070 3001.109 2684.719 5667.340 5358.878 6129.503 4304.978 5296.296 2806.628 6085.651 6045.228 3781.742 5173.177 5110.628 3203.957 6128.593 3859.357 4822.048 7274.984 4767.854 4819.992
3486.390 7591.961 7713.895 4482.341 7260.036 4137.507 3463.063 3800.908 8076.519 7296.701 832.147 1853.163 3435.737 2334.038 5101.588 3691.981 2903.985 3162.703 6457.834 2361.049 4769.613 5486.921 1392.361 3684.452 840.341 3380.047 2921.037 1481.933 1809.278 0.000 3011.534 4667.080 2158.467 3263.546 2427.509 4444.531 5139.693 6443.444 2533.586 2695.906 3862.406 4557.299 3238.854 2315.127 6023.425 4184.600 4593.443 2517.640 931.536 4140.643 2307.685 7581.858 2769.150 7163.577 907.271 8323.354 2629.157 4906.223 2741.353 3285.875 8479.099 5398.208 1139.899 7086.182 6112.700 3063.817 4263.328 6949.690 5060.953 7265.290 6845.550 7541.091 2942.541 7372.463 5767.095 2414.160 3297.685 9317.828 2083.179 5669.743 7472.999 1465.674 2187.587 7057.384 7167.831 7685.233 5753.843 6836.121 1806.278 7331.774 7032.608 5325.236 6976.543 6773.246 4969.378 7270.206 2651.080 6248.376 9044.704 6427.922 6491.257
1680.093 7200.019 6101.662 5853.472 4515.032 1776.127 677.114 1035.599 5686.731 4306.316 2354.928 1853.125 1331.783 1461.621 5984.604 972.348 2398.782 169.572 4183.886 1746.775 3668.779 2986.956 4350.646 2760.747 2362.993 6070.790 1072.879 4347.247 1884.222 3011.534 0.000 2084.521 1633.963 2459.799 592.805 1850.665 2440.909 4169.763 593.369 795.808 871.859 2093.032 4241.403 3273.387 3076.182 1645.395 2186.207 506.810 3220.678 3979.146 3189.865 6401.719 4392.839 4165.857 2798.191 6076.800 5588.459 2097.873 5626.467 1632.216 5864.707 2698.833 2648.420 4728.931 3393.928 5945.400 4890.937 3941.318 2327.485 7130.438 7533.668 5977.447 1215.509 4360.951 3486.313 5045.296 429.721 7052.959 4825.070 5758.011 5065.627 4458.187 2229.990 4047.366 5102.605 6878.361 2768.334 6125.560 2800.467 4338.773 4180.879 2422.476 4710.969 5679.436 3618.367 4319.981 5526.976 3248.836 6456.898 5370.986 5388.044
1351.356 5947.978 4217.225 5970.561 2593.770 577.010 1410.641 2400.237 6196.479 3623.260 4208.543 3914.123 1251.260 2387.660 5745.156 2449.536 2521.888 2049.735 2114.461 2483.021 2510.080 902.740 6059.430 2230.458 4222.133 7131.685 1748.096 6125.319 2980.671 4667.080 2084.521 0.000 2598.727 4443.773 2457.725 237.176 501.850 2100.681 2254.273 1992.711 1851.245 229.765 4465.737 3844.203 2891.956 485.901 328.082 2378.489 5115.937 3472.016 3755.878 4730.010 4968.351 3441.039 4120.586 3994.814 7292.522 2721.243 7402.764 3534.365 3847.996 742.432 3884.271 2644.573 3761.948 7212.292 4686.139 2864.267 3005.096 6051.451 6969.588 4123.482 1744.516 3343.663 4452.824 6154.461 1655.553 4968.571 6045.756 5002.329 2983.271 5974.262 4313.995 2994.031 3069.317 5393.023 1682.430 4771.023 4857.802 3630.725 4080.870 1033.535 2635.287 4123.721 2258.007 3861.347 6813.135 2166.764 4430.365 3875.752 3859.621
1335.273 6077.578 5668.297 4227.343 5178.633 2037.276 1692.949 2669.023 7319.967 5720.339 1949.972 2239.573 1348.188 221.473 4421.274 2600.550 1022.917 1797.327 4299.498 248.927 2808.668 3362.824 3530.619 1708.788 1969.421 4635.963 900.752 3640.367 381.966 2158.467 1633.963 2598.727 0.000 3507.011 1198.771 2396.005 3093.529 4285.118 1058.009 892.657 2429.993 2457.495 2619.972 1639.937 4589.538 2137.610 2477.390 1234.744 2810.760 2632.411 1555.991 5682.887 2770.673 5561.184 1522.375 6167.809 4741.028 3714.853 4889.125 2942.173 6345.273 3341.127 1286.742 4928.939 5013.837 4641.536 3348.565 5187.358 3955.221 5896.643 6040.588 5507.087 862.913 5647.247 5099.663 3627.082 1651.257 7163.124 3478.379 4402.854 5317.255 3381.703 2774.363 5307.845 5023.199 5953.873 3941.806 5132.593 2986.500 5745.135 5747.332 3408.666 4818.195 4891.407 2931.505 5804.220 4235.121 4460.143 6903.104 4552.085 4597.979
4100.706 9526.787 8558.191 7431.859 6568.565 4221.236 3105.903 2160.766 5009.354 5272.629 2460.758 1477.689 3776.603 3457.478 7819.306 2073.496 4507.900 2435.773 6555.692 3728.684 6063.994 5321.166 4051.049 5062.047 2447.212 6621.176 3412.233 3872.503 3508.770 3263.546 2459.799 4443.773 3507.011 0.000 2441.465 4225.083 4696.240 6542.108 2678.189 3049.474 2656.113 4497.558 5924.531 4866.029 3968.371 4057.747 4601.761 2461.462 2736.915 6134.470 4807.233 8850.291 5751.733 5204.605 3722.926 8408.788 5072.464 2776.431 4927.014 928.992 7985.929 4929.515 3753.268 7050.966 3550.782 6209.166 6793.397 5342.959 2751.117 9387.140 9499.280 8436.154 3545.587 5625.059 2787.625 5676.387 2864.627 9357.801 5334.859 7909.755 7352.848 4545.996 1078.791 5406.321 7509.999 9285.363 4494.592 8505.236 1677.170 5321.500 4586.130 4436.716 7069.778 8113.580 6051.771 5062.997 5818.911 4824.248 8580.893 7796.714 7819.980
1708.438 7088.381 6253.865 5412.110 4983.217 2042.036 1091.282 1548.540 6170.036 4899.121 1808.673 1489.518 1439.010 1079.847 5618.557 1462.791 2114.248 755.304 4493.147 1371.092 3631.067 3350.630 3780.828 2621.492 1818.913 5488.968 992.567 3791.776 1374.350 2427.509 592.805 2457.725 1198.771 2441.465 0.000 2220.827 2871.052 4478.718 246.591 621.351 1463.074 2417.584 3811.717 2802.443 3664.367 1982.206 2491.622 90.593 2698.328 3740.191 2723.625 6452.351 3888.871 4758.447 2213.862 6399.331 5021.730 2650.028 5074.759 1769.155 6296.100 3133.406 2075.705 5071.339 3935.370 5353.572 4540.900 4522.200 2862.012 6965.987 7222.888 6115.632 1116.827 4947.129 3920.212 4463.419 888.913 7387.525 4236.741 5526.346 5426.945 3868.166 1954.158 4630.216 5363.106 6850.710 3332.316 6064.934 2416.508 4931.551 4754.328 2942.208 5025.130 5697.847 3644.281 4909.718 4935.035 3822.283 6882.707 5374.546 5402.945
1193.794 6034.023 4401.931 5884.472 2815.773 429.789 1175.487 2208.895 6140.554 3684.287 3975.759 3677.323 1048.912 2181.820 5697.642 2252.017 2386.219 1820.109 2340.281 2292.411 2548.097 1138.412 5836.795 2162.618 3989.168 6959.662 1530.618 5898.775 2777.356 4444.531 1850.665 237.176 2396.005 4225.083 2220.827 0.000 699.600 2326.357 2018.564 1762.767 1659.234 299.978 4356.388 3693.976 2874.459 260.817 420.535 2141.416 4882.640 3433.501 3604.891 4877.357 4829.108 3504.838 3915.240 4226.659 7071.747 2605.781 7177.570 3320.767 4082.341 954.424 3682.741 2878.442 3698.028 7023.363 4626.192 2966.876 2892.323 6113.204 6967.607 4301.977 1536.109 3445.291 4334.321 5975.143 1421.242 5202.436 5857.115 5013.819 3219.385 5763.778 4079.335 3095.465 3284.949 5512.227 1751.207 4866.850 4620.782 3695.106 4075.769 1119.002 2863.915 4248.433 2325.881 3897.076 6621.686 2254.004 4665.682 3988.626 3978.015
1852.265 6139.135 4161.600 6420.754 2125.113 1078.793 1789.835 2576.968 5996.118 3233.720 4651.306 4291.990 1745.398 2880.371 6153.861 2644.682 3013.824 2379.462 1906.372 2982.931 2820.402 675.472 6531.562 2676.664 4663.993 7633.102 2229.773 6588.606 3475.205 5139.693 2440.909 501.850 3093.529 4696.240 2871.052 699.600 0.000 1894.004 2683.582 2450.290 2046.347 694.603 4938.085 4340.664 2645.810 960.255 742.436 2787.471 5555.220 3878.179 4252.668 4783.402 5459.298 3048.791 4613.920 3713.790 7767.959 2688.416 7869.125 3771.741 3428.867 262.592 4380.026 2356.481 3595.650 7713.132 5111.828 2423.684 2959.652 6290.463 7313.889 4089.610 2235.108 2901.258 4401.649 6656.307 2022.565 4663.251 6546.609 5332.194 2659.407 6463.370 4661.675 2553.971 2900.787 5513.317 1313.984 4947.954 5239.287 3236.229 3796.409 682.132 2395.017 4240.194 2523.061 3509.000 7313.346 1755.302 4018.858 4022.578 3993.835
2963.649 4902.271 2377.582 6447.889 1685.532 2436.747 3492.664 4459.316 7563.926 4367.363 6123.419 5963.243 3088.506 4114.132 5901.384 4520.422 3753.708 4146.071 14.539 4092.418 2486.407 1230.013 7810.769 3082.001 6139.603 8334.517 3609.491 7925.377 4643.818 6443.444 4169.763 2100.681 4285.118 6542.108 4478.718 2326.357 1894.004 0.000 4252.533 3932.857 3918.936 2077.914 5252.655 5018.764 4242.637 2525.296 1991.808 4408.072 7027.155 3812.842 4944.371 3205.738 5967.431 4190.162 5740.999 1921.205 9004.037 4539.228 9170.067 5627.751 2224.326 1712.668 5480.882 655.131 5283.443 8578.441 5039.664 3412.592 4797.192 5217.723 6649.518 2348.066 3548.970 3801.408 6213.849 7456.015 3740.312 2913.087 7439.594 4705.606 1054.791 7589.678 6389.776 3523.066 1012.180 4082.431 2822.198 3730.217 6895.167 4348.045 5237.252 2401.601 546.686 2880.856 2095.988 4762.760 8213.807 3022.955 2710.637 2786.749 2718.292
1461.882 6857.766 6008.521 5285.334 4804.110 1816.664 933.442 1618.507 6266.140 4854.399 1970.520 1726.378 1197.364 907.517 5455.525 1545.466 1914.031 762.400 4266.998 1199.775 3389.209 3139.710 3906.606 2390.040 1982.547 5495.563 746.368 3934.378 1291.239 2533.586 593.369 2254.273 1058.009 2678.189 246.591 2018.564 2683.582 4252.533 0.000 375.630 1446.752 2201.642 3677.067 2691.284 3649.790 1773.312 2270.898 217.966 2871.976 3532.402 2609.196 6206.496 3802.835 4707.777 2231.623 6173.704 5149.068 2691.240 5218.469 1976.659 6100.190 2946.152 2068.537 4851.294 3986.991 5395.127 4370.323 4433.260 2919.320 6744.535 7040.119 5869.774 872.341 4868.647 4041.996 4470.857 767.678 7163.700 4262.540 5319.006 5210.943 3950.673 2198.399 4544.843 5127.901 6609.772 3223.250 5827.049 2644.734 4884.626 4768.776 2798.195 4799.189 5453.236 3398.578 4888.373 4977.870 3723.256 6684.231 5130.704 5158.439
1090.272 6495.490 5641.748 5073.689 4574.990 1509.903 826.501 1819.626 6463.110 4850.406 2219.706 2081.096 850.463 693.501 5188.941 1764.307 1606.287 944.152 3947.376 964.908 3015.486 2855.526 4085.482 2029.503 2233.983 5486.270 371.440 4138.317 1209.832 2695.906 795.808 1992.711 892.657 3049.474 621.351 1762.767 2450.290 3932.857 375.630 0.000 1540.003 1913.134 3460.171 2520.480 3699.792 1506.810 1970.831 588.769 3128.279 3203.733 2434.273 5831.038 3660.675 4695.246 2270.122 5852.975 5324.894 2832.409 5419.117 2323.642 5837.190 2710.936 2073.508 4543.471 4130.672 5439.455 4095.145 4361.099 3079.784 6393.706 6742.451 5501.120 497.237 4811.166 4280.172 4467.726 759.067 6845.943 4288.594 4988.158 4910.728 4064.414 2564.944 4477.868 4787.420 6236.563 3126.962 5456.799 2983.205 4877.054 4854.687 2645.720 4479.212 5077.700 3023.034 4920.180 5025.918 3639.256 6415.650 4755.481 4782.936
2057.220 7523.902 6061.134 6590.777 3953.468 1794.823 871.386 549.743 4965.568 3439.376 3165.123 2504.695 1683.242 2233.342 6637.919 601.567 3038.627 707.969 3932.050 2497.303 3967.081 2689.583 5177.050 3228.540 3170.779 6939.680 1682.438 5153.458 2718.931 3862.406 871.859 1851.245 2429.993 2656.113 1463.074 1659.234 2046.347 3918.936 1446.752 1540.003 0.000 1954.819 4978.726 4059.878 2205.368 1560.927 2071.490 1378.374 3992.995 4515.642 3973.275 6508.538 5200.188 3302.416 3669.026 5759.757 6407.227 1302.213 6422.831 1728.441 5355.100 2274.564 3514.261 4402.758 2595.651 6816.637 5536.922 3122.476 1564.057 7525.300 8110.671 5960.587 1809.121 3523.993 2882.378 5914.419 796.459 6702.961 5696.778 6254.123 4697.971 5317.557 2763.019 3222.007 4908.694 7090.461 2013.798 6393.763 3423.985 3472.922 3326.515 1809.075 4435.164 5844.871 3832.666 3448.224 6398.109 2457.712 5951.142 5563.526 5564.210
1171.754 5750.730 4107.946 5746.259 2721.142 421.365 1416.357 2504.060 6405.816 3852.721 4132.531 3893.057 1122.528 2252.112 5515.646 2544.450 2319.635 2076.744 2092.116 2326.451 2290.871 942.395 5948.418 2004.198 4146.961 6949.769 1638.027 6024.635 2838.867 4557.299 2093.032 229.765 2457.495 4497.558 2417.584 299.978 694.603 2077.914 2201.642 1913.134 1954.819 0.000 4248.798 3648.336 3112.785 447.660 121.242 2342.847 5041.192 3242.306 3560.633 4577.495 4764.763 3670.369 3979.157 3991.578 7176.327 2897.560 7297.463 3600.091 3929.559 908.764 3737.694 2654.823 3967.255 7046.859 4457.688 3088.198 3183.384 5842.435 6742.505 4005.806 1617.846 3567.501 4627.725 5979.679 1664.197 4974.922 5880.667 4777.389 3009.766 5838.916 4312.303 3218.139 3016.267 5216.882 1911.925 4579.141 4831.010 3859.993 4305.083 1262.576 2621.123 3951.561 2049.945 4090.786 6650.762 2394.180 4504.560 3694.736 3682.590
3195.017 4526.078 5524.097 1613.591 6670.844 3926.638 4149.293 5275.695 9923.252 8013.949 3704.465 4484.844 3479.123 2779.841 1910.061 5213.111 2003.886 4399.190 5264.086 2496.362 2821.935 4870.357 4008.736 2292.486 3724.850 3216.028 3303.327 4278.632 2470.095 3238.854 4241.403 4465.737 2619.972 5924.531 3811.717 4356.388 4938.085 5252.655 3677.067 3460.171 4978.726 4248.798 0.000 1058.507 7025.874 4155.705 4196.365 3853.083 4170.388 1558.117 1119.606 5020.234 843.881 7839.366 2389.589 6775.545 4826.988 6280.541 5151.290 5503.544 7475.468 5118.204 2253.342 5878.276 7573.179 3657.010 1040.685 7322.542 6535.418 4113.521 3637.635 5327.489 3187.399 7801.332 7719.022 2552.224 4182.267 7686.286 2717.157 2522.913 6271.320 3397.019 4993.979 7451.428 5562.390 4840.714 6101.908 4011.227 4897.711 8029.242 8222.118 5475.297 5662.735 4249.556 3192.376 8176.491 3389.016 6609.765 7932.894 3931.583 4023.478
2500.222 5283.134 5747.430 2617.607 6256.552 3273.235 3275.104 4307.620 8957.354 7252.455 2682.763 3428.968 2711.509 1827.022 2961.648 4236.710 1336.313 3437.230 5031.760 1567.653 2824.357 4406.395 3311.067 1938.039 2703.638 3340.187 2429.362 3542.193 1436.198 2315.127 3273.387 3844.203 1639.937 4866.029 2802.443 3693.976 4340.664 5018.764 2691.284 2520.480 4059.878 3648.336 1058.507 0.000 6183.134 3463.117 3621.639 2851.696 3234.450 1891.151 90.066 5438.144 1157.497 7084.993 1418.095 6725.328 4307.967 5351.777 4577.757 4459.360 7224.014 4553.227 1238.363 5669.873 6650.531 3563.651 1997.013 6634.929 5594.581 4950.558 4673.849 5559.573 2334.449 7108.062 6722.392 2437.426 3270.064 7685.450 2445.985 3356.534 6070.335 2829.031 3941.837 6760.800 5511.132 5433.763 5391.285 4583.815 3878.950 7272.718 7359.345 4797.221 5490.975 4633.437 3127.703 7373.668 3211.259 5909.300 7729.150 4292.979 4369.856
3872.005 8784.938 6619.755 8616.047 3350.468 3258.020 2908.830 2236.098 3358.569 1326.395 5276.196 4457.041 3553.768 4380.050 8528.372 2349.501 5026.634 2909.901 4250.648 4618.767 5402.035 3229.042 7285.790 4991.944 5278.545 9144.736 3754.115 7226.654 4903.578 6023.425 3076.182 2891.956 4589.538 3968.371 3664.367 2874.459 2645.810 4242.637 3649.790 3699.792 2205.368 3112.785 7025.874 6183.134 0.000 2987.877 3219.892 3581.442 6030.952 6287.476 6094.179 7365.938 7337.783 1239.476 5874.228 5646.569 8491.991 1214.895 8464.259 3189.979 4709.461 2678.408 5718.310 4440.831 1068.920 9014.781 7439.187 1494.508 1222.100 8926.949 9841.477 6581.913 3854.951 1678.241 2190.476 8119.599 2941.578 6415.475 7900.829 7886.863 4573.158 7487.654 4543.362 1519.820 5216.912 8140.281 1423.766 7593.287 5268.608 1371.169 1209.209 1968.889 4602.739 6870.154 5139.988 1247.939 8595.955 1313.490 5257.170 6663.949 6631.703
969.083 6025.966 4525.493 5701.230 3075.453 275.175 968.870 2104.787 6203.411 3863.781 3723.184 3450.748 792.686 1922.607 5549.398 2136.024 2169.652 1631.382 2539.476 2039.025 2500.258 1368.427 5576.923 2008.865 3736.874 6713.349 1269.801 5640.466 2518.622 4184.600 1645.395 485.901 2137.610 4057.747 1982.206 260.817 960.255 2525.296 1773.312 1506.810 1560.927 447.660 4155.705 3463.117 2987.877 0.000 544.614 1905.188 4630.843 3299.779 3373.630 4947.692 4604.716 3687.061 3655.733 4437.311 6811.450 2611.795 6918.628 3166.768 4332.768 1215.105 3424.291 3096.884 3758.552 6768.906 4468.283 3179.181 2899.476 6077.117 6862.138 4416.648 1276.597 3655.662 4327.175 5725.262 1216.708 5418.903 5602.946 4925.498 3446.537 5503.254 3865.663 3306.600 3461.443 5545.156 1947.109 4872.838 4391.006 3877.238 4195.730 1334.794 3067.970 4291.442 2313.738 4054.899 6366.265 2458.841 4913.938 4017.937 4014.135
1169.281 5632.405 3993.576 5680.531 2706.523 461.864 1511.219 2620.322 6519.891 3936.781 4187.242 3972.583 1158.952 2276.447 5433.144 2659.165 2288.244 2175.771 2006.128 2335.895 2182.181 893.925 5982.913 1936.266 4202.077 6934.195 1680.919 6064.967 2857.412 4593.443 2186.207 328.082 2477.390 4601.761 2491.622 420.535 742.436 1991.808 2270.898 1970.831 2071.490 121.242 4196.365 3621.639 3219.892 544.614 0.000 2418.958 5095.777 3158.041 3534.658 4456.842 4729.003 3753.632 3996.164 3909.807 7207.248 3018.267 7334.673 3707.848 3886.697 932.857 3751.473 2580.477 4082.750 7044.701 4381.043 3156.993 3303.962 5727.862 6643.540 3889.831 1650.918 3635.795 4748.619 5970.507 1758.821 4896.248 5879.250 4674.850 2941.725 5858.509 4398.875 3287.168 2917.612 5095.827 1997.319 4459.695 4907.490 3942.834 4408.788 1346.699 2536.950 3830.352 1934.635 4183.136 6651.081 2471.161 4457.268 3573.932 3561.539
1665.464 7075.729 6203.107 5456.830 4897.540 1972.180 1004.605 1481.280 6113.008 4812.514 1898.116 1556.160 1383.481 1102.257 5648.537 1398.890 2123.971 671.547 4422.477 1394.857 3604.231 3273.422 3871.420 2608.004 1908.206 5568.731 956.367 3882.025 1430.227 2517.640 506.810 2378.489 1234.744 2461.462 90.593 2141.416 2787.471 4408.072 217.966 588.769 1378.374 2342.847 3853.083 2851.696 3581.442 1905.188 2418.958 0.000 2786.255 3745.671 2771.713 6415.414 3946.627 4671.193 2294.374 6328.071 5112.306 2577.071 5164.904 1761.946 6213.791 3049.676 2151.539 4997.431 3865.494 5438.592 4567.193 4432.142 2793.035 6961.636 7243.397 6066.636 1085.908 4857.636 3871.366 4543.146 799.270 7315.205 4319.390 5532.303 5351.212 3957.151 2010.193 4540.327 5298.479 6825.225 3241.729 6043.947 2488.621 4844.708 4676.618 2852.749 4954.236 5665.029 3608.271 4826.066 5020.166 3731.852 6801.010 5343.631 5370.422
4072.381 8496.956 8467.670 5386.302 7675.834 4633.939 3789.118 3802.868 7714.668 7343.683 908.676 1585.376 3947.999 2943.896 6029.096 3687.855 3684.992 3343.892 7041.685 3043.157 5556.270 5983.500 1328.887 4454.311 894.311 3954.228 3423.298 1205.717 2517.492 931.536 3220.678 5115.937 2810.760 2736.915 2698.328 4882.640 5555.220 7027.155 2871.976 3128.279 3992.995 5041.192 4170.388 3234.450 6030.952 4630.843 5095.777 2786.255 0.000 5025.448 3221.588 8404.424 3681.997 7228.260 1816.864 8935.902 2469.247 4848.550 2437.623 3009.974 8963.596 5817.735 2023.627 7653.232 5955.651 3484.325 5193.827 7114.493 4955.215 8183.971 7773.172 8301.912 3478.215 7505.167 5435.580 3086.385 3583.211 9932.160 2712.636 6590.981 8027.953 1827.470 1692.726 7211.801 7817.446 8554.533 5981.196 7708.254 1087.260 7383.736 6934.468 5634.679 7569.902 7599.018 5721.395 7257.829 3105.523 6446.539 9543.534 7254.263 7312.120
2474.312 3494.887 3979.351 2648.295 5342.007 3031.525 3644.794 4938.631 9440.798 7094.378 4337.367 4849.984 2839.471 2679.923 2275.891 4907.651 1629.418 4103.908 3822.985 2405.843 1328.062 3648.301 5202.215 1304.975 4358.735 4773.448 2909.401 5430.786 2708.919 4140.643 3979.146 3472.016 2632.411 6134.470 3740.191 3433.501 3878.179 3812.842 3532.402 3203.733 4515.642 3242.306 1558.117 1891.151 6287.476 3299.779 3158.041 3745.671 5025.448 0.000 1870.598 3563.046 2381.954 6911.503 3234.409 5235.612 6174.331 5776.274 6458.554 5507.411 6015.134 4005.083 3005.920 4411.361 7009.190 5187.429 1259.601 6300.554 6055.612 3268.308 3597.690 3784.254 2767.770 6776.679 7392.355 4063.910 3766.785 6134.150 4177.720 1786.642 4795.099 4700.298 5386.484 6430.801 4029.288 3550.806 5153.920 2700.422 5497.934 7100.807 7495.509 4503.783 4178.776 2766.126 1717.109 7328.085 4893.718 5627.625 6443.727 2432.594 2516.919
2411.193 5285.130 5700.682 2692.142 6173.318 3184.522 3186.391 4224.544 8874.865 7162.458 2648.752 3376.393 2621.485 1740.968 3015.082 4154.406 1250.894 3353.262 4957.433 1479.725 2769.671 4322.430 3334.591 1865.590 2669.764 3421.978 2340.250 3560.219 1361.322 2307.685 3189.865 3755.878 1555.991 4807.233 2723.625 3604.891 4252.668 4944.371 2609.196 2434.273 3973.275 3560.633 1119.606 90.066 6094.179 3373.630 3534.658 2771.713 3221.588 1870.598 0.000 5407.169 1247.298 6994.962 1405.022 6659.451 4347.723 5266.081 4611.747 4389.288 7147.172 4465.955 1212.740 5596.151 6564.707 3635.462 2034.118 6545.067 5509.704 4962.549 4720.304 5513.729 2244.834 7018.137 6642.925 2511.859 3182.806 7621.867 2511.503 3371.618 5996.667 2868.620 3892.359 6670.908 5446.336 5418.518 5301.330 4568.196 3844.360 7182.698 7271.054 4707.627 5419.343 4601.129 3067.128 7284.063 3279.363 5819.382 7654.365 4259.642 4335.108
4753.594 1991.247 1123.932 5428.756 4735.730 4721.198 5801.142 7050.169 10718.820 7573.054 7608.304 7855.147 5074.519 5620.277 4522.249 7074.961 4725.087 6452.063 3201.732 5434.665 2874.411 4146.969 8737.272 3976.302 7628.778 8167.143 5460.209 8949.429 5910.506 7581.858 6401.719 4730.010 5682.887 8850.291 6452.351 4877.357 4783.402 3205.738 6206.496 5831.038 6508.538 4577.495 5020.234 5438.144 7365.938 4947.692 4456.842 6415.414 8404.424 3563.046 5407.169 0.000 5863.759 7395.867 6696.619 3075.715 9736.607 7441.929 10015.451 8027.616 4472.219 4700.297 6446.674 3314.221 8365.791 8670.993 4226.540 6617.715 7721.818 2531.220 4418.634 1007.427 5336.588 6997.528 9170.330 7572.404 6024.391 3553.512 7719.431 3008.144 3471.609 8260.921 8369.486 6726.933 2442.797 980.532 5946.942 1220.786 8665.374 7553.455 8419.189 5422.908 3050.498 809.273 2808.230 7966.314 8409.034 6207.639 4592.911 1154.336 1092.310
3637.054 5302.138 6358.653 1717.897 7307.887 4403.913 4429.014 5420.629 10058.885 8409.121 3379.076 4277.116 3864.158 2968.521 2383.487 5343.653 2446.467 4559.483 5979.543 2719.316 3595.944 5473.472 3315.784 2919.264 3397.557 2403.238 3585.286 3604.313 2516.519 2769.150 4392.839 4968.351 2770.673 5751.733 3888.871 4829.108 5459.298 5967.431 3802.835 3660.675 5200.188 4764.763 843.881 1157.497 7337.783 4604.716 4729.003 3946.627 3681.997 2381.954 1247.298 5863.759 0.000 8241.139 2045.591 7558.426 4038.389 6484.033 4379.617 5457.521 8190.699 5661.655 1999.483 6605.743 7782.805 2814.266 1782.585 7781.871 6720.062 4850.238 4117.908 6162.692 3491.812 8256.472 7798.707 1709.317 4415.604 8484.161 1891.694 3286.272 7003.018 2651.094 4748.682 7908.425 6341.270 5666.096 6540.877 4843.244 4535.268 8429.075 8509.879 5939.458 6402.975 5093.264 3951.173 8530.943 2546.321 7057.790 8667.925 4774.410 4865.741
4644.489 9010.361 6512.519 9386.816 2876.412 3929.555 3872.159 3425.721 3568.056 186.000 6444.912 5666.226 4380.673 5343.039 9185.872 3540.928 5841.790 4007.418 4194.306 5551.405 5860.530 3457.910 8459.711 5664.439 6448.752 10181.189 4680.179 8415.397 5903.216 7163.577 4165.857 3441.039 5561.184 5204.605 4758.447 3504.838 3048.791 4190.162 4707.777 4695.246 3302.416 3670.369 7839.366 7084.993 1239.476 3687.061 3753.632 4671.193 7228.260 6911.503 6994.962 7395.867 8241.139 0.000 6937.188 5218.285 9678.074 2452.429 9665.443 4427.861 4045.705 2971.465 6759.963 4201.916 1955.135 10102.765 8125.528 787.709 2453.996 9237.271 10357.980 6511.965 4759.238 589.819 3163.251 9161.112 3957.884 5848.205 8967.765 8372.388 4225.721 8619.972 5774.294 697.744 5057.952 8255.796 1758.843 7815.643 6496.907 190.292 1257.416 2407.939 4420.642 7017.524 5543.123 602.196 9685.270 1296.194 4527.990 6864.033 6814.150
2839.615 6686.299 6869.868 3754.825 6700.056 3559.378 3092.994 3738.594 8255.164 7085.328 1338.761 2245.238 2869.463 1733.550 4285.005 3642.160 2074.925 2965.240 5755.130 1667.822 3914.118 4876.348 2105.138 2851.890 1357.959 3275.387 2396.819 2275.518 1140.521 907.271 2798.191 4120.586 1522.375 3722.926 2213.862 3915.240 4613.920 5740.999 2231.623 2270.122 3669.026 3979.157 2389.589 1418.095 5874.228 3655.733 3996.164 2294.374 1816.864 3234.409 1405.022 6696.619 2045.591 6937.188 0.000 7583.693 3265.093 4852.271 3454.366 3520.536 7846.943 4862.855 264.300 6392.576 6121.773 3171.424 3393.765 6630.347 5048.516 6367.126 6023.134 6692.782 2379.172 7077.482 5954.128 2249.990 2981.273 8572.460 2031.010 4774.386 6786.831 1864.113 2704.400 6746.306 6404.244 6781.209 5396.912 5931.632 2517.925 7115.059 6966.349 4898.496 6261.167 5887.395 4138.650 7116.683 2756.623 5909.310 8396.574 5542.292 5608.445
4864.395 5063.424 1951.811 7729.397 2347.927 4357.624 5400.308 6285.054 8775.499 5365.954 8035.105 7882.387 5006.788 6007.136 7008.510 6356.481 5541.501 6044.293 1906.730 5962.918 3962.486 3097.001 9674.474 4808.016 8051.660 9959.814 5525.669 9803.485 6515.378 8323.354 6076.800 3994.814 6167.809 8408.788 6399.331 4226.659 3713.790 1921.205 6173.704 5852.975 5759.757 3991.578 6775.545 6725.328 5646.569 4437.311 3909.807 6328.071 8935.902 5235.612 6659.451 3075.715 7558.426 5218.285 7583.693 0.000 10847.141 6199.125 11032.111 7485.375 1480.426 3488.953 7320.541 1357.828 6715.427 10279.489 6341.834 4449.777 6429.660 5565.816 7337.576 2086.646 5460.337 4693.653 7773.336 9145.875 5647.117 996.373 9170.841 5599.065 1093.307 9408.122 8302.686 4522.917 1218.254 4053.132 4321.024 4101.788 8815.838 5330.670 6425.192 4081.145 1374.525 3248.646 3614.734 5820.439 9935.996 4335.143 1517.260 3364.476 3262.163
6076.078 9339.605 10041.919 5380.981 9886.241 6755.357 6082.061 6258.212 10080.935 9798.420 3242.130 4054.602 6053.811 4933.175 6290.043 6143.913 5317.203 5728.272 9018.221 4916.481 7092.045 8098.377 1242.465 6079.653 3236.489 2726.748 5544.664 1265.854 4369.580 2629.157 5588.459 7292.522 4741.028 5072.464 5021.730 7071.747 7767.959 9004.037 5149.068 5324.894 6407.227 7176.327 4826.988 4307.967 8491.991 6811.450 7207.248 5112.306 2469.247 6174.331 4347.723 9736.607 4038.389 9678.074 3265.093 10847.141 0.000 7316.126 411.266 5465.118 11085.713 8025.896 3527.343 9654.319 8419.127 1961.643 5820.375 9524.692 7424.391 8883.865 7923.645 9857.000 5558.572 9931.110 7841.476 2493.723 5905.407 11834.206 2185.269 7324.384 10047.062 1479.135 4107.808 9627.289 9662.114 9654.569 8353.138 8814.611 3408.298 9837.272 9403.025 7946.693 9525.972 8935.645 7353.982 9723.501 1841.789 8837.284 11643.965 8597.220 8675.892
3302.297 8634.059 6849.554 7892.860 4067.233 2881.157 2156.549 1116.433 3672.587 2540.537 4129.882 3266.326 2938.020 3525.203 7929.918 1219.339 4336.165 1929.091 4550.174 3794.790 5109.725 3359.281 6124.807 4476.154 4130.404 8124.701 2983.849 6050.389 3981.713 4906.223 2097.873 2721.243 3714.853 2776.431 2650.028 2605.781 2688.416 4539.228 2691.240 2832.409 1302.213 2897.560 6280.541 5351.777 1214.895 2611.795 3018.267 2577.071 4848.550 5776.274 5266.081 7441.929 6484.033 2452.429 4852.271 6199.125 7316.126 0.000 7274.079 1975.469 5488.829 2831.241 4725.073 4889.279 1298.984 7939.658 6828.851 2575.782 287.686 8687.099 9373.794 6777.664 3108.639 2849.170 1731.582 7100.508 2098.467 7062.935 6854.804 7485.048 5105.904 6371.069 3330.789 2633.476 5550.873 8112.873 1920.846 7471.827 4057.552 2585.849 2128.105 2144.039 4991.386 6844.712 4921.337 2411.416 7521.292 2127.120 6068.641 6592.175 6578.812
6222.571 9673.503 10286.391 5763.535 9992.933 6878.172 6151.125 6239.776 9923.083 9779.693 3271.667 4008.487 6176.594 5072.036 6660.227 6124.642 5525.044 5758.990 9184.371 5077.757 7330.150 8228.238 1359.298 6296.319 3263.473 3138.011 5660.003 1284.098 4526.286 2741.353 5626.467 7402.764 4889.125 4927.014 5074.759 7177.570 7869.125 9170.067 5218.469 5419.117 6422.831 7297.463 5151.290 4577.757 8464.259 6918.628 7334.673 5164.904 2437.623 6458.554 4611.747 10015.451 4379.617 9665.443 3454.366 11032.111 411.266 7274.079 0.000 5382.362 11220.446 8129.205 3718.613 9816.637 8339.904 2372.117 6157.549 9545.281 7367.368 9229.712 8307.226 10103.951 5683.823 9940.603 7710.653 2878.504 5963.155 12023.026 2555.144 7661.010 10206.097 1763.342 4008.068 9644.343 9857.791 9962.047 8394.704 9118.548 3290.216 9820.106 9337.893 8014.092 9698.105 9211.189 7578.340 9685.392 2249.604 8869.304 11785.456 8870.601 8946.754
3310.314 8812.825 7686.349 7073.230 5644.256 3347.162 2236.699 1234.378 4791.128 4514.173 2455.357 1455.952 2963.775 2845.356 7353.873 1144.870 3883.230 1575.994 5641.191 3133.876 5296.871 4403.085 4331.205 4351.707 2448.939 6653.890 2663.348 4211.406 3034.009 3285.875 1632.216 3534.365 2942.173 928.992 1769.155 3320.767 3771.741 5627.751 1976.659 2323.642 1728.441 3600.091 5503.544 4459.360 3189.979 3166.768 3707.848 1761.946 3009.974 5507.411 4389.288 8027.616 5457.521 4427.861 3520.536 7485.375 5465.118 1975.469 5382.362 0.000 7059.505 4002.800 3485.241 6127.746 2957.687 6341.315 6289.515 4494.492 2013.710 8717.159 8982.313 7570.828 2803.634 4807.092 2481.223 5659.681 2005.294 8431.278 5355.113 7293.984 6426.268 4699.592 1381.412 4566.600 6603.592 8509.958 3587.819 7752.371 2110.788 4560.149 3960.503 3509.202 6151.799 7310.735 5250.333 4355.784 5932.527 3940.361 7654.772 7003.140 7019.722
5011.456 6433.385 3360.340 8628.345 1427.267 4345.556 5218.688 5825.426 7605.056 4169.259 8055.755 7717.712 5045.616 6153.062 8016.763 5915.803 5932.118 5792.551 2212.534 6179.609 4687.616 2992.778 9866.834 5293.759 8069.549 10550.918 5566.220 9951.660 6719.704 8479.099 5864.707 3847.996 6345.273 7985.929 6296.100 4082.341 3428.867 2224.326 6100.190 5837.190 5355.100 3929.559 7475.468 7224.014 4709.461 4332.768 3886.697 6213.791 8963.596 6015.134 7147.172 4472.219 8190.699 4045.705 7846.943 1480.426 11085.713 5488.829 11220.446 7059.505 0.000 3168.132 7593.345 1603.773 5754.494 10773.222 7218.761 3334.700 5676.857 6889.532 8557.728 3465.182 5536.906 3477.467 6897.081 9657.835 5450.407 1823.802 9624.539 6707.864 1227.227 9709.763 8069.953 3379.229 2189.768 5452.074 3571.275 5390.582 8665.123 4126.983 5296.281 3551.160 1845.486 4509.420 4301.331 4636.427 10400.482 3423.238 596.054 4553.233 4459.352
2079.506 6124.215 4028.630 6577.547 1864.054 1313.275 2051.050 2796.120 6036.932 3157.400 4913.668 4550.937 1993.406 3129.692 6276.846 2868.590 3220.845 2633.830 1724.168 3223.794 2891.986 553.380 6790.320 2839.948 4926.393 7858.531 2484.691 6849.150 3723.059 5398.208 2698.833 742.432 3341.127 4929.515 3133.406 954.424 262.592 1712.668 2946.152 2710.936 2274.564 908.764 5118.204 4553.227 2678.408 1215.105 932.857 3049.676 5817.735 4005.083 4465.955 4700.297 5661.655 2971.465 4862.855 3488.953 8025.896 2831.241 8129.205 4002.800 3168.132 0.000 4626.688 2135.083 3665.569 7950.874 5249.937 2305.249 3094.277 6302.426 7389.326 3967.214 2485.743 2777.139 4524.696 6887.488 2282.387 4428.481 6784.403 5402.193 2423.471 6715.408 4915.984 2434.937 2724.687 5461.874 1288.994 4928.962 5498.338 3155.643 3794.449 723.231 2192.498 4192.061 2571.917 3460.799 7552.925 1676.630 3758.906 3991.806 3956.505
2590.420 6473.539 6609.109 3684.979 6457.226 3319.195 2899.777 3617.475 8179.064 6911.252 1451.609 2281.428 2634.631 1502.708 4160.976 3525.371 1811.172 2817.230 5494.984 1417.684 3654.581 4627.977 2369.247 2588.820 1472.128 3427.606 2174.719 2536.754 905.905 1139.899 2648.420 3884.271 1286.742 3753.268 2075.705 3682.741 4380.026 5480.882 2068.537 2073.508 3514.261 3737.694 2253.342 1238.363 5718.310 3424.291 3751.473 2151.539 2023.627 3005.920 1212.740 6446.674 1999.483 6759.963 264.300 7320.541 3527.343 4725.073 3718.613 3485.241 7593.345 4626.688 0.000 6132.993 6005.348 3369.912 3232.890 6433.040 4931.173 6169.341 5890.629 6432.636 2148.613 6884.584 5887.349 2403.750 2802.381 8308.955 2215.256 4582.072 6527.795 2116.468 2767.014 6550.550 6140.259 6546.626 5194.532 5697.965 2646.605 6939.682 6827.786 4682.953 5999.801 5637.654 3875.876 6956.208 2959.062 5709.387 8140.912 5292.400 5357.276
3601.595 5151.978 2330.911 7028.158 1423.063 3036.408 4053.808 4930.087 7686.874 4368.417 6747.157 6547.369 3706.750 4753.934 6437.550 5000.259 4408.742 4691.975 641.482 4740.140 3083.894 1743.403 8457.450 3732.159 6762.895 8979.804 4230.612 8567.885 5290.637 7086.182 4728.931 2644.573 4928.939 7050.966 5071.339 2878.442 2356.481 655.131 4851.294 4543.471 4402.758 2654.823 5878.276 5669.873 4440.831 3096.884 2580.477 4997.431 7653.232 4411.361 5596.151 3314.221 6605.743 4201.916 6392.576 1357.828 9654.319 4889.279 9816.637 6127.746 1603.773 2135.083 6132.993 0.000 5504.254 9230.986 5618.343 3414.270 5130.824 5530.894 7077.540 2356.681 4176.758 3745.683 6509.015 8107.299 4299.655 2324.029 8093.620 5174.822 400.538 8243.171 6957.689 3509.767 878.720 4253.670 3058.443 4023.142 7485.808 4341.690 5335.221 2752.424 281.232 3143.689 2698.081 4795.585 8867.549 3155.345 2063.327 3116.247 3033.444
4540.015 9707.118 7656.275 9184.120 4413.100 4033.669 3433.553 2388.117 2444.944 1946.364 5310.064 4376.310 4186.985 4823.751 9195.450 2480.608 5614.880 3225.755 5292.064 5091.943 6245.201 4218.839 7264.586 5704.323 5308.095 9385.290 4271.692 7160.686 5278.135 6112.700 3393.928 3761.948 5013.837 3550.782 3935.370 3698.028 3595.650 5283.443 3986.991 4130.672 2595.651 3967.255 7573.179 6650.531 1068.920 3758.552 4082.750 3865.494 5955.651 7009.190 6564.707 8365.791 7782.805 1955.135 6121.773 6715.427 8419.127 1298.984 8339.904 2957.687 5754.494 3665.569 6005.348 5504.254 0.000 9167.952 8095.499 2462.982 1074.176 9809.383 10599.895 7610.898 4392.848 2515.150 1209.104 8363.823 3391.705 7478.118 8105.207 8681.104 5641.712 7568.959 4334.396 2455.562 6268.360 9108.757 2462.893 8524.468 5060.165 2000.654 1038.069 2942.919 5660.026 7835.471 6017.146 1608.090 8751.185 2381.318 6290.970 7611.445 7586.167
5876.577 7947.021 9166.765 3723.781 9739.855 6637.708 6263.846 6825.205 11125.392 10248.010 3887.919 4892.062 5976.256 4861.702 4707.307 6720.395 4842.765 6108.829 8591.598 4731.067 6338.826 7887.867 2253.787 5500.992 3893.428 782.881 5539.291 2523.916 4267.457 3063.817 5945.400 7212.292 4641.536 6209.166 5353.572 7023.363 7713.132 8578.441 5395.127 5439.455 6816.637 7046.859 3657.010 3563.651 9014.781 6768.906 7044.701 5438.592 3484.325 5187.429 3635.462 8670.993 2814.266 10102.765 3171.424 10279.489 1961.643 7939.658 2372.117 6341.315 10773.222 7950.874 3369.912 9230.986 9167.952 0.000 4497.529 9800.551 8108.429 7421.296 6212.325 8971.642 5502.813 10248.827 8820.130 1134.758 6151.082 11229.376 1166.537 5953.601 9631.523 1663.246 5141.073 9917.064 9062.490 8420.374 8564.039 7617.625 4570.546 10278.941 10067.398 8049.144 9054.533 7906.028 6668.171 10261.726 418.897 9078.142 11287.213 7588.506 7680.000
3571.892 3519.563 4877.731 1409.823 6595.862 4209.649 4672.485 5903.035 10500.664 8306.704 4679.774 5392.683 3911.660 3465.078 1101.118 5855.511 2503.264 5035.322 5049.104 3172.386 2557.959 4905.935 5043.444 2463.677 4700.646 3948.559 3864.911 5316.534 3286.504 4263.328 4890.937 4686.139 3348.565 6793.397 4540.900 4626.192 5111.828 5039.664 4370.323 4095.145 5536.922 4457.688 1040.685 1997.013 7439.187 4468.283 4381.043 4567.193 5193.827 1259.601 2034.118 4226.540 1782.585 8125.528 3393.765 6341.834 5820.375 6828.851 6157.549 6289.515 7218.761 5249.937 3232.890 5618.343 8095.499 4497.529 0.000 7535.321 7099.053 3080.838 2705.887 4679.070 3731.915 8013.086 8370.168 3450.138 4753.621 7190.695 3668.008 1504.048 5992.735 4414.841 5915.698 7665.601 5162.236 3922.923 6366.850 3125.378 5875.962 8315.502 8648.032 5719.559 5374.147 3507.494 2949.036 8520.684 4279.530 6851.325 7621.662 3222.931 3323.696
4148.263 8258.696 5725.809 8834.427 2102.604 3396.619 3537.483 3367.774 4325.845 957.920 6283.526 5597.606 3926.570 4966.079 8575.523 3481.754 5348.319 3797.208 3416.276 5145.945 5191.123 2751.561 8289.912 5091.745 6289.882 9822.976 4288.768 8274.476 5548.050 6949.690 3941.318 2864.267 5187.358 5342.959 4522.200 2966.876 2423.684 3412.592 4433.260 4361.099 3122.476 3088.198 7322.542 6634.929 1494.508 3179.181 3156.993 4432.142 7114.493 6300.554 6545.067 6617.715 7781.871 787.709 6630.347 4449.777 9524.692 2575.782 9545.281 4494.492 3334.700 2305.249 6433.040 3414.270 2462.982 9800.551 7535.321 0.000 2663.629 8503.964 9684.095 5726.963 4349.145 479.399 3651.797 8813.594 3666.173 5113.514 8648.130 7694.954 3443.479 8383.139 5776.995 130.288 4270.708 7486.784 1248.079 7066.527 6480.414 936.017 1979.956 1848.053 3633.352 6256.637 4857.457 1383.649 9386.780 728.300 3847.773 6113.708 6060.481
3582.511 8921.538 7118.365 8148.645 4262.327 3168.750 2427.148 1314.098 3401.917 2522.646 4269.565 3369.848 3216.369 3770.451 8200.163 1406.666 4602.521 2160.581 4807.873 4044.265 5397.238 3627.676 6247.740 4757.006 4268.803 8314.462 3245.947 6160.334 4210.367 5060.953 2327.485 3005.096 3955.221 2751.117 2862.012 2892.323 2959.652 4797.192 2919.320 3079.784 1564.057 3183.384 6535.418 5594.581 1222.100 2899.476 3303.962 2793.035 4955.215 6055.612 5509.704 7721.818 6720.062 2453.996 5048.516 6429.660 7424.391 287.686 7367.368 2013.710 5676.857 3094.277 4931.173 5130.824 1074.176 8108.429 7099.053 2663.629 0.000 8974.592 9653.301 7049.119 3373.177 2895.490 1448.888 7292.166 2357.189 7279.825 7037.168 7768.832 5336.518 6522.328 3390.125 2708.843 5807.702 8397.614 2125.446 7758.756 4119.922 2571.052 1982.131 2396.852 5240.651 7128.816 5208.876 2342.317 7690.877 2279.841 6251.074 6877.669 6863.721
5490.886 657.128 3631.033 3751.484 6887.982 5806.186 6684.622 8009.119 12247.704 9422.316 7566.084 8118.130 5865.199 5930.268 2742.865 7997.885 4881.689 7234.260 5219.142 5664.871 3577.390 5785.527 8122.085 4370.756 7587.460 6771.363 6063.557 8391.458 5974.051 7265.290 7130.438 6051.451 5896.643 9387.140 6965.987 6113.204 6290.463 5217.723 6744.535 6393.706 7525.300 5842.435 4113.521 4950.558 8926.949 6077.117 5727.862 6961.636 8183.971 3268.308 4962.549 2531.220 4850.238 9237.271 6367.126 5565.816 8883.865 8687.099 9229.712 8717.159 6889.532 6302.426 6169.341 5530.894 9809.383 7421.296 3080.838 8503.964 8974.592 0.000 1974.006 3481.132 5921.411 8937.556 10387.622 6455.705 6852.227 6084.383 6710.880 1598.873 5777.579 7494.202 8654.586 8626.179 4732.732 1637.283 7588.634 1509.074 8744.152 9413.431 10086.517 6972.582 5250.082 2393.231 3793.476 9755.891 7260.838 7961.276 7074.341 2431.734 2505.197
6071.551 2626.838 5463.281 2543.753 8331.137 6588.680 7239.322 8519.822 13035.814 10543.606 7342.019 8092.862 6437.104 6143.144 1744.079 8482.455 5136.169 7668.658 6654.211 5851.905 4497.661 6936.724 7396.337 4898.933 7362.432 5477.837 6478.147 7695.783 5992.016 6845.550 7533.668 6969.588 6040.588 9499.280 7222.888 6967.607 7313.889 6649.518 7040.119 6742.451 8110.671 6742.505 3637.635 4673.849 9841.477 6862.138 6643.540 7243.397 7773.172 3597.690 4720.304 4418.634 4117.908 10357.980 6023.134 7337.576 7923.645 9373.794 8307.226 8982.313 8557.728 7389.326 5890.629 7077.540 10599.895 6212.325 2705.887 9684.095 9653.301 1974.006 0.000 5293.088 6339.090 10145.942 10981.746 5430.128 7351.812 7949.586 5757.855 1989.427 7378.492 6685.654 8612.155 9812.261 6368.016 3593.830 8624.415 3252.312 8535.232 10543.545 11043.037 7977.672 6799.301 4088.991 4827.306 10819.595 6147.416 9061.790 8813.322 4005.908 4101.952
4411.450 2980.452 198.685 5990.100 3778.342 4223.720 5335.961 6509.859 9911.643 6684.881 7457.029 7573.944 4687.420 5407.805 5162.259 6548.620 4637.292 6003.620 2341.462 5266.332 2779.105 3423.430 8783.643 3857.565 7476.506 8537.101 5132.208 8968.158 5784.471 7541.091 5977.447 4123.482 5507.087 8436.154 6115.632 4301.977 4089.610 2348.066 5869.774 5501.120 5960.587 4005.806 5327.489 5559.573 6581.913 4416.648 3889.831 6066.636 8301.912 3784.254 5513.729 1007.427 6162.692 6511.965 6692.782 2086.646 9857.000 6777.664 10103.951 7570.828 3465.182 3967.214 6432.636 2356.681 7610.898 8971.642 4679.070 5726.963 7049.119 3481.132 5293.088 0.000 5023.586 6085.115 8488.393 7847.363 5573.378 2666.751 7947.808 3679.035 2481.379 8379.204 8066.047 5830.557 1477.963 1986.893 5158.421 2041.069 8437.167 6661.953 7584.138 4686.353 2107.242 1248.090 2580.518 7094.264 8674.954 5370.490 3600.597 1468.051 1363.858
618.645 6009.507 5167.977 4794.053 4334.177 1196.785 962.051 2181.332 6774.474 4924.079 2575.011 2550.399 495.657 646.145 4832.245 2143.799 1230.146 1336.151 3563.501 797.066 2518.653 2544.422 4332.205 1550.912 2591.436 5478.670 142.683 4415.581 1242.710 2942.541 1215.509 1744.516 862.913 3545.587 1116.827 1536.109 2235.108 3548.970 872.341 497.237 1809.121 1617.846 3187.399 2334.449 3854.951 1276.597 1650.918 1085.908 3478.215 2767.770 2244.834 5336.588 3491.812 4759.238 2379.172 5460.337 5558.572 3108.639 5683.823 2803.634 5536.906 2485.743 2148.613 4176.758 4392.848 5502.813 3731.915 4349.145 3373.177 5921.411 6339.090 5023.586 0.000 4814.464 4647.013 4477.292 1021.720 6456.180 4338.546 4543.391 4554.998 4229.785 3046.620 4471.672 4363.572 5739.919 3101.198 4962.578 3429.817 4945.834 5041.755 2551.503 4092.145 4581.071 2528.358 5039.229 5097.334 3620.869 6104.669 4258.375 4286.213
4624.672 8676.779 6073.035 9313.753 2372.820 3875.073 3985.432 3726.738 4127.613 692.512 6689.076 5969.196 4398.015 5426.275 9051.084 3841.902 5825.203 4211.902 3803.983 5611.527 5656.967 3209.556 8700.607 5570.884 6694.621 10283.125 4750.642 8675.756 6004.661 7372.463 4360.951 3343.663 5647.247 5625.059 4947.129 3445.291 2901.258 3801.408 4868.647 4811.166 3523.993 3567.501 7801.332 7108.062 1678.241 3655.662 3635.795 4857.636 7505.167 6776.679 7018.137 6997.528 8256.472 589.819 7077.482 4693.653 9931.110 2849.170 9940.603 4807.092 3477.467 2777.139 6884.584 3745.683 2515.150 10248.827 8013.086 479.399 2895.490 8937.556 10145.942 6085.115 4814.464 0.000 3723.834 9271.209 4103.802 5289.208 9099.756 8156.521 3734.146 8813.862 6120.834 349.936 4615.756 7883.578 1717.224 7488.166 6833.483 649.515 1843.758 2326.305 3980.026 6666.365 5318.642 1160.553 9833.978 1198.792 3947.845 6535.276 6478.738
4939.517 10353.087 8553.211 9326.715 5521.441 4591.775 3749.584 2467.507 2310.924 3147.447 4936.316 3928.666 4565.590 4942.519 9466.980 2516.009 5868.642 3336.627 6223.962 5230.912 6813.906 5064.987 6764.467 6110.484 4929.644 9132.013 4510.283 6615.477 5292.747 5767.095 3486.313 4452.824 5099.663 2787.625 3920.212 4334.321 4401.649 6213.849 4041.996 4280.172 2882.378 4627.725 7719.022 6722.392 2190.476 4327.175 4748.619 3871.366 5435.580 7392.355 6642.925 9170.330 7798.707 3163.251 5954.128 7773.336 7841.476 1731.582 7710.653 2481.223 6897.081 4524.696 5887.349 6509.015 1209.104 8820.130 8370.168 3651.797 1448.888 10387.622 10981.746 8488.393 4647.013 3723.834 0.000 8132.349 3630.139 8579.766 7833.772 9136.494 6685.469 7172.562 3746.620 3652.838 7219.881 9844.019 3455.616 9196.861 4433.181 3201.853 2124.877 3814.349 6637.038 8576.235 6640.798 2779.733 8412.549 3481.245 7447.482 8322.412 8309.842
4808.061 6948.587 8041.788 2887.259 8651.925 5577.672 5293.604 5985.509 10442.569 9313.691 3235.513 4257.641 4935.559 3848.538 3808.201 5887.316 3735.852 5213.086 7469.041 3689.173 5204.125 6797.957 2162.581 4375.362 3246.201 1025.585 4527.395 2476.246 3266.595 2414.160 5045.296 6154.461 3627.082 5676.387 4463.419 5975.143 6656.307 7456.015 4470.857 4467.726 5914.419 5979.679 2552.224 2437.426 8119.599 5725.262 5970.507 4543.146 3086.385 4063.910 2511.859 7572.404 1709.317 9161.112 2249.990 9145.875 2493.723 7100.508 2878.504 5659.681 9657.835 6887.488 2403.750 8107.299 8363.823 1134.758 3450.138 8813.594 7292.166 6455.705 5430.128 7847.363 4477.292 9271.209 8132.349 0.000 5204.939 10094.748 391.234 4936.984 8507.762 1409.548 4598.704 8933.404 7928.603 7363.464 7568.782 6546.988 4143.233 9341.622 9216.311 7028.442 7927.192 6798.772 5533.787 9359.213 837.021 8086.830 10166.185 6476.916 6566.697
1363.257 6892.492 5693.814 5794.398 4113.849 1357.816 247.842 1172.432 5756.129 4108.921 2697.384 2269.999 993.198 1447.279 5853.860 1148.721 2251.267 430.511 3754.422 1704.246 3341.661 2558.204 4663.467 2503.527 2707.431 6226.862 890.279 4679.819 1963.119 3297.685 429.721 1655.553 1651.257 2864.627 888.913 1421.242 2022.565 3740.312 767.678 759.067 796.459 1664.197 4182.267 3270.064 2941.578 1216.708 1758.821 799.270 3583.211 3766.785 3182.806 6024.391 4415.604 3957.884 2981.273 5647.117 5905.407 2098.467 5963.155 2005.294 5450.407 2282.387 2802.381 4299.655 3391.705 6151.082 4753.621 3666.173 2357.189 6852.227 7351.812 5573.378 1021.720 4103.802 3630.139 5204.939 0.000 6623.667 5010.717 5527.027 4637.711 4718.330 2658.449 3778.350 4676.186 6531.272 2456.605 5795.687 3217.043 4137.312 4096.424 2053.515 4281.310 5316.214 3262.325 4165.905 5734.813 2955.587 6041.222 5014.897 5027.192
5860.764 5522.053 2488.813 8556.459 3065.205 5347.059 6377.727 7219.194 9414.602 5978.733 9031.076 8867.829 6000.904 7003.250 7783.883 7295.090 6522.957 7015.064 2898.569 6957.018 4894.552 4066.928 10666.074 5780.685 9047.584 10887.398 6520.594 10797.421 7509.343 9317.828 7052.959 4968.571 7163.124 9357.801 7387.525 5202.436 4663.251 2913.087 7163.700 6845.943 6702.961 4974.922 7686.286 7685.450 6415.475 5418.903 4896.248 7315.205 9932.160 6134.150 7621.867 3553.512 8484.161 5848.205 8572.460 996.373 11834.206 7062.935 12023.026 8431.278 1823.802 4428.481 8308.955 2324.029 7478.118 11229.376 7190.695 5113.514 7279.825 6084.383 7949.586 2666.751 6456.180 5289.208 8579.766 10094.748 6623.667 0.000 10131.251 6326.796 2005.010 10390.443 9281.564 5168.954 2178.498 4485.384 5155.480 4699.383 9803.713 5938.027 7089.508 4980.764 2366.839 3908.125 4561.873 6444.074 10892.583 5104.594 1501.269 4085.637 3980.313
4710.754 7183.853 8140.079 3214.924 8576.501 5471.211 5114.614 5738.376 10144.684 9116.295 2912.708 3935.440 4810.363 3699.025 4106.015 5637.158 3692.551 4990.936 7452.941 3564.737 5258.082 6725.626 1773.329 4372.417 2922.044 1298.953 4377.522 2087.226 3106.474 2083.179 4825.070 6045.756 3478.379 5334.859 4236.741 5857.115 6546.609 7439.594 4262.540 4288.594 5696.778 5880.667 2717.157 2445.985 7900.829 5602.946 5879.250 4319.390 2712.636 4177.720 2511.503 7719.431 1891.694 8967.765 2031.010 9170.841 2185.269 6854.804 2555.144 5355.113 9624.539 6784.403 2215.256 8093.620 8105.207 1166.537 3668.008 8648.130 7037.168 6710.880 5757.855 7947.808 4338.546 9099.756 7833.772 391.234 5010.717 10131.251 0.000 5167.742 8494.005 1019.616 4256.093 8765.781 7957.080 7555.419 7408.491 6728.295 3778.423 9145.918 8977.845 6886.946 7924.269 6934.827 5571.712 9145.001 776.178 7924.029 10144.765 6606.588 6693.119
4197.218 2016.376 3869.979 2450.257 6376.820 4650.464 5388.754 6698.999 11124.479 8558.154 5993.592 6591.851 4570.909 4461.923 1514.206 6673.641 3413.502 5878.227 4711.331 4183.345 2512.431 4947.314 6530.567 3027.079 6014.911 5354.940 4685.748 6796.945 4442.344 5669.743 5758.011 5002.329 4402.854 7909.755 5526.346 5013.819 5332.194 4705.606 5319.006 4988.158 6254.123 4777.389 2522.913 3356.534 7886.863 4925.498 4674.850 5532.303 6590.981 1786.642 3371.618 3008.144 3286.272 8372.388 4774.386 5599.065 7324.384 7485.048 7661.010 7293.984 6707.864 5402.193 4582.072 5174.822 8681.104 5953.601 1504.048 7694.954 7768.832 1598.873 1989.427 3679.035 4543.391 8156.521 9136.494 4936.984 5527.027 6326.796 5167.742 0.000 5500.593 5915.048 7126.665 7823.035 4531.384 2514.419 6644.821 1804.967 7179.380 8557.406 9082.452 6000.397 4902.045 2431.856 2837.898 8840.552 5758.920 7076.285 7017.449 2244.283 2349.026
3986.854 5367.152 2424.380 7402.099 1362.457 3401.115 4393.703 5215.506 7755.570 4383.785 7120.715 6895.778 4079.960 5139.499 6792.098 5290.573 4808.426 5021.154 1041.301 5131.453 3469.329 2081.047 8847.152 4132.556 7136.148 9379.020 4604.686 8954.233 5681.070 7472.999 5065.627 2983.271 5317.255 7352.848 5426.945 3219.385 2659.407 1054.791 5210.943 4910.728 4697.971 3009.766 6271.320 6070.335 4573.158 3446.537 2941.725 5351.212 8027.953 4795.099 5996.667 3471.609 7003.018 4225.721 6786.831 1093.307 10047.062 5105.904 10206.097 6426.268 1227.227 2423.471 6527.795 400.538 5641.712 9631.523 5992.735 3443.479 5336.518 5777.579 7378.492 2481.379 4554.998 3734.146 6685.469 8507.762 4637.711 2005.010 8494.005 5500.593 0.000 8639.307 7295.605 3528.159 1048.201 4433.405 3230.947 4268.920 7837.405 4352.826 5400.607 2992.339 618.607 3384.359 3085.941 4826.006 9268.000 3267.114 1664.953 3389.458 3300.989
4703.727 7922.908 8564.661 4157.460 8559.981 5418.254 4864.841 5266.581 9473.431 8755.576 2260.680 3244.961 4723.596 3587.834 4991.113 5157.578 3867.487 4613.636 7603.675 3531.759 5617.848 6740.258 753.991 4619.703 2263.799 2147.626 4235.567 1068.008 3001.109 1465.674 4458.187 5974.262 3381.703 4545.996 3868.166 5763.778 6463.370 7589.678 3950.673 4064.414 5317.557 5838.916 3397.019 2829.031 7487.654 5503.254 5858.509 3957.151 1827.470 4700.298 2868.620 8260.921 2651.094 8619.972 1864.113 9408.122 1479.135 6371.069 1763.342 4699.592 9709.763 6715.408 2116.468 8243.171 7568.959 1663.246 4414.841 8383.139 6522.328 7494.202 6685.654 8379.204 4229.785 8813.862 7172.562 1409.548 4718.330 10390.443 1019.616 5915.048 8639.307 0.000 3478.252 8493.603 8214.182 8198.761 7171.394 7355.224 2914.711 8789.892 8496.587 6710.130 8103.003 7458.770 5886.637 8734.835 1278.078 7673.782 10256.966 7119.711 7197.820
3654.772 8851.278 8206.307 6449.786 6692.577 3966.008 2903.886 2412.591 6021.957 5869.748 1399.761 536.541 3392.628 2782.768 6902.631 2300.389 3797.154 2282.287 6404.027 3017.075 5513.679 5216.649 3020.458 4446.145 1384.582 5542.765 2934.164 2870.017 2684.719 2187.587 2229.990 4313.995 2774.363 1078.791 1954.158 4079.335 4661.675 6389.776 2198.399 2564.944 2763.019 4312.303 4993.979 3941.837 4543.362 3865.663 4398.875 2010.193 1692.726 5386.484 3892.359 8369.486 4748.682 5774.294 2704.400 8302.686 4107.808 3330.789 4008.068 1381.412 8069.953 4915.984 2767.014 6957.689 4334.396 5141.073 5915.698 5776.995 3390.125 8654.586 8612.155 8066.047 3046.620 6120.834 3746.620 4598.704 2658.449 9281.564 4256.093 7126.665 7295.605 3478.252 0.000 5859.320 7300.849 8708.333 4762.601 7897.005 729.901 5914.144 5341.677 4556.543 6933.425 7598.842 5565.255 5729.415 4747.112 5170.583 8664.593 7267.537 7303.471
4275.666 8377.338 5826.625 8964.324 2179.180 3525.240 3653.326 3453.549 4256.569 858.767 6385.478 5688.539 4051.616 5086.665 8705.736 3568.005 5475.994 3901.532 3526.468 5268.627 5319.926 2878.609 8393.785 5221.792 6391.572 9943.741 4409.938 8375.316 5667.340 7057.384 4047.366 2994.031 5307.845 5406.321 4630.216 3095.465 2553.971 3523.066 4544.843 4477.868 3222.007 3218.139 7451.428 6760.800 1519.820 3306.600 3287.168 4540.327 7211.801 6430.801 6670.908 6726.933 7908.425 697.744 6746.306 4522.917 9627.289 2633.476 9644.343 4566.600 3379.229 2434.937 6550.550 3509.767 2455.562 9917.064 7665.601 130.288 2708.843 8626.179 9812.261 5830.557 4471.672 349.936 3652.838 8933.404 3778.350 5168.954 8765.781 7823.035 3528.159 8493.603 5859.320 0.000 4370.379 7600.286 1371.611 7185.906 6565.801 832.407 1920.598 1976.508 3733.046 6373.105 4985.373 1299.270 9502.904 852.070 3881.532 6232.973 6178.958
3752.736 4319.205 1457.343 6560.678 2300.969 3335.775 4428.726 5452.958 8507.665 5227.691 6925.863 6852.604 3937.140 4875.062 5883.455 5510.009 4347.161 5092.682 1000.948 4808.436 2745.620 2230.052 8503.210 3602.189 6943.295 8742.105 4442.514 8643.191 5358.878 7167.831 5102.605 3069.317 5023.199 7509.999 5363.106 3284.949 2900.787 1012.180 5127.901 4787.420 4908.694 3016.267 5562.390 5511.132 5216.912 3461.443 2917.612 5298.479 7817.446 4029.288 5446.336 2442.797 6341.270 5057.952 6404.244 1218.254 9662.114 5550.873 9857.791 6603.592 2189.768 2724.687 6140.259 878.720 6268.360 9062.490 5162.236 4270.708 5807.702 4732.732 6368.016 1477.963 4363.572 4615.756 7219.881 7928.603 4676.186 2178.498 7957.080 4531.384 1048.201 8214.182 7300.849 4370.379 0.000 3393.880 3805.854 3225.106 7769.689 5202.768 6163.949 3411.141 637.381 2340.317 2396.534 5646.792 8720.797 3961.780 2492.032 2364.598 2272.050
5199.940 1037.579 2102.533 4958.519 5667.630 5297.416 6324.603 7618.086 11498.783 8436.023 7816.203 8180.183 5549.107 5926.329 3987.564 7630.395 4947.399 6948.929 4080.141 5705.966 3221.372 4912.151 8739.365 4262.202 7837.287 7851.877 5873.283 8975.831 6129.503 7685.233 6878.361 5393.023 5953.873 9285.363 6850.710 5512.227 5513.317 4082.431 6609.772 6236.563 7090.461 5216.882 4840.714 5433.763 8140.281 5545.156 5095.827 6825.225 8554.533 3550.806 5418.518 980.532 5666.096 8255.796 6781.209 4053.132 9654.569 8112.873 9962.047 8509.958 5452.074 5461.874 6546.626 4253.670 9108.757 8420.374 3922.923 7486.784 8397.614 1637.283 3593.830 1986.893 5739.919 7883.578 9844.019 7363.464 6531.272 4485.384 7555.419 2514.419 4433.405 8198.761 8708.333 7600.286 3393.880 0.000 6736.188 850.430 8930.796 8419.398 9232.301 6176.270 3982.925 1273.422 3270.181 8813.735 8197.012 7034.466 5570.326 1527.403 1534.294
2914.203 7412.739 5197.982 7635.646 2147.138 2178.974 2309.299 2373.537 4772.007 1940.832 5123.260 4518.205 2680.813 3720.397 7427.567 2478.911 4115.380 2637.837 2830.555 3897.918 4133.800 1827.560 7112.923 3906.651 5131.256 8576.511 3042.259 7115.451 4304.978 5753.843 2768.334 1682.430 3941.806 4494.592 3332.316 1751.207 1313.984 2822.198 3223.250 3126.962 2013.798 1911.925 6101.908 5391.285 1423.766 1947.109 1997.319 3241.729 5981.196 5153.920 5301.330 5946.942 6540.877 1758.843 5396.912 4321.024 8353.138 1920.846 8394.704 3587.819 3571.275 1288.994 5194.532 3058.443 2462.893 8564.039 6366.850 1248.079 2125.446 7588.634 8624.415 5158.421 3101.198 1717.224 3455.616 7568.782 2456.605 5155.480 7408.491 6644.821 3230.947 7171.394 4762.601 1371.611 3805.854 6736.188 0.000 6217.136 5435.826 1948.707 2505.901 650.646 3201.691 5470.287 3835.532 2195.731 8151.619 519.800 4154.902 5277.754 5240.234
4446.035 1196.613 2211.432 4247.625 5389.561 4614.249 5599.392 6909.574 10942.356 7999.266 6977.738 7366.162 4805.262 5114.517 3316.886 6914.512 4119.404 6205.538 3730.809 4885.824 2456.953 4392.957 7890.548 3456.225 6998.888 7071.119 5098.931 8125.983 5296.296 6836.121 6125.560 4771.023 5132.593 8505.236 6064.934 4866.850 4947.954 3730.217 5827.049 5456.799 6393.763 4579.141 4011.227 4583.815 7593.287 4872.838 4459.695 6043.947 7708.254 2700.422 4568.196 1220.786 4843.244 7815.643 5931.632 4101.788 8814.611 7471.827 9118.548 7752.371 5390.582 4928.962 5697.965 4023.142 8524.468 7617.625 3125.378 7066.527 7758.756 1509.074 3252.312 2041.069 4962.578 7488.166 9196.861 6546.988 5795.687 4699.383 6728.295 1804.967 4268.920 7355.224 7897.005 7185.906 3225.106 850.430 6217.136 0.000 8101.102 7987.317 8723.037 5625.015 3742.582 884.803 2562.628 8351.819 7382.587 6558.007 5597.433 952.992 1012.710
4048.438 8991.444 8587.600 6253.065 7309.562 4458.426 3454.140 3112.671 6682.938 6594.770 1196.207 947.431 3832.815 3047.026 6800.729 2998.683 3983.401 2879.760 6909.601 3235.416 5791.380 5757.374 2378.077 4695.035 1175.378 5035.473 3336.374 2195.513 2806.628 1806.278 2800.467 4857.802 2986.500 1677.170 2416.508 4620.782 5239.287 6895.167 2644.734 2983.205 3423.985 4831.010 4897.711 3878.950 5268.608 4391.006 4907.490 2488.621 1087.260 5497.934 3844.360 8665.374 4535.268 6496.907 2517.925 8815.838 3408.298 4057.552 3290.216 2110.788 8665.123 5498.338 2646.605 7485.808 5060.165 4570.546 5875.962 6480.414 4119.922 8744.152 8535.232 8437.167 3429.817 6833.483 4433.181 4143.233 3217.043 9803.713 3778.423 7179.380 7837.405 2914.711 729.901 6565.801 7769.689 8930.796 5435.826 8101.102 0.000 6638.728 6070.308 5190.178 7441.617 7876.956 5887.884 6458.643 4192.776 5859.251 9257.035 7538.278 7583.088
4834.308 9181.320 6658.906 9577.090 2996.949 4119.846 4054.971 3581.007 3478.109 54.409 6607.441 5817.219 4569.397 5527.329 9375.360 3695.919 6031.328 4179.195 4351.841 5737.322 6045.926 3637.593 8621.707 5854.570 6610.961 10362.326 4865.800 8573.645 6085.651 7331.774 4338.773 3630.725 5745.135 5321.500 4931.551 3695.106 3236.229 4348.045 4884.626 4877.054 3472.922 3859.993 8029.242 7272.718 1371.169 3877.238 3942.834 4844.708 7383.736 7100.807 7182.698 7553.455 8429.075 190.292 7115.059 5330.670 9837.272 2585.849 9820.106 4560.149 4126.983 3155.643 6939.682 4341.690 2000.654 10278.941 8315.502 936.017 2571.052 9413.431 10543.545 6661.953 4945.834 649.515 3201.853 9341.622 4137.312 5938.027 9145.918 8557.406 4352.826 8789.892 5914.144 832.407 5202.768 8419.398 1948.707 7987.317 6638.728 0.000 1214.727 2597.478 4565.424 7184.845 5726.692 513.707 9861.209 1482.196 4594.651 7035.194 6984.183
5079.522 9918.583 7602.802 9817.185 4077.373 4464.886 4086.304 3242.419 2355.034 1164.235 6248.750 5349.545 4757.072 5543.173 9737.561 3347.067 6226.877 4011.570 5243.411 5791.898 6587.773 4332.112 8229.819 6200.955 6248.419 10241.547 4935.402 8140.038 6045.228 7032.608 4180.879 4080.870 5747.332 4586.130 4754.328 4075.769 3796.409 5237.252 4768.776 4854.687 3326.515 4305.083 8222.118 7359.345 1209.209 4195.730 4408.788 4676.618 6934.468 7495.509 7271.054 8419.189 8509.879 1257.416 6966.349 6425.192 9403.025 2128.105 9337.893 3960.503 5296.281 3794.449 6827.786 5335.221 1038.069 10067.398 8648.032 1979.956 1982.131 10086.517 11043.037 7584.138 5041.755 1843.758 2124.877 9216.311 4096.424 7089.508 8977.845 9082.452 5400.607 8496.587 5341.677 1920.598 6163.949 9232.301 2505.901 8723.037 6070.308 1214.727 0.000 3114.325 5531.777 7970.582 6312.750 714.495 9648.936 2214.640 5784.711 7783.017 7744.328
2302.926 6817.592 4743.730 6997.055 2144.406 1548.791 1864.806 2276.036 5324.520 2590.601 4750.850 4250.440 2101.672 3187.921 6777.933 2364.892 3501.481 2318.950 2412.064 3341.101 3491.532 1276.095 6704.262 3261.851 4760.943 8026.429 2509.856 6730.181 3781.742 5325.236 2422.476 1033.535 3408.666 4436.716 2942.208 1119.002 682.132 2401.601 2798.195 2645.720 1809.075 1262.576 5475.297 4797.221 1968.889 1334.794 1346.699 2852.749 5634.679 4503.783 4707.627 5422.908 5939.458 2407.939 4898.496 4081.145 7946.693 2144.039 8014.092 3509.202 3551.160 723.231 4682.953 2752.424 2942.919 8049.144 5719.559 1848.053 2396.852 6972.582 7977.672 4686.353 2551.503 2326.305 3814.349 7028.442 2053.515 4980.764 6886.946 6000.397 2992.339 6710.130 4556.543 1976.508 3411.141 6176.270 650.646 5625.015 5190.178 2597.478 3114.325 0.000 2847.478 4904.586 3202.236 2842.107 7640.857 1137.106 4146.845 4695.153 4663.570
3502.571 4874.260 2094.026 6783.493 1686.064 2983.251 4033.908 4970.815 7878.328 4590.310 6667.057 6509.112 3634.168 4650.821 6177.703 5035.753 4251.422 4683.959 532.207 4620.953 2854.433 1748.806 8338.968 3553.803 6683.364 8786.013 4154.435 8458.289 5173.177 6976.543 4710.969 2635.287 4818.195 7069.778 5025.130 2863.915 2395.017 546.686 4799.189 4479.212 4435.164 2621.123 5662.735 5490.975 4602.739 3067.970 2536.950 4954.236 7569.902 4178.776 5419.343 3050.498 6402.975 4420.642 6261.167 1374.525 9525.972 4991.386 9698.105 6151.799 1845.486 2192.498 5999.801 281.232 5660.026 9054.533 5374.147 3633.352 5240.651 5250.082 6799.301 2107.242 4092.145 3980.026 6637.038 7927.192 4281.310 2366.839 7924.269 4902.045 618.607 8103.003 6933.425 3733.046 637.381 3982.925 3201.691 3742.582 7441.617 4565.424 5531.777 2847.478 0.000 2863.819 2473.187 5009.918 8696.346 3335.158 2270.286 2835.055 2752.217
4013.085 2022.707 1438.129 4774.810 4522.321 4050.057 5101.278 6378.449 10228.284 7199.407 6808.892 7080.002 4347.808 4836.325 3922.549 6395.706 3923.470 5739.692 2880.357 4642.707 2088.095 3643.983 7929.463 3182.762 6829.471 7424.367 4708.675 8140.587 5110.628 6773.246 5679.436 4123.721 4891.407 8113.580 5697.847 4248.433 4240.194 2880.856 5453.236 5077.700 5844.871 3951.561 4249.556 4633.437 6870.154 4291.442 3830.352 5665.029 7599.018 2766.126 4601.129 809.273 5093.264 7017.524 5887.395 3248.646 8935.645 6844.712 9211.189 7310.735 4509.420 4192.061 5637.654 3143.689 7835.471 7906.028 3507.494 6256.637 7128.816 2393.231 4088.991 1248.090 4581.071 6666.365 8576.235 6798.772 5316.214 3908.125 6934.827 2431.856 3384.359 7458.770 7598.842 6373.105 2340.317 1273.422 5470.287 884.803 7876.956 7184.845 7970.582 4904.586 2863.819 0.000 2062.505 7567.111 7634.203 5780.821 4730.489 345.326 295.395
1951.067 3712.903 2747.876 4354.759 3661.201 2052.387 3054.433 4353.184 8454.263 5729.093 4880.228 5055.403 2286.598 2843.578 3857.822 4362.438 2067.734 3682.511 2106.033 2688.629 391.210 2109.778 6240.964 1287.429 4899.905 6348.680 2652.461 6411.786 3203.957 4969.378 3618.367 2258.007 2931.505 6051.771 3644.281 2325.881 2523.061 2095.988 3398.578 3023.034 3832.666 2049.945 3192.376 3127.703 5139.988 2313.738 1934.635 3608.271 5721.395 1717.109 3067.128 2808.230 3951.173 5543.123 4138.650 3614.734 7353.982 4921.337 7578.340 5250.333 4301.331 2571.917 3875.876 2698.081 6017.146 6668.171 2949.036 4857.457 5208.876 3793.476 4827.306 2580.518 2528.358 5318.642 6640.798 5533.787 3262.325 4561.873 5571.712 2837.898 3085.941 5886.637 5565.255 4985.373 2396.534 3270.181 3835.532 2562.628 5887.884 5726.692 6312.750 3202.236 2473.187 2062.505 0.000 6026.724 6331.053 4248.520 4743.149 1753.307 1770.048
4989.438 9548.064 7099.055 9747.144 3478.368 4311.043 4113.203 3476.760 2970.530 468.136 6517.774 5677.258 4698.415 5590.907 9594.718 3588.957 6172.655 4154.651 4767.479 5818.337 6329.323 3970.477 8523.880 6057.470 6519.659 10383.738 4947.548 8457.659 6128.593 7270.206 4319.981 3861.347 5804.220 5062.997 4909.718 3897.076 3509.000 4762.760 4888.373 4920.180 3448.224 4090.786 8176.491 7373.668 1247.939 4054.899 4183.136 4826.066 7257.829 7328.085 7284.063 7966.314 8530.943 602.196 7116.683 5820.439 9723.501 2411.416 9685.392 4355.784 4636.427 3460.799 6956.208 4795.585 1608.090 10261.726 8520.684 1383.649 2342.317 9755.891 10819.595 7094.264 5039.229 1160.553 2779.733 9359.213 4165.905 6444.074 9145.001 8840.552 4826.006 8734.835 5729.415 1299.270 5646.792 8813.735 2195.731 8351.819 6458.643 513.707 714.495 2842.107 5009.918 7567.111 6026.724 0.000 9842.946 1795.308 5107.739 7402.656 7356.284
5482.075 7766.044 8868.732 3622.729 9350.338 6239.670 5849.578 6406.665 10719.354 9830.143 3477.732 4486.044 5573.612 4454.703 4579.738 6301.995 4468.398 5690.262 8227.111 4330.428 6010.454 7500.248 1920.996 5143.221 3483.723 938.712 5131.213 2208.310 3859.357 2651.080 5526.976 6813.135 4235.121 5818.911 4935.035 6621.686 7313.346 8213.807 4977.870 5025.918 6398.109 6650.762 3389.016 3211.259 8595.955 6366.265 6651.081 5020.166 3105.523 4893.718 3279.363 8409.034 2546.321 9685.270 2756.623 9935.996 1841.789 7521.292 2249.604 5932.527 10400.482 7552.925 2959.062 8867.549 8751.185 418.897 4279.530 9386.780 7690.877 7260.838 6147.416 8674.954 5097.334 9833.978 8412.549 837.021 5734.813 10892.583 776.178 5758.920 9268.000 1278.078 4747.112 9502.904 8720.797 8197.012 8151.619 7382.587 4192.776 9861.209 9648.936 7640.857 8696.346 7634.203 6331.053 9842.946 0.000 8665.067 10919.853 7311.311 7400.531
3427.455 7754.480 5392.260 8134.092 2041.361 2683.476 2818.045 2760.523 4546.793 1481.885 5600.576 4956.340 3199.634 4238.794 7903.366 2871.187 4628.433 3111.031 3029.254 4417.649 4564.345 2175.778 7599.164 4397.095 5607.801 9095.392 3561.082 7593.401 4822.048 6248.376 3248.836 2166.764 4460.143 4824.248 3822.283 2254.004 1755.302 3022.955 3723.256 3639.256 2457.712 2394.180 6609.765 5909.300 1313.490 2458.841 2471.161 3731.852 6446.539 5627.625 5819.382 6207.639 7057.790 1296.194 5909.310 4335.143 8837.284 2127.120 8869.304 3940.361 3423.238 1676.630 5709.387 3155.345 2381.318 9078.142 6851.325 728.300 2279.841 7961.276 9061.790 5370.490 3620.869 1198.792 3481.245 8086.830 2955.587 5104.594 7924.029 7076.285 3267.114 7673.782 5170.583 852.070 3961.780 7034.466 519.800 6558.007 5859.251 1482.196 2214.640 1137.106 3335.158 5780.821 4248.520 1795.308 8665.067 0.000 3985.983 5609.967 5565.229
5567.911 6579.690 3468.982 9027.740 2017.285 4917.817 5808.224 6420.579 8064.563 4639.654 8635.191 8309.606 5615.726 6714.449 8373.637 6511.297 6453.730 6386.258 2697.766 6731.340 5122.706 3564.163 10429.843 5792.638 8649.256 11043.042 6138.153 10520.215 7274.984 9044.704 6456.898 4430.365 6903.104 8580.893 6882.707 4665.682 4018.858 2710.637 6684.231 6415.650 5951.142 4504.560 7932.894 7729.150 5257.170 4913.938 4457.268 6801.010 9543.534 6443.727 7654.365 4592.911 8667.925 4527.990 8396.574 1517.260 11643.965 6068.641 11785.456 7654.772 596.054 3758.906 8140.912 2063.327 6290.970 11287.213 7621.662 3847.773 6251.074 7074.341 8813.322 3600.597 6104.669 3947.845 7447.482 10166.185 6041.222 1501.269 10144.765 7017.449 1664.953 10256.966 8664.593 3881.532 2492.032 5570.326 4154.902 5597.433 9257.035 4594.651 5784.711 4146.845 2270.286 4730.489 4743.149 5107.739 10919.853 3985.983 0.000 4814.085 4715.266
3698.579 2146.343 1665.445 4522.107 4456.961 3770.097 4804.295 6092.442 10018.408 7047.454 6466.123 6746.944 4039.396 4500.295 3703.639 6106.201 3580.210 5435.771 2787.955 4303.261 1754.039 3450.941 7586.309 2843.310 6486.738 7119.178 4387.713 7796.438 4767.854 6427.922 5370.986 3875.752 4552.085 7796.714 5374.546 3988.626 4022.578 2786.749 5130.704 4755.481 5563.526 3694.736 3931.583 4292.979 6663.949 4017.937 3573.932 5343.631 7254.263 2432.594 4259.642 1154.336 4774.410 6864.033 5542.292 3364.476 8597.220 6592.175 8870.601 7003.140 4553.233 3991.806 5292.400 3116.247 7611.445 7588.506 3222.931 6113.708 6877.669 2431.734 4005.908 1468.051 4258.375 6535.276 8322.412 6476.916 5014.897 4085.637 6606.588 2244.283 3389.458 7119.711 7267.537 6232.973 2364.598 1527.403 5277.754 952.992 7538.278 7035.194 7783.017 4695.153 2835.055 345.326 1753.307 7402.656 7311.311 5609.967 4814.085 0.000 105.498
3719.816 2198.420 1561.499 4626.256 4383.031 3769.628 4813.848 6095.755 9987.957 6997.141 6518.124 6784.757 4056.279 4541.653 3809.121 6111.492 3633.668 5449.795 2719.077 4349.365 1793.272 3412.700 7658.462 2889.614 6538.657 7214.798 4414.099 7866.222 4819.992 6491.257 5388.044 3859.621 4597.979 7819.980 5402.945 3978.015 3993.835 2718.292 5158.439 4782.936 5564.210 3682.590 4023.478 4369.856 6631.703 4014.135 3561.539 5370.422 7312.120 2516.919 4335.108 1092.310 4865.741 6814.150 5608.445 3262.163 8675.892 6578.812 8946.754 7019.722 4459.352 3956.505 5357.276 3033.444 7586.167 7680.000 3323.696 6060.481 6863.721 2505.197 4101.952 1363.858 4286.213 6478.738 8309.842 6566.697 5027.192 3980.313 6693.119 2349.026 3300.989 7197.820 7303.471 6178.958 2272.050 1534.294 5240.234 1012.710 7583.088 6984.183 7744.328 4663.570 2752.217 295.395 1770.048 7356.284 7400.531 5565.229 4715.266 105.498 0.000
NODE_COORD_SECTION
1 135.757630 21.597263
2 -4926.962038 -2206.172274
3 -4341.576722 851.042135
4 -1274.096362 -4522.618885
5 -1652.603525 3458.065868
6 -2.042007 784.828763
7 1111.194905 715.861424
8 2246.581711 1397.975488
9 4442.959423 5497.887345
10 1090.067902 4745.094084
11 2879.408745 -1576.535363
12 3235.459425 -617.522632
13 441.077160 240.503549
14 985.864756 -756.807480
15 -2160.542732 -4041.246403
16 2296.066935 1293.648913
17 21.255235 -1174.118065
18 1778.819539 656.541879
19 -2200.927821 1867.977081
20 776.044334 -960.924268
21 -1757.404889 -588.639531
22 -964.959485 1736.275808
23 3498.122079 -3494.167434
24 -677.721238 -826.115134
25 2900.652508 -1574.013592
26 1570.305032 -5578.601788
27 847.567987 -91.682661
28 3779.428821 -3354.592605
29 1201.653814 -1313.312949
30 2663.007337 -2380.052338
31 1749.367633 489.546739
32 -152.996825 1341.742660
33 1024.580019 -974.870532
34 4209.163103 493.992305
35 1840.124737 -96.269832
36 45.531691 1211.977046
37 -295.084971 1823.058147
38 -2188.727359 1860.070231
39 1593.886524 -83.089107
40 1218.816766 -103.602618
41 1698.159092 1359.900538
42 -243.140942 1130.399887
43 -492.268409 -3111.087982
44 349.607149 -2469.462390
45 1696.149473 3565.267944
46 181.794898 989.585947
47 -354.743839 1083.023377
48 1800.826777 -14.644165
49 3569.904434 -2167.220135
50 -1447.329282 -1879.995676
51 355.322631 -2379.578173
52 -4610.620625 -240.213486
53 184.545044 -3615.129499
54 993.336582 4586.226045
55 1758.552073 -2308.628714
56 -3891.283497 2750.200601
57 4106.605114 -4577.434780
58 2303.300367 2512.966684
59 4488.613673 -4425.090336
60 3344.754282 834.321207
61 -2999.046368 3931.545357
62 -482.382898 2007.106919
63 1546.342133 -2151.079750
64 -2584.233487 2382.345940
65 2751.986340 3731.999598
66 2338.290511 -5426.613727
67 -1532.638004 -3136.704662
68 327.441564 4165.429332
69 2537.986391 2679.356226
70 -4591.737001 -2771.363234
71 -3817.034464 -4586.999721
72 -4224.705320 690.365741
73 725.443457 -165.466073
74 405.827780 4638.376975
75 3865.295676 3260.327465
76 1612.993056 -4553.905654
77 1348.482630 644.307620
78 -4714.316033 3311.785172
79 1935.168489 -4331.944650
80 -2992.871487 -2776.316290
81 -2798.370744 2720.836866
82 2826.372526 -3836.593592
83 3755.294334 -484.677317
84 360.974940 4291.327741
85 -3194.965410 1750.559144
86 -4926.140964 -1168.594098
87 426.352979 2921.275884
88 -4094.538039 -1346.548543
89 4004.654707 -1170.662299
90 1041.817486 4770.238467
91 2249.584997 4640.393439
92 167.578141 2324.303899
93 -2672.213709 2115.230222
94 -3843.535353 -498.094399
95 -1802.677689 -200.058341
96 1554.338986 4805.123492
97 2315.927004 -5008.314354
98 388.674993 3439.708098
99 -3519.925509 4221.312639
100 -3511.439279 -592.765189
101 -3548.170513 -493.868420
DEMAND_SECTION
1 0
2 10
3 3
4 9
5 65
6 2
7 8
8 4
9 3
10 2
11 8
12 4
13 7
14 59
15 2
16 10
17 7
18 7
19 6
20 4
21 3
22 3
23 7
24 7
25 59
26 73
27 86
28 6
29 9
30 7
31 65
32 10
33 10
34 9
35 7
36 9
37 4
38 3
39 4
40 10
41 6
42 3
43 8
44 7
45 82
46 3
47 4
48 7
49 9
50 4
51 8
52 68
53 60
54 9
55 9
56 7
57 4
58 6
59 1
60 52
61 4
62 7
63 4
64 5
65 10
66 4
67 7
68 10
69 4
70 3
71 4
72 9
73 6
74 1
75 4
76 9
77 7
78 3
79 10
80 5
81 8
82 3
83 3
84 10
85 1
86 6
87 89
88 9
89 4
90 5
91 3
92 2
93 2
94 7
95 75
96 3
97 10
98 8
99 7
100 4
101 7
DEPOT_SECTION
1
-1
EOF
