NAME : poryos-paris-n50-poi
COMMENT : Poryos2026 euclidean metric; city paris; 3-decimal seconds/meters; ENU ref in poryos-paris-n50-poi.vrp.json
TYPE : CVRP
DIMENSION : 51
EDGE_WEIGHT_TYPE : EXPLICIT
EDGE_WEIGHT_FORMAT : FULL_MATRIX
CAPACITY : 184
EDGE_WEIGHT_SECTION
0.000 2426.273 2807.355 1472.249 4427.872 1692.191 2765.132 6895.205 3699.539 4248.739 5057.311 8327.326 1328.995 5630.224 3621.153 1593.259 1278.847 1596.432 4851.653 8412.986 867.194 934.442 7091.776 1609.324 2148.634 701.424 2461.652 3561.614 3122.318 970.090 7869.639 2510.710 8285.685 7205.086 2334.619 7879.831 3372.967 5194.315 4939.319 4154.478 1565.398 2901.503 4453.994 1338.289 1042.832 1032.439 1272.974 2972.976 1691.949 2504.529 3706.075
2426.273 0.000 4791.620 2181.516 2675.289 2905.116 1535.393 8905.030 4482.243 3548.719 2633.080 10738.577 2412.027 7895.582 3327.669 3344.978 2860.622 3514.882 5310.108 10820.009 2502.107 1579.285 4671.685 3033.820 2050.071 2112.840 3051.211 2482.024 1579.541 2166.289 10258.616 228.462 10682.413 4790.721 116.235 10255.949 1207.029 7490.070 6897.317 2163.074 864.821 4926.902 4579.459 1808.723 3273.739 2055.376 2673.747 3094.620 3210.091 3283.666 1314.553
2807.355 4791.620 0.000 2684.787 5677.665 4242.027 5531.179 4136.036 2416.471 4482.023 7210.266 6448.032 2408.403 3222.064 6369.839 3798.493 3777.594 3616.216 3507.181 6491.819 3536.631 3282.042 9311.129 4067.370 3212.839 2732.181 2459.619 6366.093 5859.160 3751.266 6862.919 4955.326 7190.456 9455.671 4739.475 6961.270 5935.118 5007.094 2145.719 6816.374 4065.869 161.825 3663.948 3006.370 2992.456 3829.561 3879.159 5678.757 4051.472 5053.815 5835.225
1472.249 2181.516 2684.787 0.000 3257.441 3059.716 3268.632 6747.352 2517.462 2788.469 4526.279 8943.533 302.625 5879.682 4637.364 3060.548 2703.701 3067.685 3564.322 9006.788 2251.684 1009.464 6627.047 3024.431 740.360 780.091 1103.045 4225.410 3506.978 2183.975 8869.690 2374.334 9258.501 6770.927 2152.149 8911.885 3377.422 6396.363 4739.862 4314.060 1633.075 2832.547 3053.485 396.069 2477.117 2175.355 2647.224 4101.291 3131.417 3815.213 3150.547
4427.872 2675.289 5677.665 3257.441 0.000 5458.256 4112.616 9340.639 4126.185 1900.285 2507.878 12104.879 3554.207 8880.118 5940.986 5772.178 5304.831 5883.492 4343.259 12156.329 4874.044 3517.545 4276.828 5543.118 2550.852 3799.851 3236.540 4940.119 4008.176 4605.814 12126.770 2828.809 12515.847 4464.352 2783.004 12166.863 3225.998 9595.242 7425.322 3974.550 3247.019 5838.684 3461.516 3161.677 5455.525 4518.964 5151.260 5766.082 5706.183 5934.847 1939.856
1692.191 2905.116 4242.027 3059.716 5458.256 0.000 2244.720 8116.625 5391.684 5710.858 5319.671 8764.615 2981.629 6578.286 2199.369 665.250 464.742 926.428 6538.762 8874.901 827.415 2166.941 7131.748 231.542 3619.893 2294.832 4119.898 2615.117 2647.530 907.916 7776.630 2849.085 8222.587 7203.582 2788.922 7732.357 3295.944 4862.652 6267.835 3741.827 2211.254 4298.236 6104.964 2804.114 1294.741 963.795 420.265 1474.419 385.643 827.149 4168.919
2765.132 1535.393 5531.179 3268.632 4112.616 2244.720 0.000 9650.377 5756.952 5078.177 3224.416 10874.508 3401.468 8374.623 1828.410 2872.810 2452.877 3114.377 6696.930 10974.941 2322.778 2332.342 4906.406 2453.923 3394.427 2845.276 4307.201 981.731 405.721 1978.412 10014.716 1329.579 10458.623 4970.098 1460.641 9974.427 1157.665 7107.352 7676.224 1508.885 1640.088 5639.028 6022.578 2874.657 3184.061 1863.287 2244.202 1759.783 2626.735 2234.930 2351.793
6895.205 8905.030 4136.036 6747.352 9340.639 8116.625 9650.377 0.000 5267.875 7713.284 11211.989 4429.787 6496.082 2003.752 10312.052 7551.461 7671.289 7316.143 5603.986 4364.590 7528.681 7417.472 13300.898 7908.859 7143.607 6868.093 6196.576 10448.795 9987.943 7793.450 6401.213 9077.702 6484.035 13457.753 8859.345 6617.029 10065.127 6410.396 2008.195 10952.292 8200.562 4017.220 6310.632 7100.569 6822.396 7885.290 7814.517 9590.894 7843.456 8866.020 9866.776
3699.539 4482.243 2416.471 2517.462 4126.185 5391.684 5756.952 5267.875 0.000 2449.169 6263.664 8573.226 2471.950 5164.985 7144.937 5206.622 4969.666 5123.276 1202.104 8591.866 4565.418 3521.918 8278.013 5300.510 2432.783 3158.102 1450.785 6726.672 5958.824 4595.195 9250.835 4703.091 9561.612 8451.593 4489.204 9358.851 5677.262 7385.405 3467.466 6639.273 4118.314 2552.084 1264.205 2898.309 4449.730 4612.681 4972.109 6579.624 5363.590 6198.708 5046.416
4248.739 3548.719 4482.023 2788.469 1900.285 5710.858 5078.177 7713.284 2449.169 0.000 4350.728 10888.947 3001.656 7529.894 6815.968 5814.720 5417.214 5843.585 2455.632 10920.525 4956.543 3544.914 6176.810 5719.396 2109.603 3547.406 2129.691 6030.167 5115.234 4803.106 11277.159 3766.917 11628.505 6364.609 3617.738 11353.096 4517.455 9039.470 5902.282 5416.395 3695.842 4640.961 1575.120 2936.245 5265.498 4757.401 5323.889 6452.430 5848.122 6375.999 3451.732
5057.311 2633.080 7210.266 4526.279 2507.878 5319.671 3224.416 11211.989 6263.664 4350.728 0.000 13346.328 4810.173 10398.902 4810.662 5858.171 5382.327 6058.246 6716.100 13423.263 5079.251 4179.348 2100.863 5491.934 4068.580 4680.338 5042.229 3625.512 2900.348 4725.239 12881.910 2579.684 13308.641 2248.613 2730.390 12873.623 2069.331 10078.029 9217.988 2204.059 3497.773 7358.785 5848.955 4229.968 5888.342 4606.241 5179.831 4951.666 5672.440 5452.057 1385.337
8327.326 10738.577 6448.032 8943.533 12104.879 8764.615 10874.508 4429.787 8573.226 10888.947 13346.328 0.000 8641.863 3428.851 10781.195 8099.388 8449.935 7838.579 9321.157 162.815 8555.647 9169.289 15410.099 8533.737 9582.058 8668.154 8907.096 11379.581 11273.838 8909.061 2676.440 10836.457 2516.206 15528.372 10653.466 2929.064 11678.105 4631.850 5261.944 12368.585 9888.060 6286.228 9810.047 9169.084 7691.705 9028.754 8651.885 10077.116 8390.635 9248.455 11967.617
1328.995 2412.027 2408.403 302.625 3554.207 2981.629 3401.468 6496.082 2471.950 3001.656 4810.173 8641.863 0.000 5590.434 4677.452 2920.107 2597.073 2904.241 3573.189 8705.570 2158.712 1080.368 6910.191 2924.451 1019.107 694.326 1138.927 4339.622 3664.306 2139.515 8574.850 2593.771 8961.932 7051.854 2372.825 8619.107 3592.996 6123.802 4487.902 4515.836 1789.580 2552.991 3129.222 604.493 2285.908 2147.886 2563.014 4108.387 3017.372 3763.636 3430.410
5630.224 7895.582 3222.064 5879.682 8880.118 6578.286 8374.623 2003.752 5164.985 7529.894 10398.902 3428.851 5590.434 0.000 8767.968 5959.699 6164.788 5707.046 5893.421 3436.008 6112.480 6327.069 12497.262 6355.747 6434.703 5783.913 5644.622 9071.401 8745.443 6422.564 4735.903 8034.418 4911.200 12635.371 7828.929 4922.136 8971.119 4407.963 1855.903 9783.996 7100.865 3065.096 6389.603 6170.101 5316.132 6528.986 6334.749 8037.229 6261.695 7261.196 9016.090
3621.153 3327.669 6369.839 4637.364 5940.986 2199.369 1828.410 10312.052 7144.937 6815.968 4810.662 10781.195 4677.452 8767.968 0.000 2809.595 2640.853 3065.729 8193.978 10901.646 2833.293 3627.939 6133.802 2415.661 4955.107 4008.008 5737.273 1192.395 1992.279 2651.068 9491.867 3138.505 9947.287 6148.825 3238.315 9407.601 2861.955 6535.716 8441.588 2677.796 3166.326 6441.011 7604.931 4276.882 3490.565 2597.097 2505.544 730.962 2506.835 1540.844 4146.930
1593.259 3344.978 3798.493 3060.548 5772.178 665.250 2872.810 7551.461 5206.622 5814.720 5858.171 8099.388 2920.107 5959.699 2809.595 0.000 484.357 262.668 6386.243 8209.819 899.436 2314.267 7724.898 434.924 3705.233 2281.608 4045.030 3280.362 3278.189 1186.489 7142.604 3324.044 7585.952 7803.973 3230.830 7105.447 3875.677 4251.066 5749.567 4378.894 2563.820 3836.013 6035.130 2879.141 811.707 1291.418 679.024 2078.634 303.405 1314.880 4645.065
1278.847 2860.622 3777.594 2703.701 5304.831 464.742 2452.877 7671.289 4969.666 5417.214 5382.327 8449.935 2597.073 6164.788 2640.853 484.357 0.000 679.659 6128.996 8555.438 460.692 1885.157 7267.261 331.038 3310.509 1926.069 3734.852 2951.942 2858.212 705.438 7581.296 2841.093 8021.523 7350.288 2746.495 7550.887 3416.681 4710.597 5810.470 3961.647 2084.087 3834.769 5726.269 2484.745 853.283 807.661 210.045 1923.603 431.120 1287.262 4161.426
1596.432 3514.882 3616.216 3067.685 5883.492 926.428 3114.377 7316.143 5123.276 5843.585 6058.246 7838.579 2904.241 5707.046 3065.729 262.668 679.659 0.000 6311.891 7948.574 1023.630 2390.460 7946.492 695.230 3738.640 2296.762 4012.298 3541.004 3520.082 1348.773 6906.708 3506.913 7348.317 8028.758 3402.234 6873.829 4095.895 4030.940 5532.821 4622.417 2709.755 3645.861 5994.627 2917.861 676.269 1462.087 887.844 2334.988 563.989 1557.614 4822.918
4851.653 5310.108 3507.181 3564.322 4343.259 6538.762 6696.930 5603.986 1202.104 2455.632 6716.100 9321.157 3573.189 5893.421 8193.978 6386.243 6128.996 6311.891 0.000 9322.575 5711.416 4571.292 8615.501 6459.958 3302.893 4267.477 2461.287 7677.650 6853.990 5712.678 10226.245 5537.752 10511.885 8800.519 5337.343 10350.126 6461.283 8512.393 4073.118 7417.321 5083.257 3625.218 881.983 3917.103 5640.641 5719.346 6118.504 7664.941 6531.599 7333.514 5640.533
8412.986 10820.009 6491.819 9006.788 12156.329 8874.901 10974.941 4364.590 8591.866 10920.525 13423.263 162.815 8705.570 3436.008 10901.646 8209.819 8555.438 7948.574 9322.575 0.000 8654.495 9248.357 15490.826 8643.803 9639.125 8743.608 8951.438 11489.345 11373.416 9006.709 2835.797 10920.555 2668.241 15610.545 10735.943 3088.319 11768.781 4780.423 5256.642 12466.590 9971.696 6329.999 9823.875 9237.642 7791.199 9126.031 8756.531 10195.533 8502.257 9367.264 12043.105
867.194 2502.107 3536.631 2251.684 4874.044 827.415 2322.778 7528.681 4565.418 4956.543 5079.251 8555.647 2158.712 6112.480 2833.293 899.436 460.692 1023.630 5711.416 8654.495 0.000 1426.679 7016.568 772.988 2850.150 1477.915 3297.626 2959.221 2719.189 362.034 7821.476 2508.587 8255.197 7109.257 2391.135 7803.801 3179.487 5000.015 5622.588 3813.183 1686.470 3609.764 5286.081 2024.752 864.611 484.260 407.168 2151.269 891.618 1637.703 3814.748
934.442 1579.285 3282.042 1009.464 3517.545 2166.941 2332.342 7417.472 3521.918 3544.914 4179.348 9169.289 1080.368 6327.069 3627.939 2314.267 1885.157 2390.460 4571.292 9248.357 1426.679 0.000 6243.307 2177.601 1456.771 551.339 2110.984 3260.651 2616.427 1260.359 8795.287 1707.509 9208.246 6366.173 1505.062 8808.931 2660.367 6127.674 5419.109 3535.161 784.760 3406.685 4029.370 666.897 1939.474 1224.474 1780.187 3099.359 2313.448 2867.698 2808.918
7091.776 4671.685 9311.129 6627.047 4276.828 7131.748 4906.406 13300.898 8278.013 6176.810 2100.863 15410.099 6910.191 12497.262 6133.802 7724.898 7267.261 7946.492 8615.501 15490.826 7016.568 6243.307 0.000 7327.333 6158.767 6758.282 7115.536 4972.562 4518.979 6655.393 14836.826 4582.601 15271.641 198.683 4758.510 14814.168 3850.600 11975.621 11311.481 3506.599 5526.622 9459.584 7734.908 6327.232 7856.640 6533.555 7058.650 6467.405 7505.319 7106.646 3481.173
1609.324 3033.820 4067.370 3024.431 5543.118 231.542 2453.923 7908.859 5300.510 5719.396 5491.934 8533.737 2924.451 6355.747 2415.661 434.924 331.038 695.230 6459.958 8643.803 772.988 2177.601 7327.333 0.000 3616.900 2249.143 4062.846 2845.855 2858.299 944.585 7561.846 2991.999 8006.743 7402.252 2918.086 7520.504 3484.016 4656.251 6073.007 3956.157 2301.495 4118.143 6053.568 2793.496 1094.170 1024.382 399.935 1687.198 180.512 986.502 4314.868
2148.634 2050.071 3212.839 740.360 2550.852 3619.893 3394.427 7143.607 2432.783 2109.603 4068.580 9582.058 1019.107 6434.703 4955.107 3705.233 3310.509 3738.640 3302.893 9639.125 2850.150 1456.771 6158.767 3616.900 0.000 1448.586 1022.176 4375.610 3557.341 2715.752 9588.824 2272.267 9972.866 6314.315 2060.884 9635.495 3245.209 7136.338 5152.982 4206.892 1797.929 3369.671 2652.236 826.807 3179.630 2680.941 3224.359 4495.403 3741.621 4321.154 2739.854
701.424 2112.840 2732.181 780.091 3799.851 2294.832 2845.276 6868.093 3158.102 3547.406 4680.338 8668.154 694.326 5783.913 4008.008 2281.608 1926.069 2296.762 4267.477 8743.608 1477.915 551.339 6758.282 2249.143 1448.586 0.000 1827.086 3746.112 3147.453 1445.203 8386.214 2252.084 8790.778 6885.639 2045.048 8410.867 3211.460 5795.468 4871.645 4084.209 1336.073 2855.771 3810.198 652.839 1732.678 1455.541 1878.334 3422.623 2352.543 3070.320 3299.563
2461.652 3051.211 2459.619 1103.045 3236.540 4119.898 4307.201 6196.576 1450.785 2129.691 5042.229 8907.096 1138.927 5644.622 5737.273 4045.030 3734.852 4012.298 2461.287 8951.438 3297.626 2110.984 7115.536 4062.846 1022.176 1827.086 0.000 5278.918 4508.761 3267.144 9159.967 3268.193 9518.507 7277.349 3051.386 9231.037 4254.380 6922.114 4231.061 5213.840 2669.982 2621.439 1992.344 1463.998 3369.770 3266.929 3701.664 5203.942 4153.088 4896.225 3742.697
3561.614 2482.024 6366.093 4225.410 4940.119 2615.117 981.731 10448.795 6726.672 6030.167 3625.512 11379.581 4339.622 9071.401 1192.395 3280.362 2951.942 3541.004 7677.650 11489.345 2959.221 3260.651 4972.562 2845.855 4375.610 3746.112 5278.918 0.000 936.466 2662.645 10309.587 2263.492 10761.133 4997.998 2418.835 10246.358 1749.297 7360.267 8500.910 1489.173 2608.937 6462.951 7003.602 3834.620 3773.545 2565.646 2761.918 1526.191 2991.980 2273.970 3064.992
3122.318 1579.541 5859.160 3506.978 4008.176 2647.530 405.721 9987.943 5958.824 5115.234 2900.348 11273.838 3664.306 8745.443 1992.279 3278.189 2858.212 3520.082 6853.990 11373.416 2719.189 2616.427 4518.979 2858.299 3557.341 3147.453 4508.761 936.466 0.000 2370.548 10419.677 1354.312 10863.812 4578.178 1530.605 10378.659 873.391 7509.993 8004.758 1103.437 1876.897 5971.860 6147.152 3110.909 3582.265 2253.476 2649.359 2051.388 3030.389 2598.004 2159.727
970.090 2166.289 3751.266 2183.975 4605.814 907.916 1978.412 7793.450 4595.195 4803.106 4725.239 8909.061 2139.515 6422.564 2651.068 1186.489 705.438 1348.773 5712.678 9006.709 362.034 1260.359 6655.393 944.585 2715.752 1445.203 3267.144 2662.645 2370.548 0.000 8182.023 2161.129 8616.252 6747.563 2053.484 8163.135 2817.453 5352.790 5864.164 3459.890 1378.651 3835.437 5237.381 1906.026 1222.240 122.230 546.907 2010.923 1101.424 1631.327 3474.482
7869.639 10258.616 6862.919 8869.690 12126.770 7776.630 10014.716 6401.213 9250.835 11277.159 12881.910 2676.440 8574.850 4735.903 9491.867 7142.604 7581.296 6906.708 10226.245 2835.797 7821.476 8795.287 14836.826 7561.846 9588.824 8386.214 9159.967 10309.587 10419.677 8182.023 0.000 10302.337 456.135 14925.976 10156.426 252.730 10990.993 2957.490 6489.212 11517.825 9396.581 6715.235 10512.431 8989.555 6994.260 8303.683 7791.211 8855.513 7391.748 8048.129 11562.985
2510.710 228.462 4955.326 2374.334 2828.809 2849.085 1329.579 9077.702 4703.091 3766.917 2579.684 10836.457 2593.771 8034.418 3138.505 3324.044 2841.093 3506.913 5537.752 10920.555 2508.587 1707.509 4582.601 2991.999 2272.267 2252.084 3268.193 2263.492 1354.312 2161.129 10302.337 0.000 10729.637 4694.429 222.228 10294.144 1003.251 7507.896 7071.171 1950.596 949.272 5087.645 4807.901 1994.007 3308.678 2045.308 2646.947 2938.658 3170.625 3175.364 1323.106
8285.685 10682.413 7190.456 9258.501 12515.847 8222.587 10458.623 6484.035 9561.612 11628.505 13308.641 2516.206 8961.932 4911.200 9947.287 7585.952 8021.523 7348.317 10511.885 2668.241 8255.197 9208.246 15271.641 8006.743 9972.866 8790.778 9518.507 10761.133 10863.812 8616.252 456.135 10729.637 0.000 15362.378 10581.127 603.154 11427.993 3412.288 6704.266 11962.899 9819.327 7039.892 10825.210 9387.862 7423.241 8738.089 8231.526 9309.627 7837.436 8501.215 11984.095
7205.086 4790.721 9455.671 6770.927 4464.352 7203.582 4970.098 13457.753 8451.593 6364.609 2248.613 15528.372 7051.854 12635.371 6148.825 7803.973 7350.288 8028.758 8800.519 15610.545 7109.257 6366.173 198.683 7402.252 6314.315 6885.639 7277.349 4997.998 4578.178 6747.563 14925.976 4694.429 15362.378 0.000 4874.906 14900.301 3935.179 12054.958 11465.693 3545.878 5641.163 9603.178 7920.390 6465.653 7953.876 6625.509 7141.128 6502.575 7579.441 7156.625 3621.444
2334.619 116.235 4739.475 2152.149 2783.004 2788.922 1460.641 8859.345 4489.204 3617.738 2730.390 10653.466 2372.825 7828.929 3238.315 3230.830 2746.495 3402.234 5337.343 10735.943 2391.135 1505.062 4758.510 2918.086 2060.884 2045.048 3051.386 2418.835 1530.605 2053.484 10156.426 222.228 10581.127 4874.906 0.000 10152.419 1225.478 7382.046 6852.424 2171.299 769.581 4872.826 4618.009 1772.384 3168.530 1941.914 2558.917 2991.255 3094.502 3170.138 1423.862
7879.831 10255.949 6961.270 8911.885 12166.863 7732.357 9974.427 6617.029 9358.851 11353.096 12873.623 2929.064 8619.107 4922.136 9407.601 7105.447 7550.887 6873.829 10350.126 3088.319 7803.801 8808.931 14814.168 7520.504 9635.495 8410.867 9231.037 10246.358 10378.659 8163.135 252.730 10294.144 603.154 14900.301 10152.419 0.000 10965.306 2886.118 6654.977 11474.064 9395.986 6815.918 10618.236 9021.157 6985.657 8284.376 7760.448 8780.919 7348.482 7979.314 11563.757
3372.967 1207.029 5935.118 3377.422 3225.998 3295.944 1157.665 10065.127 5677.262 4517.455 2069.331 11678.105 3592.996 8971.119 2861.955 3875.677 3416.681 4095.895 6461.283 11768.781 3179.487 2660.367 3850.600 3484.016 3245.209 3211.460 4254.380 1749.297 873.391 2817.453 10990.993 1003.251 11427.993 3935.179 1225.478 10965.306 0.000 8125.526 8060.656 962.332 1876.751 6063.521 5695.548 2995.513 4032.517 2695.227 3208.056 2905.409 3663.239 3383.013 1318.048
5194.315 7490.070 5007.094 6396.363 9595.242 4862.652 7107.352 6410.396 7385.405 9039.470 10078.029 4631.850 6123.802 4407.963 6535.716 4251.066 4710.597 4030.940 8512.393 4780.423 5000.015 6127.674 11975.621 4656.251 7136.338 5795.468 6922.114 7360.267 7509.993 5352.790 2957.490 7507.896 3412.288 12054.958 7382.046 2886.118 8125.526 0.000 5571.410 8600.688 6643.861 4897.123 8585.009 6436.419 4225.511 5471.936 4918.237 5898.475 4481.313 5093.777 8804.521
4939.319 6897.317 2145.719 4739.862 7425.322 6267.835 7676.224 2008.195 3467.466 5902.282 9217.988 5261.944 4487.902 1855.903 8441.588 5749.567 5810.470 5532.821 4073.118 5256.642 5622.588 5419.109 11311.481 6073.007 5152.982 4871.645 4231.061 8500.910 8004.758 5864.164 6489.212 7071.171 6704.266 11465.693 6852.424 6654.977 8060.656 5571.410 0.000 8954.047 6200.448 2039.089 4635.546 5092.393 4978.872 5949.249 5936.180 7732.856 6028.440 7051.003 7865.923
4154.478 2163.074 6816.374 4314.060 3974.550 3741.827 1508.885 10952.292 6639.273 5416.395 2204.059 12368.585 4515.836 9783.996 2677.796 4378.894 3961.647 4622.417 7417.321 12466.590 3813.183 3535.161 3506.599 3956.157 4206.892 4084.209 5213.840 1489.173 1103.437 3459.890 11517.825 1950.596 11962.899 3545.878 2171.299 11474.064 962.332 8600.688 8954.047 0.000 2754.085 6938.502 6642.290 3926.190 4677.597 3340.785 3752.784 2961.080 4126.248 3616.702 2040.170
1565.398 864.821 4065.869 1633.075 3247.019 2211.254 1640.088 8200.562 4118.314 3695.842 3497.773 9888.060 1789.580 7100.865 3166.326 2563.820 2084.087 2709.755 5083.257 9971.696 1686.470 784.760 5526.622 2301.495 1797.929 1336.073 2669.982 2608.937 1876.897 1378.651 9396.581 949.272 9819.327 5641.163 769.581 9395.986 1876.751 6643.861 6200.448 2754.085 0.000 4191.270 4449.752 1237.505 2420.283 1281.812 1916.120 2757.187 2468.901 2739.655 2167.980
2901.503 4926.902 161.825 2832.547 5838.684 4298.236 5639.028 4017.220 2552.084 4640.961 7358.785 6286.228 2552.991 3065.096 6441.011 3836.013 3834.769 3645.861 3625.218 6329.999 3609.764 3406.685 9459.584 4118.143 3369.671 2855.771 2621.439 6462.951 5971.860 3835.437 6715.235 5087.645 7039.892 9603.178 4872.826 6815.918 6063.521 4897.123 2039.089 6938.502 4191.270 0.000 3804.745 3148.325 3035.263 3917.040 3943.403 5744.358 4095.444 5104.384 5982.116
4453.994 4579.459 3663.948 3053.485 3461.516 6104.964 6022.578 6310.632 1264.205 1575.120 5848.955 9810.047 3129.222 6389.603 7604.931 6035.130 5726.269 5994.627 881.983 9823.875 5286.081 4029.370 7734.908 6053.568 2652.236 3810.198 1992.344 7003.602 6147.152 5237.381 10512.431 4807.901 10825.210 7920.390 4618.009 10618.236 5695.548 8585.009 4635.546 6642.290 4449.752 3804.745 0.000 3362.610 5341.834 5227.564 5688.340 7122.597 6145.347 6868.675 4809.157
1338.289 1808.723 3006.370 396.069 3161.677 2804.114 2874.657 7100.569 2898.309 2936.245 4229.968 9169.084 604.493 6170.101 4276.882 2879.141 2484.745 2917.861 3917.103 9237.642 2024.752 666.897 6327.232 2793.496 826.807 652.839 1463.998 3834.620 3110.909 1906.026 8989.555 1994.007 9387.862 6465.653 1772.384 9021.157 2995.513 6436.419 5092.393 3926.190 1237.505 3148.325 3362.610 0.000 2378.911 1881.092 2403.342 3763.393 2915.853 3527.177 2846.128
1042.832 3273.739 2992.456 2477.117 5455.525 1294.741 3184.061 6822.396 4449.730 5265.498 5888.342 7691.705 2285.908 5316.132 3490.565 811.707 853.283 676.269 5640.641 7791.199 864.611 1939.474 7856.640 1094.170 3179.630 1732.678 3369.770 3773.545 3582.265 1222.240 6994.260 3308.678 7423.241 7953.876 3168.530 6985.657 4032.517 4225.511 4978.872 4677.597 2420.283 3035.263 5341.834 2378.911 0.000 1343.638 1018.915 2768.572 1060.184 2074.923 4586.009
1032.439 2055.376 3829.561 2175.355 4518.964 963.795 1863.287 7885.290 4612.681 4757.401 4606.241 9028.754 2147.886 6528.986 2597.097 1291.418 807.661 1462.087 5719.346 9126.031 484.260 1224.474 6533.555 1024.382 2680.941 1455.541 3266.929 2565.646 2253.476 122.230 8303.683 2045.308 8738.089 6625.509 1941.914 8284.376 2695.227 5471.936 5949.249 3340.785 1281.812 3917.040 5227.564 1881.092 1343.638 0.000 634.381 1975.276 1188.189 1646.183 3361.027
1272.974 2673.747 3879.159 2647.224 5151.260 420.265 2244.202 7814.517 4972.109 5323.889 5179.831 8651.885 2563.014 6334.749 2505.544 679.024 210.045 887.844 6118.504 8756.531 407.168 1780.187 7058.650 399.935 3224.359 1878.334 3701.664 2761.918 2649.359 546.907 7791.211 2646.947 8231.526 7141.128 2558.917 7760.448 3208.056 4918.237 5936.180 3752.784 1916.120 3943.403 5688.340 2403.342 1018.915 634.381 0.000 1801.018 554.961 1235.535 3968.988
2972.976 3094.620 5678.757 4101.291 5766.082 1474.419 1759.783 9590.894 6579.624 6452.430 4951.666 10077.116 4108.387 8037.229 730.962 2078.634 1923.603 2334.988 7664.941 10195.533 2151.269 3099.359 6467.405 1687.198 4495.403 3422.623 5203.942 1526.191 2051.388 2010.923 8855.513 2938.658 9309.627 6502.575 2991.255 8780.919 2905.409 5898.475 7732.856 2961.080 2757.187 5744.358 7122.597 3763.393 2768.572 1975.276 1801.018 0.000 1775.889 829.179 4099.645
1691.949 3210.091 4051.472 3131.417 5706.183 385.643 2626.735 7843.456 5363.590 5848.122 5672.440 8390.635 3017.372 6261.695 2506.835 303.405 431.120 563.989 6531.599 8502.257 891.618 2313.448 7505.319 180.512 3741.621 2352.543 4153.088 2991.980 3030.389 1101.424 7391.748 3170.625 7837.436 7579.441 3094.502 7348.482 3663.239 4481.313 6028.440 4126.248 2468.901 4095.444 6145.347 2915.853 1060.184 1188.189 554.961 1775.889 0.000 1024.304 4493.637
2504.529 3283.666 5053.815 3815.213 5934.847 827.149 2234.930 8866.020 6198.708 6375.999 5452.057 9248.455 3763.636 7261.196 1540.844 1314.880 1287.262 1557.614 7333.514 9367.264 1637.703 2867.698 7106.646 986.502 4321.154 3070.320 4896.225 2273.970 2598.004 1631.327 8048.129 3175.364 8501.215 7156.625 3170.138 7979.314 3383.013 5093.777 7051.003 3616.702 2739.655 5104.384 6868.675 3527.177 2074.923 1646.183 1235.535 829.179 1024.304 0.000 4445.156
3706.075 1314.553 5835.225 3150.547 1939.856 4168.919 2351.793 9866.776 5046.416 3451.732 1385.337 11967.617 3430.410 9016.090 4146.930 4645.065 4161.426 4822.918 5640.533 12043.105 3814.748 2808.918 3481.173 4314.868 2739.854 3299.563 3742.697 3064.992 2159.727 3474.482 11562.985 1323.106 11984.095 3621.444 1423.862 11563.757 1318.048 8804.521 7865.923 2040.170 2167.980 5982.116 4809.157 2846.128 4586.009 3361.027 3968.988 4099.645 4493.637 4445.156 0.000
NODE_COORD_SECTION
1 -500.874011 70.822412
2 1840.727049 -564.555606
3 -2871.560687 -1432.868439
4 -187.564215 -1367.702498
5 2541.333576 -3146.477655
6 3.726492 1686.028259
7 2122.519408 944.757438
8 -6791.041533 -2753.649051
9 -1572.130856 -3470.222776
10 826.488729 -3965.251059
11 4338.617676 -1397.413845
12 -8748.499584 1220.187001
13 -469.528837 -1257.802496
14 -6048.031162 -892.746428
15 1921.861176 2762.123850
16 -660.847098 1656.030294
17 -299.326661 1333.687192
18 -919.685697 1611.339375
19 -1525.415911 -4671.419178
20 -8851.407038 1094.017710
21 -199.462030 883.949715
22 264.572874 -465.155772
23 6439.454661 -1386.956907
24 -225.923465 1656.485053
25 303.920118 -1921.395598
26 -271.932180 -592.187072
27 -605.226304 -2388.616812
28 2616.651799 1793.067066
29 2519.635205 861.639522
30 150.169477 790.000373
31 -7532.555394 3604.470873
32 1969.753388 -376.015835
33 -7988.463014 3618.861438
34 6582.319889 -1248.882718
35 1769.616483 -472.610476
36 -7424.593878 3832.980366
37 2872.083219 62.519852
38 -4594.203123 3268.566484
39 -4835.309061 -2297.624564
40 3608.378135 682.159408
41 1025.893993 -274.792714
42 -3020.111183 -1368.679369
43 -693.315235 -4379.012035
44 118.037925 -1115.754310
45 -1061.537452 950.115268
46 268.484075 759.311640
47 -96.807854 1277.965184
48 1250.406537 2473.238437
49 -375.123833 1758.092073
50 424.641228 2398.071733
51 2960.877499 -1252.533360
DEMAND_SECTION
1 0
2 1
3 7
4 8
5 2
6 10
7 4
8 3
9 7
10 8
11 4
12 6
13 4
14 2
15 9
16 9
17 97
18 4
19 1
20 9
21 10
22 10
23 64
24 10
25 3
26 5
27 5
28 2
29 10
30 8
31 8
32 80
33 10
34 7
35 2
36 67
37 5
38 5
39 1
40 6
41 8
42 5
43 8
44 87
45 4
46 9
47 6
48 9
49 5
50 1
51 1
DEPOT_SECTION
1
-1
EOF
