NAME : mamut-lyon-n10-poi
COMMENT : Mamut2026 shortest metric; city lyon; 3-decimal seconds/meters; ENU ref in mamut-lyon-n10-poi.vrp.json
TYPE : CVRP
DIMENSION : 11
EDGE_WEIGHT_TYPE : EXPLICIT
EDGE_WEIGHT_FORMAT : FULL_MATRIX
CAPACITY : 96
EDGE_WEIGHT_SECTION
0.000 2486.993 3176.798 3684.575 951.986 1938.922 1585.287 2516.324 1875.118 1611.291 4470.388
3095.063 0.000 3528.658 6075.768 2956.152 4330.116 3191.836 4907.517 3488.283 2845.463 6861.581
3499.088 3394.958 0.000 5419.216 3798.790 3669.947 4448.962 4250.965 4738.792 1615.549 6205.029
3683.359 5823.378 5933.132 0.000 3482.073 2208.419 3509.647 1680.242 3468.385 4455.426 2050.100
761.339 2613.096 3929.652 3142.792 0.000 1397.139 863.281 1974.541 1153.111 2364.145 3928.605
1744.573 4114.325 3923.641 1749.269 1780.393 0.000 2299.103 581.018 2588.933 2446.785 2535.082
1359.984 2612.794 4528.298 3652.473 878.192 1906.820 0.000 2484.222 1435.455 2962.791 4438.286
2733.903 4929.142 4844.303 1620.205 2587.837 1215.633 3106.546 0.000 3343.283 3373.768 2406.018
1880.479 3133.289 5048.792 4172.968 1398.687 2427.315 588.577 3004.717 0.000 3483.285 4958.781
2317.491 2688.205 1630.284 4237.619 2617.193 2488.350 3267.365 3069.368 3557.195 0.000 5023.432
4336.565 6476.584 6335.191 2071.283 4135.278 2861.625 4468.909 2333.447 4427.647 4878.423 0.000
NODE_COORD_SECTION
1 135.757630 21.597263
2 -1164.097546 -1386.965657
3 349.607149 -2469.462390
4 2090.053894 2037.426795
5 17.803018 573.805654
6 1360.797172 644.365874
7 -270.222232 863.104159
8 1723.489106 700.884958
9 -467.891463 1204.814392
10 577.731483 -1047.951247
11 3602.380059 1263.502760
DEMAND_SECTION
1 0
2 4
3 58
4 3
5 8
6 7
7 52
8 8
9 74
10 6
11 10
DEPOT_SECTION
1
-1
EOF
