NAME : poryos-lyon-n10-poi
COMMENT : Poryos2026 euclidean metric; city lyon; 3-decimal seconds/meters; ENU ref in poryos-lyon-n10-poi.vrp.json
TYPE : CVRP
DIMENSION : 11
EDGE_WEIGHT_TYPE : EXPLICIT
EDGE_WEIGHT_FORMAT : FULL_MATRIX
CAPACITY : 96
EDGE_WEIGHT_SECTION
0.000 1916.683 2500.222 2807.640 564.666 1374.250 934.320 1726.940 1328.305 1157.270 3682.363
1916.683 0.000 1860.941 4723.978 2289.435 3240.587 2421.121 3563.324 2683.659 1774.514 5453.833
2500.222 1860.941 0.000 4831.274 3061.303 3273.902 3389.718 3455.236 3764.122 1439.699 4951.319
2807.640 4723.978 4831.274 0.000 2537.008 1572.398 2636.273 1385.898 2690.042 3436.085 1698.849
564.666 2289.435 3061.303 2537.008 0.000 1344.846 408.231 1710.413 796.286 1715.697 3650.325
1374.250 3240.587 3273.902 1572.398 1344.846 0.000 1645.622 367.069 1912.643 1864.706 2325.516
934.320 2421.121 3389.718 2636.273 408.231 1645.622 0.000 2000.300 394.764 2090.732 3893.246
1726.940 3563.324 3455.236 1385.898 1710.413 367.069 2000.300 0.000 2248.576 2090.739 1961.318
1328.305 2683.659 3764.122 2690.042 796.286 1912.643 394.764 2248.576 0.000 2483.602 4070.695
1157.270 1774.514 1439.699 3436.085 1715.697 1864.706 2090.732 2090.739 2483.602 0.000 3806.746
3682.363 5453.833 4951.319 1698.849 3650.325 2325.516 3893.246 1961.318 4070.695 3806.746 0.000
NODE_COORD_SECTION
1 135.757630 21.597263
2 -1164.097546 -1386.965657
3 349.607149 -2469.462390
4 2090.053894 2037.426795
5 17.803018 573.805654
6 1360.797172 644.365874
7 -270.222232 863.104159
8 1723.489106 700.884958
9 -467.891463 1204.814392
10 577.731483 -1047.951247
11 3602.380059 1263.502760
DEMAND_SECTION
1 0
2 4
3 58
4 3
5 8
6 7
7 52
8 8
9 74
10 6
11 10
DEPOT_SECTION
1
-1
EOF
