NAME : mamut-paris-n10-hyb
COMMENT : Mamut2026 euclidean metric; city paris; 3-decimal seconds/meters; ENU ref in mamut-paris-n10-hyb.vrp.json
TYPE : CVRP
DIMENSION : 11
EDGE_WEIGHT_TYPE : EXPLICIT
EDGE_WEIGHT_FORMAT : FULL_MATRIX
CAPACITY : 100
EDGE_WEIGHT_SECTION
0.000 2233.764 7970.920 3571.704 4438.946 1354.624 4932.791 2797.602 6627.856 2987.755 4284.408
2233.764 0.000 9408.234 1380.633 2214.125 3391.097 4296.822 2552.532 5040.176 3784.381 5007.441
7970.920 9408.234 0.000 10116.801 11250.758 8207.075 7279.505 7218.552 14412.054 5678.978 11607.031
3571.704 1380.633 10116.801 0.000 1134.184 4769.950 4020.017 2916.204 4777.424 4445.061 6125.903
4438.946 2214.125 11250.758 1134.184 0.000 5507.146 4990.424 4048.233 3839.353 5577.406 6252.864
1354.624 3391.097 8207.075 4769.950 5507.146 0.000 6216.070 4095.134 7060.369 3963.587 3469.883
4932.791 4296.822 7279.505 4020.017 4990.424 6216.070 0.000 2135.744 8789.227 2839.561 9011.065
2797.602 2552.532 7218.552 2916.204 4048.233 4095.134 2135.744 0.000 7508.106 1605.745 6920.440
6627.856 5040.176 14412.054 4777.424 3839.353 7060.369 8789.227 7508.106 0.000 8824.263 5655.474
2987.755 3784.381 5678.978 4445.061 5577.406 3963.587 2839.561 1605.745 8824.263 0.000 7259.325
4284.408 5007.441 11607.031 6125.903 6252.864 3469.883 9011.065 6920.440 5655.474 7259.325 0.000
NODE_COORD_SECTION
1 -500.874011 70.822412
2 204.844649 -2048.531555
3 -8173.220824 2231.991929
4 211.356527 -3429.149073
5 1164.497986 -4043.880396
6 -15.266374 1335.414020
7 -3805.380107 -3591.508254
8 -2347.624106 -2030.626921
9 4983.648261 -3650.532722
10 -3362.947156 -786.627030
11 3425.238281 1785.987140
DEMAND_SECTION
1 0
2 9
3 5
4 5
5 54
6 3
7 3
8 9
9 76
10 6
11 75
DEPOT_SECTION
1
-1
EOF
