NAME : mamut-lyon-n10-hyb
COMMENT : Mamut2026 fastest metric; city lyon; 3-decimal seconds/meters; ENU ref in mamut-lyon-n10-hyb.vrp.json
TYPE : CVRP
DIMENSION : 11
EDGE_WEIGHT_TYPE : EXPLICIT
EDGE_WEIGHT_FORMAT : FULL_MATRIX
CAPACITY : 133
EDGE_WEIGHT_SECTION
0.000 215.359 75.490 205.398 90.006 50.085 208.469 183.417 186.196 312.736 246.188
185.347 0.000 163.299 364.539 165.853 206.394 342.560 342.559 287.542 471.878 380.280
112.247 197.569 0.000 260.123 92.753 133.295 227.198 269.459 163.921 367.462 275.239
242.305 399.141 274.900 0.000 299.514 247.600 327.370 275.611 305.841 111.872 281.176
98.663 125.352 88.948 290.188 0.000 119.096 268.209 267.055 213.190 397.527 305.928
56.823 230.849 130.785 257.576 138.241 0.000 263.764 185.845 241.491 364.915 276.473
231.696 353.495 229.961 320.909 254.575 252.744 0.000 381.946 121.714 398.221 192.661
194.281 352.165 268.244 267.773 264.546 180.348 385.421 0.000 363.893 379.644 397.109
198.834 290.218 166.684 336.874 191.298 219.882 125.023 355.647 0.000 431.806 226.246
349.130 505.965 381.724 111.872 406.338 354.424 367.836 387.482 398.111 0.000 296.501
240.978 403.980 279.739 287.746 301.556 262.025 188.186 394.113 218.461 308.932 0.000
NODE_COORD_SECTION
1 135.757630 21.597263
2 3126.301013 -320.961717
3 1031.708687 -934.078618
4 -2716.863800 -1126.865821
5 1218.816766 -103.602618
6 192.304429 726.757575
7 -455.388500 -3116.914840
8 -2169.781890 2614.729357
9 314.521719 -2797.145236
10 -3221.170322 -2460.636246
11 -1721.289846 -4599.490878
DEMAND_SECTION
1 0
2 4
3 2
4 84
5 7
6 80
7 1
8 10
9 7
10 86
11 3
DEPOT_SECTION
1
-1
EOF
