NAME : poryos-hong_kong-n10-hyb
COMMENT : Poryos2026 fastest metric; city hong_kong; 3-decimal seconds/meters; ENU ref in poryos-hong_kong-n10-hyb.vrp.json
TYPE : CVRP
DIMENSION : 11
EDGE_WEIGHT_TYPE : EXPLICIT
EDGE_WEIGHT_FORMAT : FULL_MATRIX
CAPACITY : 101
EDGE_WEIGHT_SECTION
0.000 423.978 490.729 397.836 760.177 164.650 1164.570 385.505 307.688 686.406 442.484
414.978 0.000 147.339 491.755 1060.681 355.371 1368.223 621.854 494.072 622.784 726.200
501.633 154.850 0.000 578.410 1147.336 420.027 1349.785 603.416 516.404 699.205 812.856
406.040 492.635 559.386 0.000 952.967 365.682 1405.861 649.751 508.236 652.003 612.517
761.296 1067.605 1134.356 950.193 0.000 812.676 851.231 906.171 898.899 1131.638 452.527
145.334 385.513 403.414 369.033 793.642 0.000 1065.864 309.754 168.510 675.063 487.670
1159.921 1389.243 1333.359 1403.700 1556.878 1075.022 0.000 1084.683 1002.791 1695.236 1275.454
423.391 667.883 628.582 660.090 939.460 331.412 1048.765 0.000 259.181 966.121 633.917
320.152 540.225 528.436 532.431 842.729 202.229 1024.996 268.886 0.000 838.462 537.187
638.221 560.696 628.505 584.424 1099.376 639.101 1663.194 916.825 781.654 0.000 758.926
467.404 755.916 822.667 629.571 472.735 540.415 1246.354 623.993 616.721 811.017 0.000
NODE_COORD_SECTION
1 1438.942575 -1211.855723
2 1341.120703 -8492.364950
3 -617.892096 -7808.174335
4 3729.564917 -2859.972289
5 1113.921911 11014.492265
6 422.107577 -2211.221152
7 -8059.341270 9001.557866
8 -3140.158798 -2065.126878
9 -2308.618708 -1828.776495
10 9962.929957 -5586.984193
11 5504.164897 5115.139735
DEMAND_SECTION
1 0
2 61
3 9
4 7
5 60
6 5
7 77
8 4
9 1
10 8
11 2
DEPOT_SECTION
1
-1
EOF
