NAME : poryos-tokyo-n25-hyb
COMMENT : Poryos2026 fastest metric; city tokyo; 3-decimal seconds/meters; ENU ref in poryos-tokyo-n25-hyb.vrp.json
TYPE : CVRP
DIMENSION : 26
EDGE_WEIGHT_TYPE : EXPLICIT
EDGE_WEIGHT_FORMAT : FULL_MATRIX
CAPACITY : 138
EDGE_WEIGHT_SECTION
0.000 366.463 456.695 209.338 299.134 191.555 200.595 354.601 408.272 260.478 140.272 465.008 240.201 523.296 510.978 475.820 355.767 494.759 245.787 109.912 780.051 339.615 461.281 666.336 558.625 448.431
381.342 0.000 218.082 524.616 613.206 218.081 515.874 95.087 426.618 466.258 455.551 686.834 536.512 492.623 479.390 556.825 643.099 499.554 342.746 422.013 1072.262 219.136 486.820 747.630 598.793 657.934
456.194 189.121 0.000 635.266 725.063 382.830 626.524 236.162 591.367 541.110 566.201 851.583 611.365 486.095 610.546 631.677 781.696 493.026 417.599 535.841 1168.063 274.866 519.668 773.855 602.225 822.683
213.288 513.285 639.432 0.000 113.748 332.025 111.040 537.337 364.832 376.251 131.717 332.995 225.238 661.753 539.859 551.024 175.314 633.273 428.524 156.501 693.611 522.352 599.794 689.288 636.134 316.417
306.030 604.219 732.174 127.080 0.000 422.959 167.495 630.079 333.983 450.500 224.459 297.336 298.158 736.002 509.010 623.943 107.670 707.521 504.637 249.243 733.317 615.094 674.043 761.596 709.054 285.568
194.905 205.974 388.864 327.008 415.598 0.000 318.266 265.869 291.780 303.957 257.943 526.293 367.272 525.462 436.368 533.453 445.491 496.925 223.280 224.405 874.654 306.055 463.447 724.258 573.549 509.715
178.064 478.061 604.208 90.025 174.296 296.801 0.000 502.114 388.374 315.581 96.493 356.536 163.239 601.083 560.838 489.025 231.067 572.602 369.718 120.776 653.254 487.128 539.124 627.289 574.135 339.959
346.743 95.264 258.733 525.815 615.611 242.871 517.073 0.000 451.409 431.659 456.750 711.624 501.913 502.256 504.181 522.226 667.889 485.699 308.148 426.390 1058.612 203.273 452.221 713.032 564.194 682.725
405.996 404.836 587.726 356.941 319.422 285.946 410.838 464.731 0.000 567.211 375.945 280.134 503.113 753.643 189.460 761.633 301.393 725.106 451.460 360.246 988.619 500.456 691.627 952.438 801.729 248.268
262.804 452.432 542.663 357.391 428.490 306.530 298.298 440.569 570.924 0.000 289.072 613.956 149.182 387.216 715.512 251.308 488.487 358.735 179.704 227.892 720.238 375.184 325.257 440.360 336.418 597.379
149.663 441.419 575.807 126.455 226.984 260.159 128.446 473.713 361.080 318.255 0.000 370.916 206.448 603.757 505.669 493.953 271.374 575.276 364.899 92.876 710.774 458.727 541.798 683.005 579.063 354.338
464.921 666.970 849.860 328.751 287.260 528.214 382.647 726.864 284.574 636.637 389.996 0.000 484.174 930.536 439.236 806.110 244.879 902.056 675.342 419.172 936.736 762.589 868.578 942.660 891.220 41.204
233.296 514.522 604.754 216.955 285.747 358.417 155.555 502.660 500.288 174.093 187.801 475.166 0.000 487.276 644.876 340.863 347.313 464.736 282.563 145.311 616.759 433.909 417.846 500.595 425.974 458.589
525.425 462.129 479.954 655.951 727.051 520.244 596.859 478.184 752.964 384.758 587.633 916.470 470.682 0.000 819.332 260.154 788.617 93.704 327.449 526.453 1051.558 328.583 110.094 350.667 179.037 899.893
509.688 457.829 614.328 536.409 498.890 434.370 583.202 517.723 181.156 715.634 524.369 459.602 651.537 821.055 0.000 829.046 480.862 792.519 599.884 508.670 1168.087 553.448 759.040 1019.851 871.013 427.736
467.177 531.792 622.023 541.422 610.214 522.737 480.021 519.929 755.456 258.405 474.177 799.061 324.467 265.264 821.825 0.000 671.780 282.936 342.054 412.997 875.085 433.564 195.834 254.207 153.858 782.484
356.326 628.763 782.471 184.076 97.830 447.503 224.491 680.376 303.526 507.496 274.756 244.397 355.154 792.997 478.553 680.365 0.000 764.517 561.633 299.540 746.662 665.391 731.039 816.916 765.476 235.010
495.612 475.670 493.496 630.937 702.036 490.432 571.844 487.624 723.151 359.743 562.618 891.455 469.531 67.638 789.520 288.633 763.603 0.000 297.636 501.438 1060.180 342.125 100.961 399.606 227.977 874.878
264.435 343.429 433.661 443.507 522.113 237.201 391.920 331.566 469.921 189.808 374.442 694.529 309.631 321.257 614.509 344.002 583.679 292.720 0.000 321.514 880.256 267.310 259.242 534.807 366.455 677.952
119.569 394.366 545.713 199.295 289.092 213.106 190.553 443.619 394.493 312.286 130.230 451.228 223.677 579.339 518.651 490.150 345.725 550.859 334.805 0.000 731.059 428.634 517.381 680.666 572.956 434.651
772.274 1047.071 1159.814 708.943 719.868 865.811 654.016 1057.720 1002.233 731.607 702.287 929.266 612.735 1047.492 1171.356 846.325 754.619 1050.075 847.191 681.626 0.000 1019.248 978.062 865.969 955.666 919.878
342.147 204.476 286.287 521.219 611.016 303.347 512.477 195.175 501.915 379.967 452.154 762.131 460.535 359.517 554.687 458.913 667.649 366.448 280.823 421.794 1038.317 0.000 366.278 647.277 475.647 733.232
462.134 466.008 519.170 597.458 668.558 456.953 538.366 454.145 689.673 326.265 529.140 857.977 405.209 103.793 756.041 194.681 730.124 94.710 264.157 467.960 986.085 326.405 0.000 380.327 135.470 841.400
646.493 711.488 748.107 694.771 770.701 702.433 640.508 699.626 935.153 436.192 651.964 950.960 502.253 345.328 1001.521 235.872 825.491 375.278 521.751 590.784 890.060 596.736 355.637 0.000 282.868 934.383
546.070 583.553 603.202 631.650 700.442 571.781 570.250 571.690 804.500 348.634 564.406 889.290 414.695 200.423 873.586 152.705 762.009 222.572 372.173 503.226 995.571 451.831 135.470 304.274 0.000 872.713
448.344 637.644 820.534 312.173 274.655 511.637 366.070 697.539 252.707 620.060 373.419 41.204 467.597 913.959 407.370 789.533 235.491 885.479 658.764 402.595 927.348 733.264 852.000 926.083 874.643 0.000
NODE_COORD_SECTION
1 -2164.012052 1974.697434
2 -8776.875283 3728.514207
3 -11681.782138 3142.526296
4 1657.173521 2852.440873
5 2750.987226 3962.680532
6 -4456.580624 3714.602760
7 1211.989949 1723.684521
8 -8588.510108 3154.200680
9 -2123.660485 8905.433200
10 -2729.632668 -2173.557858
11 92.207116 2403.291587
12 2320.965629 8618.776434
13 -376.456768 -1200.502642
14 -8053.092909 -5043.178949
15 -4098.853635 10748.458375
16 -4588.663370 -6486.773482
17 3079.370262 5044.620567
18 -7963.912654 -4502.988369
19 -5030.958381 -596.913258
20 -550.449733 1613.475625
21 6330.541016 -6264.599971
22 -8421.821600 565.798554
23 -7034.753576 -4646.544823
24 -4157.762767 -10435.805494
25 -6488.123387 -6381.418743
26 2226.688316 8728.009072
DEMAND_SECTION
1 0
2 9
3 4
4 60
5 7
6 8
7 5
8 2
9 100
10 5
11 79
12 4
13 2
14 7
15 6
16 8
17 74
18 9
19 10
20 2
21 6
22 6
23 81
24 1
25 2
26 72
DEPOT_SECTION
1
-1
EOF
