NAME : mamut-san_francisco-n10-poi
COMMENT : Mamut2026 fastest metric; city san_francisco; 3-decimal seconds/meters; ENU ref in mamut-san_francisco-n10-poi.vrp.json
TYPE : CVRP
DIMENSION : 11
EDGE_WEIGHT_TYPE : EXPLICIT
EDGE_WEIGHT_FORMAT : FULL_MATRIX
CAPACITY : 108
EDGE_WEIGHT_SECTION
0.000 151.492 737.819 185.924 201.268 106.373 234.810 760.845 132.778 178.228 207.230
135.562 0.000 649.434 166.047 276.186 226.146 203.359 672.461 67.878 111.110 162.025
712.677 644.208 0.000 713.468 853.302 786.329 511.771 155.061 640.744 658.531 562.657
175.480 182.897 735.304 0.000 282.385 262.452 339.320 758.331 226.468 77.584 304.874
194.053 274.575 860.902 275.564 0.000 172.543 357.893 883.929 255.861 280.980 330.314
126.795 225.452 778.277 256.998 182.704 0.000 271.905 801.304 206.738 260.962 267.444
211.479 202.700 519.387 327.957 352.104 289.118 0.000 542.414 169.019 273.021 70.559
769.707 701.238 153.795 770.498 910.332 843.359 568.801 0.000 697.774 715.561 619.687
97.700 66.133 624.491 191.391 238.324 187.455 139.190 647.518 0.000 136.454 97.856
169.946 111.146 660.104 56.561 285.861 265.927 273.207 683.131 154.717 0.000 233.123
192.394 161.879 571.512 287.136 333.019 270.033 82.196 594.539 128.212 232.200 0.000
NODE_COORD_SECTION
1 27567.380647 -311.862562
2 26084.418944 -1698.352224
3 22059.761677 -13788.093734
4 24775.526836 -476.976999
5 27546.013525 2543.699329
6 29008.580132 518.520036
7 27190.189009 -4196.004172
8 20832.810362 -14832.780078
9 26702.547130 -1842.116571
10 24783.328017 -979.440060
11 27016.614788 -3298.735731
DEMAND_SECTION
1 0
2 74
3 8
4 5
5 9
6 2
7 4
8 55
9 8
10 55
11 80
DEPOT_SECTION
1
-1
EOF
