NAME : poryos-tokyo-n50-hyb
COMMENT : Poryos2026 fastest metric; city tokyo; 3-decimal seconds/meters; ENU ref in poryos-tokyo-n50-hyb.vrp.json
TYPE : CVRP
DIMENSION : 51
EDGE_WEIGHT_TYPE : EXPLICIT
EDGE_WEIGHT_FORMAT : FULL_MATRIX
CAPACITY : 176
EDGE_WEIGHT_SECTION
0.000 363.703 338.711 545.949 902.354 333.796 467.430 81.312 189.510 244.627 400.485 680.531 52.758 197.367 191.040 535.973 255.498 497.550 197.962 96.033 328.200 219.550 559.090 444.365 291.487 357.186 638.564 492.431 175.701 465.825 414.736 663.401 480.201 389.461 236.235 595.868 466.056 459.376 381.340 458.062 303.083 354.531 455.499 441.560 458.263 505.279 212.102 565.035 662.245 400.947 296.569
368.415 0.000 676.574 535.894 1026.994 261.483 706.372 374.542 305.988 403.261 738.349 760.233 379.510 535.230 228.119 740.035 235.731 483.988 378.350 376.157 651.247 553.414 683.730 80.662 543.687 623.433 449.087 696.493 513.565 737.915 680.983 581.700 688.913 474.568 516.360 585.728 732.303 667.598 461.544 686.944 393.911 563.243 721.746 615.241 724.510 771.526 478.349 769.097 298.542 667.194 576.694
338.429 671.867 0.000 667.604 860.269 641.960 495.504 371.465 497.674 411.900 79.289 711.156 368.573 201.755 499.204 380.860 514.610 619.205 418.391 351.394 280.682 201.041 543.237 752.529 451.061 401.796 946.728 368.637 188.784 144.629 442.810 896.797 509.122 683.356 252.689 717.523 177.494 446.762 675.236 486.136 507.280 507.022 178.254 535.738 240.608 261.685 281.823 441.241 970.409 309.730 191.467
548.412 580.078 668.933 0.000 625.253 667.998 921.015 592.618 569.203 340.225 730.708 283.711 597.585 604.845 491.333 578.607 427.730 88.082 402.460 594.233 520.541 561.278 319.915 636.080 753.170 839.185 959.572 505.073 608.901 796.048 890.477 969.685 903.556 738.048 678.505 89.376 828.913 384.382 729.928 901.587 328.088 777.886 829.673 864.915 841.048 888.064 663.356 577.676 787.480 792.755 653.502
898.776 1017.767 855.253 646.293 0.000 1076.475 1209.876 957.852 954.267 688.609 890.711 427.944 951.534 871.550 899.810 660.937 836.728 610.852 750.843 959.468 787.246 827.983 492.980 1098.429 1121.117 1105.890 1379.005 558.057 890.413 956.051 1157.182 1386.750 1223.494 1155.113 964.669 607.604 988.916 651.087 1146.993 1200.508 707.205 1145.833 989.676 1220.344 1052.029 1073.107 952.193 530.854 1316.309 1059.460 920.208
337.090 252.324 645.250 659.623 1081.538 0.000 520.928 358.689 214.450 438.824 707.025 858.251 363.657 503.906 194.709 775.598 293.912 611.224 413.913 360.304 634.739 526.089 738.275 265.008 471.580 568.585 415.406 732.056 482.240 730.545 539.708 417.246 503.469 285.652 500.507 693.031 724.933 703.162 272.629 501.500 445.556 454.084 714.375 426.325 717.140 764.156 470.979 804.660 461.186 634.502 560.841
477.188 714.250 517.195 931.071 1223.080 528.781 0.000 456.634 487.366 659.268 518.836 1001.547 461.601 486.608 530.690 791.012 606.044 882.672 631.661 458.249 571.539 509.095 836.518 759.691 278.735 217.635 805.685 757.691 453.317 400.519 109.800 523.049 49.663 355.202 403.041 980.990 374.329 729.396 347.081 90.676 685.604 225.206 363.771 194.577 307.560 413.592 363.394 830.294 945.188 306.551 380.777
81.477 367.299 372.330 590.864 957.846 352.567 429.815 0.000 207.873 294.682 434.105 736.024 29.411 237.590 209.811 581.622 271.092 542.465 253.454 44.557 371.646 262.995 614.583 447.961 253.873 319.572 657.336 538.080 204.299 429.177 377.122 659.064 442.587 351.846 184.760 640.783 423.565 505.025 343.726 420.447 345.397 316.917 413.008 403.946 415.772 462.789 169.611 610.684 665.841 363.332 245.094
194.732 300.354 502.892 557.847 959.927 198.506 482.572 216.331 0.000 314.960 564.666 736.641 221.299 361.548 106.515 651.734 192.137 509.448 290.049 217.946 492.381 383.731 616.664 381.016 322.224 432.993 536.804 608.192 339.882 580.625 472.192 516.945 465.112 252.996 358.149 591.256 575.013 579.297 244.875 463.143 336.420 339.442 564.455 393.669 566.698 614.236 321.059 680.795 581.701 476.754 418.483
242.333 399.758 413.064 338.246 699.132 435.990 645.096 296.733 310.401 0.000 474.838 475.846 281.333 271.719 259.325 401.968 212.055 289.847 72.612 276.661 323.144 271.705 355.869 480.421 447.701 551.700 740.759 358.426 269.990 540.178 616.333 765.596 627.637 515.200 339.594 388.165 573.044 326.516 507.079 625.667 95.380 501.966 567.842 588.996 570.606 617.623 324.446 431.029 698.300 547.042 394.454
408.620 742.058 99.334 737.795 895.089 712.151 513.357 441.657 567.865 482.091 0.000 745.975 438.764 271.946 569.395 415.680 584.802 689.396 488.582 420.348 328.667 271.232 578.056 822.720 496.057 437.134 1016.919 403.457 258.976 162.482 460.663 914.650 526.975 722.456 288.026 787.714 195.347 516.953 714.336 503.988 577.471 543.076 196.107 571.076 258.460 279.538 327.107 476.060 1040.600 345.068 226.804
688.078 761.021 704.749 295.018 424.584 864.248 999.558 747.154 742.040 477.911 740.207 0.000 740.836 661.233 687.583 516.048 624.501 316.596 540.145 747.947 576.929 617.666 325.996 817.032 908.889 895.573 1140.514 432.585 680.096 805.547 946.865 1169.081 1013.177 937.443 754.352 230.499 838.412 440.770 929.323 990.190 494.978 933.605 839.172 1010.026 897.435 922.603 741.875 505.188 968.423 849.143 709.890
73.731 375.033 370.966 598.599 965.581 360.302 447.773 31.418 216.016 293.318 432.741 743.758 0.000 236.226 217.546 580.258 278.826 550.200 254.372 43.275 370.282 261.631 614.337 455.695 271.830 337.529 665.070 536.716 202.935 427.895 395.079 677.021 460.544 369.803 183.478 648.518 422.283 503.661 361.683 438.405 353.132 334.874 411.726 421.903 414.490 461.506 168.329 609.320 673.575 381.290 243.812
185.495 518.933 193.299 592.343 865.186 489.026 476.087 228.151 344.740 258.966 255.074 643.653 215.639 0.000 346.270 433.015 361.676 543.944 265.457 208.079 205.422 74.138 478.624 599.595 321.073 379.090 793.794 399.797 47.419 320.414 445.382 790.595 458.627 540.042 164.312 642.262 353.279 371.501 531.922 456.658 354.346 377.035 354.039 419.986 365.414 412.430 151.836 472.400 817.475 341.768 177.869
205.227 214.654 513.387 472.147 895.164 217.297 532.802 226.827 132.418 270.257 575.162 671.878 231.794 372.043 0.000 607.031 106.437 423.748 245.346 228.442 502.877 394.226 551.901 295.316 372.454 483.223 522.065 563.489 350.378 598.682 522.422 546.902 515.342 301.825 368.645 505.556 593.070 534.594 293.705 513.373 260.895 389.672 582.513 442.498 585.277 632.293 339.116 636.092 513.196 526.984 428.979
544.241 757.588 355.935 596.081 662.652 793.819 769.623 586.897 668.230 423.727 391.394 533.628 574.385 429.939 617.155 0.000 581.612 547.682 478.660 566.825 317.584 386.372 365.709 838.250 679.819 665.637 1098.588 176.304 448.802 456.734 716.929 1123.425 783.241 873.029 523.058 591.640 489.599 358.420 864.909 760.255 504.481 735.780 490.359 778.732 552.712 573.790 510.581 190.306 1056.130 619.207 478.599
242.663 228.665 496.137 402.447 819.321 282.975 584.564 261.326 184.180 193.039 557.912 596.034 266.294 354.793 106.310 541.400 0.000 354.048 170.138 262.941 456.555 354.778 476.057 309.327 421.878 510.217 587.744 497.858 352.630 623.252 567.767 599.033 567.105 362.790 403.144 435.855 619.087 463.930 354.670 565.136 183.339 441.435 608.530 503.463 611.294 658.310 365.133 570.461 527.207 553.978 463.478
513.380 558.746 633.900 62.028 628.146 634.719 885.983 557.585 535.924 305.192 695.675 310.538 562.553 569.812 458.054 543.574 394.451 0.000 367.427 559.200 485.508 526.245 284.882 610.603 718.137 804.152 928.660 480.473 573.868 761.015 855.444 936.406 868.523 704.769 643.472 116.204 793.881 349.349 696.649 866.554 293.056 742.853 794.641 829.882 806.015 853.031 628.324 553.076 771.432 757.722 618.470
195.602 371.854 416.661 400.869 746.161 408.086 617.191 254.678 282.497 74.596 478.436 524.338 231.861 275.317 231.421 458.872 186.335 352.470 0.000 256.293 353.124 275.302 402.897 452.516 446.353 512.052 712.854 415.330 273.154 543.776 569.602 737.691 599.732 487.295 340.891 450.789 576.641 373.609 479.175 597.763 155.296 474.062 569.139 561.091 571.903 618.920 325.743 487.933 670.396 548.339 397.617
99.090 370.383 348.144 593.949 957.459 355.652 432.900 43.040 210.958 270.496 409.821 734.172 41.758 213.404 212.896 557.436 274.176 545.550 256.539 0.000 347.460 238.809 591.515 451.046 251.495 322.657 660.420 513.894 180.113 397.715 380.207 662.148 444.940 354.931 153.297 643.868 392.103 480.839 346.811 423.532 348.482 320.002 381.545 406.299 384.310 431.326 138.149 586.498 668.925 360.745 213.631
328.455 635.517 278.241 502.247 775.090 631.986 560.512 371.111 487.701 307.321 325.578 553.557 358.599 214.154 489.230 333.728 459.542 453.848 340.238 351.039 0.000 170.587 372.566 716.179 464.034 456.526 936.754 290.186 233.016 390.918 507.818 933.555 574.130 683.002 307.273 552.166 423.783 261.891 674.882 551.144 390.001 519.995 424.543 562.947 450.356 497.372 294.796 362.790 934.059 410.096 262.811
219.514 548.474 199.914 558.224 831.067 523.045 504.691 262.170 378.759 269.788 261.689 609.534 249.658 83.586 380.289 398.896 372.498 509.825 276.279 242.098 171.303 0.000 444.505 629.136 355.092 394.813 827.813 365.678 102.449 327.029 451.997 824.614 492.646 574.061 198.331 608.143 359.894 337.382 565.940 490.677 365.168 411.054 360.654 454.005 372.029 419.045 185.855 438.281 847.016 348.383 184.484
547.627 674.831 535.681 316.148 491.265 733.539 831.595 606.704 611.331 337.460 571.139 316.874 600.385 493.270 556.874 346.980 493.792 267.917 399.695 597.179 387.324 449.703 0.000 755.493 740.433 727.609 1036.069 263.517 511.944 636.479 778.901 1043.815 845.213 812.177 583.672 339.431 669.344 251.165 804.057 822.227 364.269 796.394 670.104 839.346 729.472 753.535 571.196 336.121 973.373 681.180 541.927
445.599 101.949 753.759 605.013 1104.178 269.182 746.550 451.727 383.173 480.445 815.533 829.352 456.694 612.415 305.303 817.219 312.915 553.107 455.534 453.342 728.431 630.598 760.915 0.000 620.871 700.618 418.622 773.677 590.749 815.099 758.168 587.980 729.091 503.867 593.544 654.847 809.487 744.783 475.916 727.122 471.095 640.427 798.930 651.947 801.694 848.711 555.533 846.281 257.468 744.378 653.878
285.030 534.161 448.427 745.728 1118.892 453.869 261.622 253.062 309.219 441.474 485.580 895.606 267.249 313.687 352.543 688.541 425.956 697.329 439.907 251.121 460.948 352.297 734.150 614.823 0.000 212.563 800.067 655.323 280.395 425.748 251.242 576.130 244.163 350.743 230.120 795.647 413.036 625.156 342.623 242.194 500.261 145.752 402.479 205.522 346.268 452.300 190.473 727.926 832.703 256.323 290.454
359.506 619.785 408.277 839.348 1112.191 554.113 195.973 338.952 426.327 552.477 433.757 890.658 343.919 377.854 469.651 680.122 523.578 790.949 513.980 340.567 460.649 397.580 725.629 700.447 217.467 0.000 892.723 646.802 344.562 348.817 143.280 597.266 209.592 412.752 294.287 889.267 322.627 618.506 404.631 186.605 597.883 209.906 312.070 252.857 255.859 361.890 254.640 719.405 918.327 176.110 269.261
638.902 469.512 947.062 927.336 1383.350 420.200 791.305 660.501 549.748 740.636 1008.837 1151.675 665.469 805.718 496.521 1077.410 593.152 875.430 715.725 662.117 936.551 827.901 1040.087 418.490 806.129 899.885 0.000 1033.869 784.053 1032.357 803.881 402.720 773.845 580.265 802.319 977.170 1026.745 1004.974 553.397 771.876 747.368 791.011 1016.187 665.026 1015.669 1065.968 772.791 1106.472 324.536 960.658 862.653
503.628 703.685 366.627 521.961 551.195 739.916 753.988 549.172 614.327 369.824 402.086 440.291 533.772 415.662 563.251 160.849 527.709 473.562 424.757 529.100 309.716 372.095 272.372 784.347 665.542 650.002 1044.685 0.000 434.525 467.426 701.294 1069.522 767.606 819.126 508.781 498.302 500.291 304.517 811.005 744.620 450.577 721.504 501.051 764.455 563.404 584.482 496.305 72.603 1002.226 603.572 464.319
176.453 509.892 188.517 608.139 897.923 479.984 439.388 204.779 335.699 269.893 250.292 676.390 203.497 36.589 337.228 465.752 372.022 559.740 275.802 184.707 238.159 107.762 511.361 590.554 284.375 342.391 784.753 432.534 0.000 315.632 409.212 753.896 421.929 516.670 127.614 658.059 348.497 402.367 508.550 419.960 365.273 340.336 349.257 383.288 360.632 407.648 115.137 505.137 808.434 336.986 159.014
464.887 746.530 155.601 794.062 951.356 731.798 387.404 428.938 572.171 538.358 157.243 802.243 427.655 328.214 589.042 471.947 641.069 745.663 544.849 401.654 384.934 327.500 634.324 827.192 428.713 332.818 1036.567 459.724 315.243 0.000 334.711 788.698 401.023 655.112 279.830 843.982 69.395 573.220 646.992 378.036 633.738 475.732 70.155 500.032 132.508 151.319 284.757 532.328 1045.072 228.473 218.608
442.458 702.736 482.465 915.507 1188.350 519.863 110.330 421.903 484.933 643.596 484.106 966.816 426.871 470.210 529.599 756.281 604.954 867.108 596.931 423.518 536.808 474.365 801.788 750.773 277.644 182.905 797.080 722.961 436.918 365.789 0.000 469.425 83.035 346.284 376.862 965.426 339.598 694.665 338.164 58.764 680.834 224.116 329.041 181.780 272.830 378.862 346.996 795.564 936.583 271.821 346.046
643.878 604.020 905.021 966.411 1388.326 423.339 510.856 664.673 508.009 745.613 907.813 1165.040 670.445 786.863 501.497 1082.387 600.701 918.012 720.701 664.411 934.124 825.474 1045.063 589.014 578.990 606.612 404.408 1038.845 753.571 789.496 484.750 0.000 483.560 361.777 703.296 999.820 763.306 1009.950 425.498 459.289 752.344 525.461 752.748 397.526 696.537 802.569 663.649 1111.448 607.789 695.528 763.630
454.224 684.548 494.231 901.370 1200.116 499.079 38.737 433.669 457.665 629.566 495.872 978.583 438.637 456.907 500.988 768.047 576.343 852.971 604.655 435.285 548.574 486.131 813.554 729.989 249.033 194.671 775.984 734.727 423.615 377.555 80.970 484.828 0.000 325.500 373.340 951.289 351.364 706.431 317.380 52.455 655.903 195.505 340.807 164.876 284.596 390.628 333.693 807.330 915.487 283.587 357.812
389.374 468.390 684.918 734.080 1157.097 280.706 343.011 357.407 245.775 526.752 711.367 933.810 371.593 550.177 298.159 863.526 370.507 685.681 501.841 357.145 684.233 575.583 813.834 502.746 365.589 423.833 579.473 819.984 516.886 651.535 361.790 342.837 325.551 0.000 475.303 767.489 630.364 791.089 70.473 323.582 524.965 314.959 619.806 233.349 563.595 669.627 435.656 892.587 693.560 518.998 535.637
251.967 527.994 270.201 683.652 973.436 513.263 419.773 200.650 368.568 345.406 295.681 751.903 199.368 166.411 370.507 541.265 431.787 635.253 351.315 173.367 313.672 205.022 586.874 608.656 264.760 320.745 818.031 508.047 133.119 294.504 377.930 734.281 402.314 505.682 0.000 733.572 305.673 477.880 497.561 400.345 440.786 320.721 295.116 363.673 297.880 344.896 95.522 580.650 826.536 274.316 99.492
585.479 630.846 706.000 103.571 611.244 706.818 958.082 629.685 608.023 377.292 767.774 240.580 634.652 641.912 530.154 574.528 466.550 125.149 439.526 631.300 557.608 598.345 341.171 682.702 790.237 876.252 1000.760 491.065 645.968 833.114 927.544 1008.506 940.623 776.868 715.572 0.000 865.980 421.448 768.748 938.654 365.155 814.953 866.740 901.982 878.114 925.131 700.423 563.668 840.043 829.822 690.569
472.789 742.953 187.214 825.675 982.969 728.222 363.460 425.361 568.595 569.971 188.856 833.856 424.079 359.827 585.466 503.560 646.746 777.276 576.462 398.078 416.547 359.113 665.937 823.615 417.924 308.873 1032.990 491.337 346.856 70.538 310.766 764.753 377.078 636.712 284.875 875.595 0.000 604.833 628.591 354.092 665.351 460.370 46.210 476.087 108.564 142.709 281.181 563.941 1041.495 204.528 250.221
481.009 660.494 466.659 380.187 653.030 719.201 740.897 526.553 596.343 320.000 528.434 431.497 511.153 402.571 542.536 354.692 479.455 331.788 382.234 506.481 296.626 359.004 250.506 741.156 649.735 636.911 1021.731 311.150 421.246 593.774 688.203 1029.477 754.515 797.840 492.974 430.106 626.640 0.000 789.720 731.529 349.931 705.696 627.400 748.648 638.774 685.790 480.497 383.753 959.036 590.481 451.229
381.254 455.793 676.797 725.960 1148.977 268.109 334.890 349.286 237.655 518.631 703.246 925.690 363.473 542.057 290.038 855.405 362.387 677.560 493.720 349.024 676.113 567.462 805.713 475.787 357.469 415.713 552.513 811.864 508.766 643.414 353.670 406.557 317.431 70.473 467.183 759.368 622.243 782.969 0.000 315.462 516.845 306.839 611.686 240.287 555.475 661.507 427.536 884.467 666.601 510.877 527.517
455.871 682.579 495.879 899.400 1201.764 497.110 77.360 435.317 455.695 627.597 497.520 980.230 440.284 454.937 499.019 769.695 574.374 851.001 602.686 436.932 550.222 487.779 815.202 728.020 247.064 196.318 774.015 736.374 421.646 379.203 74.456 460.557 50.065 323.531 371.371 949.320 353.012 708.079 315.411 0.000 653.934 193.536 342.455 162.907 286.244 392.276 331.723 808.978 913.518 285.235 359.460
303.008 310.563 556.482 298.746 754.316 377.859 659.389 330.992 279.063 195.322 618.257 516.975 335.959 415.138 201.194 573.295 137.591 250.347 186.229 332.607 495.594 415.123 411.053 391.225 491.544 579.883 671.800 529.753 412.975 683.597 637.433 679.546 641.930 447.909 472.810 332.155 688.753 436.539 439.788 639.960 0.000 516.260 678.195 588.582 680.959 727.976 434.799 602.356 609.104 623.643 533.143
360.521 563.309 510.886 780.130 1153.295 456.198 212.337 328.554 336.425 508.327 536.366 930.008 342.740 378.506 379.749 753.360 455.104 731.731 483.416 328.292 525.767 417.117 798.969 643.971 170.633 225.978 796.102 720.142 345.215 476.534 239.180 526.845 194.877 316.131 294.939 830.050 455.363 689.975 308.011 192.908 534.663 0.000 444.806 156.236 388.595 494.626 255.292 792.746 861.851 321.143 355.273
463.064 733.228 191.426 829.887 987.181 718.496 353.734 415.636 558.869 569.293 193.067 838.067 414.353 364.038 575.740 507.771 637.021 781.488 573.592 388.352 420.759 363.324 670.148 813.890 408.198 299.148 1023.265 495.549 351.067 74.750 301.041 755.028 367.353 626.986 275.150 879.806 48.559 609.045 618.866 344.366 664.673 450.645 0.000 466.362 98.838 105.223 271.455 568.152 1031.770 194.803 244.334
441.904 608.036 535.209 861.513 1224.076 420.351 183.700 409.937 385.421 589.710 560.689 1002.542 424.123 417.050 437.805 791.905 510.153 813.114 564.799 409.675 564.312 455.661 837.514 651.262 209.177 264.523 667.579 758.686 383.759 500.857 197.323 398.322 166.241 233.584 333.484 907.134 475.879 728.519 238.652 164.271 616.047 155.649 465.322 0.000 409.111 515.143 293.836 831.290 807.082 359.687 393.818
462.112 732.276 253.226 838.264 1048.981 717.545 294.887 414.684 557.918 568.342 254.867 889.574 413.402 372.416 574.789 569.572 636.069 789.865 572.640 387.401 451.343 371.702 724.545 812.939 349.350 240.300 1018.622 557.349 359.445 136.550 242.193 696.180 308.505 568.139 274.198 888.184 110.360 617.422 560.018 285.519 663.722 391.797 99.802 407.514 0.000 146.392 270.504 629.952 1030.818 135.955 243.383
504.234 774.398 272.827 880.386 1068.582 759.667 394.934 456.806 600.040 610.463 274.469 919.469 455.524 414.537 616.911 589.173 678.191 831.987 614.762 429.523 493.465 413.823 751.550 855.060 449.398 340.348 1064.435 576.950 401.566 137.566 342.241 796.227 408.553 668.186 316.320 930.305 136.604 659.544 660.066 385.566 705.843 491.845 109.262 507.562 139.524 0.000 312.626 649.554 1072.940 236.003 285.505
228.960 499.124 288.285 668.634 960.570 484.393 359.937 176.730 324.766 330.388 326.501 739.036 175.448 153.544 341.637 528.399 402.917 620.235 334.686 149.447 300.806 192.155 574.008 579.786 204.924 262.940 789.161 495.180 120.253 281.461 329.762 674.446 342.478 445.846 69.978 718.553 275.849 465.013 437.725 340.509 425.768 260.885 265.292 303.837 268.056 315.072 0.000 567.784 797.666 244.492 130.312
578.104 778.161 441.104 596.438 501.043 814.392 828.464 623.648 688.803 444.300 476.562 483.860 608.249 490.138 637.728 200.593 602.185 548.038 499.233 603.576 384.192 446.571 346.848 858.823 740.018 724.478 1119.161 101.002 509.001 541.902 775.770 1143.998 842.082 893.602 583.257 572.779 574.767 378.993 885.482 819.096 525.054 795.980 575.527 838.931 637.881 658.958 570.781 0.000 1076.703 678.048 538.796
664.120 320.470 972.280 756.809 1284.415 454.876 921.841 670.248 583.539 698.967 1034.055 981.148 675.215 830.936 522.473 1035.741 531.436 704.903 674.056 671.863 946.953 849.120 941.152 258.112 832.081 919.139 317.709 992.199 809.271 1033.621 934.417 594.833 904.381 684.493 812.066 806.643 1028.009 963.304 656.542 902.412 689.617 849.299 1017.452 795.562 1020.216 1067.232 774.055 1064.803 0.000 962.900 872.400
401.548 661.826 336.904 790.957 1063.800 631.336 309.560 380.994 468.369 545.829 346.168 842.266 385.961 349.903 511.693 631.731 565.619 742.558 550.127 364.888 412.258 349.189 677.238 742.489 259.509 168.380 939.305 598.411 336.932 237.761 256.866 704.232 323.178 485.004 251.685 840.876 211.571 570.115 476.884 300.192 639.925 305.624 201.014 333.624 144.803 250.834 247.991 671.014 960.368 0.000 220.870
299.829 572.323 194.862 650.727 923.570 557.592 377.422 244.980 412.898 393.268 220.342 702.037 243.697 181.461 414.836 491.408 476.116 602.328 399.177 217.696 263.806 184.164 537.008 652.985 293.693 267.544 862.360 458.181 159.205 219.165 324.729 763.214 391.040 534.614 85.374 700.646 252.031 429.885 526.494 368.054 488.648 349.654 241.996 392.606 244.760 291.776 124.455 530.784 870.865 221.115 0.000
NODE_COORD_SECTION
1 -2164.012052 1974.697434
2 5007.817556 -790.295071
3 -9493.429751 2515.784382
4 -2183.797196 -8806.190058
5 -11613.810627 -11918.232370
6 4257.367499 3608.566605
7 -3848.583265 9383.949179
8 -2163.273826 2813.582744
9 758.414441 2985.895695
10 -2483.927376 -1683.507400
11 -10483.710767 2953.676592
12 -5408.370924 -11290.144866
13 -2192.006837 2598.295677
14 -5745.971906 2030.069750
15 1159.327904 1390.895331
16 -10903.314302 -3175.987567
17 668.543719 -444.319388
18 -1886.630662 -8003.756679
19 -2119.974564 -626.720394
20 -2434.182328 2973.226105
21 -7416.966198 -661.859776
22 -6052.352382 1422.903389
23 -6016.507137 -6359.260093
24 6339.699119 -717.392652
25 -3273.432567 6212.602001
26 -5485.485340 7991.499355
27 11004.712881 4733.748758
28 -9904.412901 -5140.457897
29 -5555.331891 2247.328488
30 -10154.261209 5100.748402
31 -4254.492443 9810.843124
32 6299.510121 10924.721953
33 -3847.306623 9554.163903
34 1746.931391 7685.941077
35 -5469.445405 3959.443785
36 -2907.485856 -9363.136689
37 -9568.253409 5595.141455
38 -5164.148289 -4003.027769
39 1545.312735 6916.336728
40 -3601.191902 9759.581773
41 -588.223058 -2660.695202
42 -2325.630617 7142.265038
43 -9768.518093 6036.823113
44 -1684.688950 9461.087706
45 -8802.870779 6925.155699
46 -10899.861528 6510.325917
47 -4845.652609 4144.884934
48 -11240.948227 -5895.485973
49 10826.490901 -601.211246
50 -6783.566305 7024.197839
51 -6846.105354 3661.998566
DEMAND_SECTION
1 0
2 6
3 8
4 10
5 8
6 5
7 6
8 5
9 4
10 3
11 9
12 3
13 4
14 6
15 84
16 6
17 81
18 7
19 8
20 1
21 2
22 10
23 1
24 7
25 85
26 10
27 5
28 9
29 9
30 1
31 6
32 61
33 5
34 84
35 8
36 1
37 7
38 6
39 3
40 4
41 62
42 10
43 9
44 1
45 7
46 8
47 1
48 1
49 6
50 10
51 9
DEPOT_SECTION
1
-1
EOF
