NAME : mamut-tokyo-n10-hyb
COMMENT : Mamut2026 fastest metric; city tokyo; 3-decimal seconds/meters; ENU ref in mamut-tokyo-n10-hyb.vrp.json
TYPE : CVRP
DIMENSION : 11
EDGE_WEIGHT_TYPE : EXPLICIT
EDGE_WEIGHT_FORMAT : FULL_MATRIX
CAPACITY : 186
EDGE_WEIGHT_SECTION
0.000 264.005 248.690 814.254 235.484 316.687 494.381 563.264 308.466 414.549 533.563
257.123 0.000 278.394 969.946 396.014 494.459 564.973 697.753 331.553 414.605 494.179
249.180 274.361 0.000 868.674 287.167 328.822 333.165 452.320 524.305 620.562 350.914
870.354 1022.464 938.450 0.000 708.664 651.065 919.434 747.711 1035.258 1215.749 934.211
241.642 410.452 295.928 638.499 0.000 168.536 438.186 480.262 434.721 615.212 483.644
337.971 513.847 350.007 610.219 194.336 0.000 393.600 330.636 591.541 721.969 485.725
494.384 562.460 332.926 866.266 427.519 363.736 0.000 293.924 772.299 878.383 220.385
564.229 690.812 451.300 691.122 482.501 317.461 294.133 0.000 842.144 948.227 341.789
315.066 349.329 528.843 983.794 438.937 570.610 779.182 848.066 0.000 340.691 816.655
409.885 421.201 614.042 1155.957 611.099 696.307 874.000 942.884 332.404 0.000 855.253
536.197 495.452 351.011 882.292 469.332 465.000 230.737 343.916 814.112 861.823 0.000
NODE_COORD_SECTION
1 -2164.012052 1974.697434
2 -4680.138607 5780.644035
3 -84.613382 5286.066811
4 10665.173851 -4705.677706
5 1115.451785 -27.978974
6 4499.241187 1350.095319
7 4065.707000 8043.306447
8 7574.122157 5515.839169
9 -6770.409192 -1129.298533
10 -11008.752319 2634.931378
11 3190.549112 10355.017816
DEMAND_SECTION
1 0
2 2
3 2
4 100
5 5
6 6
7 2
8 3
9 3
10 2
11 6
DEPOT_SECTION
1
-1
EOF
