NAME : poryos-tokyo-n25-poi
COMMENT : Poryos2026 euclidean metric; city tokyo; 3-decimal seconds/meters; ENU ref in poryos-tokyo-n25-poi.vrp.json
TYPE : CVRP
DIMENSION : 26
EDGE_WEIGHT_TYPE : EXPLICIT
EDGE_WEIGHT_FORMAT : FULL_MATRIX
CAPACITY : 125
EDGE_WEIGHT_SECTION
0.000 7612.425 2840.623 2081.087 11154.714 9527.171 6865.311 4489.064 2489.661 6197.667 8416.215 3114.066 8197.475 3023.713 9814.090 2016.188 11703.921 3046.667 2666.706 14237.393 10708.732 781.055 3056.855 4639.494 12403.707 3382.110
7612.425 0.000 9131.567 6428.549 17362.877 5827.955 5089.225 9116.643 6541.452 11901.512 5366.214 7735.529 5301.313 10634.729 17299.578 9455.310 5836.810 10640.452 6223.622 21839.774 18315.202 8191.512 4949.877 12222.955 13494.089 10989.742
2840.623 9131.567 0.000 2723.594 8560.045 12097.608 9507.082 7124.856 2601.149 8245.256 11012.291 1719.077 10799.515 3122.549 9745.114 1814.736 11956.656 2896.627 2926.267 13530.248 10061.251 3197.889 5484.454 4746.244 15169.259 3268.375
2081.087 6428.549 2723.594 0.000 11201.000 9620.039 7151.183 6274.241 496.551 8240.428 8574.349 1739.892 8371.232 4631.485 11586.703 3241.218 9824.046 4548.149 586.995 15778.822 12254.545 2860.380 3113.033 6367.504 13822.224 4938.101
11154.714 17362.877 8560.045 11201.000 0.000 20634.748 18005.602 14513.222 10947.963 14240.158 19537.539 9659.002 19321.697 9195.723 10458.049 9266.593 18618.116 8951.418 11238.503 10919.978 8977.951 11175.998 14030.643 9193.805 22441.689 8923.200
9527.171 5827.955 12097.608 9620.039 20634.748 0.000 2696.248 7981.396 9989.620 10518.795 1121.913 11337.210 1343.645 12113.290 17409.191 11513.471 11276.303 12256.341 9770.994 22295.725 18978.900 9669.596 6613.257 13186.548 8511.076 12474.146
6865.311 5089.225 9507.082 7151.183 18005.602 2696.248 0.000 5530.025 7561.467 8230.937 1574.351 8889.659 1352.607 9417.232 14876.515 8835.678 10924.189 9560.269 7379.230 19736.049 16373.285 6979.097 4058.200 10514.495 8419.933 9778.387
4489.064 9116.643 7124.856 6274.241 14513.222 7981.396 5530.025 0.000 6759.497 2814.147 6941.182 7595.345 6737.429 5318.067 9434.480 5584.222 14462.680 5568.343 6824.863 14331.493 11082.786 3940.406 4537.109 5725.535 8099.972 5595.028
2489.661 6541.452 2601.149 496.551 10947.963 9989.620 7561.467 6759.497 0.000 8678.809 8958.730 1349.644 8758.953 4834.250 11788.560 3400.803 9634.686 4724.263 327.539 15889.907 12375.658 3258.505 3549.857 6580.732 14316.614 5120.216
6197.667 11901.512 8245.256 8240.428 14240.158 10518.795 8230.937 2814.147 8678.809 0.000 9543.308 9195.697 9352.776 5546.555 7234.280 6455.535 17117.111 5835.181 8825.263 12113.703 9134.843 5456.590 7169.823 5048.078 8406.425 5667.685
8416.215 5366.214 11012.291 8574.349 19537.539 1121.913 1574.351 6941.182 8958.730 9543.308 0.000 10301.842 221.750 10991.508 16350.548 10397.568 11046.972 11134.450 8752.261 21227.970 17892.612 8549.357 5532.482 12074.006 8372.987 11352.504
3114.066 7735.529 1719.077 1739.892 9659.002 11337.210 8889.659 7595.345 1349.644 9195.697 10301.842 0.000 10100.675 4611.870 11415.735 3164.671 10242.784 4431.063 1601.312 15249.159 11779.030 3771.079 4852.013 6321.465 15388.176 4823.844
8197.475 5301.313 10799.515 8371.232 19321.697 1343.645 1352.607 6737.429 8758.953 9352.776 221.750 10100.675 0.000 10769.759 16141.270 10177.526 11017.667 10912.748 8555.376 21016.634 17677.648 8328.197 5321.839 11853.916 8360.177 11130.763
3023.713 10634.729 3122.549 4631.485 9195.723 12113.290 9417.232 5318.067 4834.250 5546.555 10991.508 4611.870 10769.759 0.000 6958.015 1461.921 14452.686 288.648 5124.605 11232.741 7701.243 2545.744 5977.939 1747.423 13321.465 369.329
9814.090 17299.578 9745.114 11586.703 10458.049 17409.191 14876.515 9434.480 11788.560 7234.280 16350.548 11415.735 16141.270 6958.015 0.000 8391.725 21410.103 7066.915 12081.999 4906.496 2157.182 9146.990 12390.070 5219.874 15145.055 6669.638
2016.188 9455.310 1814.736 3241.218 9266.593 11513.471 8835.678 5584.222 3400.803 6455.535 10397.568 3164.671 10177.526 1461.921 8391.725 0.000 13034.383 1324.822 3701.575 12541.761 9015.138 1909.410 5070.523 3202.917 13683.591 1722.290
11703.921 5836.810 11956.656 9824.046 18618.116 11276.303 10924.189 14462.680 9634.686 17117.111 11046.972 10242.784 11017.667 14452.686 21410.103 13034.383 0.000 14355.791 9333.361 25476.492 21982.364 12446.645 9951.568 16191.485 19311.492 14750.116
3046.667 10640.452 2896.627 4548.149 8951.418 12256.341 9560.269 5568.343 4724.263 5835.181 11134.450 4431.063 10912.748 288.648 7066.915 1324.822 14355.791 0.000 5022.448 11263.628 7732.583 2633.465 6046.688 1892.594 13589.247 398.348
2666.706 6223.622 2926.267 586.995 11238.503 9770.994 7379.230 6824.863 327.539 8825.263 8752.261 1601.312 8555.376 5124.605 12081.999 3701.575 9333.361 5022.448 0.000 16205.865 12689.458 3444.988 3408.071 6868.949 14281.034 5417.076
14237.393 21839.774 13530.248 15778.822 10919.978 22295.725 19736.049 14331.493 15889.907 12113.703 21227.970 15249.159 21016.634 11232.741 4906.496 12541.761 25476.492 11263.628 16205.865 0.000 3531.721 13652.329 17021.825 9618.882 19744.038 10891.302
10708.732 18315.202 10061.251 12254.545 8977.951 18978.900 16373.285 11082.786 12375.658 9134.843 17892.612 11779.030 17677.648 7701.243 2157.182 9015.138 21982.364 7732.583 12689.458 3531.721 0.000 10133.364 13520.617 6102.319 17225.007 7359.611
781.055 8191.512 3197.889 2860.380 11175.998 9669.596 6979.097 3940.406 3258.505 5456.590 8549.357 3771.079 8328.197 2545.744 9146.990 1909.410 12446.645 2633.465 3444.988 13652.329 10133.364 0.000 3435.413 4033.452 11972.442 2914.874
3056.855 4949.877 5484.454 3113.033 14030.643 6613.257 4058.200 4537.109 3549.857 7169.823 5532.482 4852.013 5321.839 5977.939 12390.070 5070.523 9951.568 6046.688 3408.071 17021.825 13520.617 3435.413 0.000 7423.729 11080.738 6346.335
4639.494 12222.955 4746.244 6367.504 9193.805 13186.548 10514.495 5725.535 6580.732 5048.078 12074.006 6321.465 11853.916 1747.423 5219.874 3202.917 16191.485 1892.594 6868.949 9618.882 6102.319 4033.452 7423.729 0.000 13313.165 1497.704
12403.707 13494.089 15169.259 13822.224 22441.689 8511.076 8419.933 8099.972 14316.614 8406.425 8372.987 15388.176 8360.177 13321.465 15145.055 13683.591 19311.492 13589.247 14281.034 19744.038 17225.007 11972.442 11080.738 13313.165 0.000 13555.873
3382.110 10989.742 3268.375 4938.101 8923.200 12474.146 9778.387 5595.028 5120.216 5667.685 11352.504 4823.844 11130.763 369.329 6669.638 1722.290 14750.116 398.348 5417.076 10891.302 7359.611 2914.874 6346.335 1497.704 13555.873 0.000
NODE_COORD_SECTION
1 -2164.012052 1974.697434
2 -8708.413453 -1913.724102
3 145.521853 320.855216
4 -2549.836077 -70.311558
5 8622.843196 -866.323896
6 -11620.308060 3134.634601
7 -8924.304114 3170.919249
8 -4167.809643 5991.723045
9 -2319.323552 -510.114592
10 -2384.197296 8168.451755
11 -10498.444188 3145.133306
12 -1035.962287 -927.872429
13 -10276.754181 3150.288826
14 489.515740 3424.398505
15 4815.586488 8874.085730
16 -152.434563 2110.963517
17 -8675.802706 -7750.442605
18 635.963845 3175.660997
19 -2613.650680 -653.827968
20 9588.576464 10010.867079
21 6747.086473 7913.490335
22 -1959.248072 2728.434128
23 -5194.258738 1572.247549
24 1449.630687 4884.420784
25 -10098.574996 11508.566481
26 848.103618 3512.822201
DEMAND_SECTION
1 0
2 8
3 82
4 3
5 53
6 3
7 10
8 67
9 7
10 3
11 4
12 9
13 4
14 5
15 80
16 3
17 5
18 1
19 8
20 5
21 7
22 6
23 79
24 3
25 6
26 5
DEPOT_SECTION
1
-1
EOF
