NAME : poryos-san_francisco-n50-poi
COMMENT : Poryos2026 euclidean metric; city san_francisco; 3-decimal seconds/meters; ENU ref in poryos-san_francisco-n50-poi.vrp.json
TYPE : CVRP
DIMENSION : 51
EDGE_WEIGHT_TYPE : EXPLICIT
EDGE_WEIGHT_FORMAT : FULL_MATRIX
CAPACITY : 176
EDGE_WEIGHT_SECTION
0.000 974.024 1446.916 892.945 1561.248 12752.229 3285.008 13060.667 8184.129 5181.228 18606.952 4398.317 2275.823 4985.762 831.276 6029.786 654.907 15637.911 2205.113 11100.116 3646.853 2078.579 971.261 2367.047 2200.093 17116.417 10304.156 2001.594 2073.319 871.896 1773.244 350.819 920.766 2325.901 1994.680 448.827 4344.621 4466.035 15690.171 13650.254 2140.200 14556.809 2913.550 1924.973 722.336 11391.107 616.869 12811.481 14530.104 18936.622 6759.527
974.024 0.000 2315.626 434.634 765.878 13490.641 3892.827 12148.984 9102.424 6071.688 18691.241 5275.098 3249.071 5958.635 950.959 6400.917 807.589 16097.669 1233.065 11875.964 4442.401 2835.111 660.659 1432.862 1841.577 17112.530 11086.246 1363.835 1257.878 1838.230 1150.504 1145.947 565.061 3068.484 2790.412 906.803 5232.427 5353.918 14792.414 14378.499 1166.819 13616.192 2782.068 2652.833 525.116 12159.361 1270.015 11838.814 13621.834 19042.289 7691.676
1446.916 2315.626 0.000 2334.287 2992.753 11319.262 2035.630 14464.498 6789.437 4645.591 19394.761 3959.071 1296.308 3940.669 1570.469 4955.291 2072.413 14386.672 3517.753 9657.421 2208.428 732.107 1948.491 3748.456 3586.487 18014.090 8860.490 3447.471 3072.675 742.395 3219.628 1568.750 2367.682 971.603 597.056 1418.441 3867.135 3980.082 17105.723 12220.442 3416.888 15923.622 4150.617 2308.277 2168.709 9950.007 1764.241 14063.061 15937.087 19696.736 5388.709
892.945 434.634 2334.287 0.000 672.118 13614.235 4074.559 12174.118 9072.828 5768.802 18276.596 4965.490 3114.049 5779.604 1214.226 6687.538 449.561 16360.521 1433.534 11974.304 4521.460 2932.111 1019.825 1514.818 1489.464 16711.201 11180.003 1137.846 1667.804 1747.691 908.479 925.899 130.878 3175.288 2863.146 1030.001 4930.776 5051.790 14799.946 14508.714 1415.349 13684.379 2383.278 2296.904 186.763 12262.989 966.207 11998.284 13642.370 18624.899 7643.909
1561.248 765.878 2992.753 672.118 0.000 14236.606 4653.581 11502.103 9744.212 6316.354 18144.885 5508.192 3779.316 6425.156 1716.663 7154.856 1067.152 16857.287 917.042 12610.226 5163.212 3562.789 1410.717 876.743 1231.014 16520.977 11818.038 626.074 1546.311 2419.806 450.136 1586.301 684.482 3801.616 3504.654 1631.796 5483.456 5603.311 14129.125 15127.168 968.818 13014.553 2242.718 2801.142 854.919 12896.267 1582.818 11357.900 12970.560 18507.632 8315.990
12752.229 13490.641 11319.262 13614.235 14236.606 0.000 9629.817 25327.255 5952.190 11840.755 28375.181 12026.882 11087.449 9889.638 12561.343 8087.583 13390.576 5961.357 14524.195 1797.925 9110.925 10682.185 12926.276 14859.537 14897.489 27543.962 2571.638 14748.131 13697.373 12018.556 14518.550 12884.517 13665.541 10439.224 10757.647 12605.144 11901.184 11893.292 28015.565 918.701 14376.982 26526.144 15334.375 12984.368 13463.717 1474.553 13057.413 24082.351 26799.328 28533.974 7136.284
3285.008 3892.827 2035.630 4074.559 4653.581 9629.817 0.000 15781.985 5909.986 5825.515 21360.415 5313.148 2720.229 4435.042 2947.891 2953.175 3939.431 12373.013 4894.647 8066.946 1159.820 1304.463 3302.367 5232.328 5484.469 20019.327 7292.811 5208.807 4104.124 2768.594 4980.790 3507.677 4147.203 1077.425 1455.713 3044.766 5192.683 5283.811 18459.587 10507.905 4748.862 17099.518 6146.844 4297.344 3947.574 8337.380 3740.634 14946.073 17258.760 21650.364 4725.631
13060.667 12148.984 14464.498 12174.118 11502.103 25327.255 15781.985 0.000 21244.379 17079.225 19488.256 16320.200 15250.453 17760.022 12983.210 17434.481 12533.282 26667.854 10972.430 23836.836 16541.618 14942.269 12596.333 10716.127 11358.216 17268.743 23070.794 11169.378 11678.073 13921.664 11375.275 13070.518 12172.332 15158.216 14919.707 13051.305 16351.006 16453.471 2690.470 26169.991 11095.247 1965.938 11532.799 13826.326 12355.156 24097.781 13008.619 3818.025 1477.071 20012.176 19817.936
8184.129 9102.424 6789.437 9072.828 9744.212 5952.190 5909.986 21244.379 0.000 5961.438 22423.289 6255.598 6058.143 4131.632 8318.306 6445.671 8730.126 11124.687 10305.250 4183.908 4877.547 6387.046 8706.472 10533.758 10058.546 21607.886 3518.646 10116.202 9751.717 7327.349 9899.885 8191.017 9080.368 6201.967 6379.405 8207.700 6141.012 6112.581 23872.352 6833.136 10198.702 22711.851 10238.157 7777.557 8893.569 4501.659 8281.199 20758.549 22714.223 22584.509 1462.892
5181.228 6071.688 4645.591 5768.802 6316.354 11840.755 5825.515 17079.225 5961.438 0.000 16679.062 809.205 3368.348 2032.384 5866.582 8468.142 5319.278 16422.275 7193.383 10044.644 4943.491 4981.945 6129.160 7182.858 5904.588 15724.758 9300.925 6333.869 7254.244 4510.083 6197.990 4931.838 5690.587 5043.675 4826.265 5523.078 839.263 717.802 19533.327 12742.775 7184.145 18798.119 5551.517 3521.996 5598.677 10367.998 4811.037 17526.902 18484.239 16883.620 4708.489
18606.952 18691.241 19394.761 18276.596 18144.885 28375.181 21360.415 19488.256 22423.289 16679.062 0.000 16703.144 18716.455 18708.790 19371.909 24313.326 18096.278 33081.126 18765.555 26602.075 20957.680 20091.723 19284.578 18377.035 16914.338 2230.902 25897.717 17566.561 19675.266 18733.321 17697.406 18272.141 18148.704 20294.350 19926.618 19032.990 16839.514 16809.367 20140.913 29249.309 18914.370 21309.429 15918.544 17086.881 18274.228 26921.956 18000.131 22694.639 19982.028 536.792 21333.040
4398.317 5275.098 3959.071 4965.490 5508.192 12026.882 5313.148 16320.200 6255.598 809.205 16703.144 0.000 2720.120 2142.248 5104.929 8072.748 4516.160 16381.189 6387.638 10229.598 4535.862 4362.614 5354.274 6374.000 5104.923 15649.272 9464.044 5525.897 6468.832 3760.277 5389.010 4139.341 4885.517 4451.398 4199.635 4753.147 136.867 149.813 18792.653 12938.148 6380.587 18024.783 4787.402 2712.811 4796.912 10552.659 4010.830 16724.433 17732.625 16931.341 4908.211
2275.823 3249.071 1296.308 3114.049 3779.316 11087.449 2720.229 15250.453 6058.143 3368.348 18716.455 2720.120 0.000 2731.127 2725.074 5633.963 2723.643 14657.790 4480.936 9353.980 2273.990 1645.928 3063.531 4625.371 4001.436 17446.732 8552.400 4083.305 4224.078 1416.767 3875.216 2193.236 3096.480 1755.531 1480.745 2460.841 2617.394 2725.099 17852.890 12002.759 4412.960 16790.915 4270.063 1909.241 2927.853 9662.060 2242.298 15087.295 16712.148 18992.595 4603.509
4985.762 5958.635 3940.669 5779.604 6425.156 9889.638 4435.042 17760.022 4131.632 2032.384 18708.790 2142.248 2731.127 0.000 5449.790 6746.736 5358.114 14390.179 7183.116 8091.851 3367.389 3978.668 5793.974 7292.439 6402.211 17728.443 7331.073 6636.245 6953.569 4143.063 6449.568 4855.219 5742.813 3943.451 3865.059 5191.877 2020.945 2005.416 20313.536 10799.454 7125.443 19368.183 6367.987 3948.929 5593.246 8415.121 4844.664 17777.879 19205.170 18915.456 2765.983
831.276 950.959 1570.469 1214.226 1716.663 12561.343 2947.891 12983.210 8318.306 5866.582 19371.909 5104.929 2725.074 5449.790 0.000 5475.773 1279.351 15159.548 2011.462 10962.041 3561.689 1959.064 388.714 2306.597 2702.450 17848.901 10175.958 2302.403 1509.568 1365.158 2081.319 1180.592 1319.041 2177.810 1943.415 386.122 5039.536 5159.812 15641.323 13445.715 1889.733 14400.260 3555.261 2742.560 1146.724 11241.905 1438.538 12495.083 14459.013 19708.544 6938.167
6029.786 6400.917 4955.291 6687.538 7154.856 8087.583 2953.175 17434.481 6445.671 8468.142 24313.326 8072.748 5633.963 6746.736 5475.773 0.000 6660.397 9713.443 7121.144 6889.611 3538.025 4237.095 5744.866 7523.694 8168.452 22965.840 6252.235 7764.736 6144.478 5663.553 7549.503 6306.791 6785.515 4024.201 4397.413 5694.366 7943.286 8019.553 20122.910 8861.713 6952.005 18524.452 8943.156 7244.936 6599.998 7080.863 6561.938 16002.468 18892.226 24601.922 5822.872
654.907 807.589 2072.413 449.561 1067.152 13390.576 3939.431 12533.282 8730.126 5319.278 18096.278 4516.160 2723.643 5358.114 1279.351 6660.397 0.000 16286.624 1880.927 11729.056 4280.443 2728.031 1218.327 1936.961 1545.244 16569.685 10931.572 1392.936 2065.171 1413.684 1171.553 539.110 386.283 2976.103 2637.463 976.370 4481.219 4602.239 15146.560 14290.586 1864.895 14067.584 2296.328 1855.875 287.625 12022.197 521.557 12423.097 13997.849 18435.377 7291.127
15637.911 16097.669 14386.672 16360.521 16857.287 5961.357 12373.013 26667.854 11124.687 16422.275 33081.126 16381.189 14657.790 14390.179 15159.548 9713.443 16286.624 0.000 16828.292 7236.148 12394.050 13658.097 15446.707 17234.490 17821.873 31995.223 7692.728 17459.880 15837.708 15128.184 17240.601 15877.968 16450.468 13415.199 13790.975 15344.958 16245.208 16272.715 29318.008 5553.719 16657.835 27495.694 18519.840 16512.893 16258.150 6985.241 16113.599 24618.212 28078.724 33299.128 11905.067
2205.113 1233.065 3517.753 1433.534 917.042 14524.195 4894.647 10972.430 10305.250 7193.383 18765.555 6387.638 4480.936 7183.116 2011.462 7121.144 1880.927 16828.292 0.000 12949.798 5572.765 3970.178 1626.194 428.377 1974.335 17082.055 12168.004 1270.555 1027.583 3071.295 1233.571 2337.217 1503.374 4188.773 3948.408 2099.969 6356.792 6477.464 13629.893 15399.917 174.242 12406.632 2988.108 3693.978 1613.208 13225.235 2399.736 10606.380 12447.994 19142.261 8905.577
11100.116 11875.964 9657.421 11974.304 12610.226 1797.925 8066.946 23836.836 4183.908 10044.644 26602.075 10229.598 9353.980 8091.851 10962.041 6889.611 11729.056 7236.148 12949.798 0.000 7453.723 9047.448 11335.403 13268.140 13216.988 25753.302 801.881 13101.318 12166.400 10340.033 12872.439 11213.541 12018.666 8809.378 9111.170 10979.795 10104.159 10095.748 26518.967 2709.166 12808.854 25099.669 13615.645 11240.366 11817.677 323.467 11374.931 22761.132 25312.578 26766.704 5338.850
3646.853 4442.401 2208.428 4521.460 5163.212 9110.925 1159.820 16541.618 4877.547 4943.491 20957.680 4535.862 2273.990 3367.389 3561.689 3538.025 4280.443 12394.050 5572.765 7453.723 0.000 1608.281 3946.761 5858.252 5789.857 19714.542 6658.681 5647.677 4915.287 2914.708 5418.739 3774.288 4564.950 1383.993 1658.985 3538.542 4405.840 4481.536 19202.473 10012.748 5446.591 17930.639 6291.144 4123.051 4363.962 7744.255 3954.378 15890.842 18017.937 21224.283 3618.490
2078.579 2835.111 732.107 2932.111 3562.789 10682.185 1304.463 14942.269 6387.046 4981.945 20091.723 4362.614 1645.928 3978.668 1959.064 4237.095 2728.031 13658.097 3970.178 9047.448 1608.281 0.000 2346.369 4250.224 4265.139 18728.761 8255.413 4066.455 3365.183 1470.588 3836.796 2255.427 2984.647 248.804 172.217 1933.439 4256.556 4361.424 17599.509 11577.383 3848.123 16351.193 4870.322 3009.467 2782.659 9333.960 2470.926 14380.386 16418.035 20388.503 5039.545
971.261 660.659 1948.491 1019.825 1410.717 12926.276 3302.367 12596.333 8706.472 6129.160 19284.578 5354.274 3063.531 5793.974 388.714 5744.866 1218.327 15446.707 1626.194 11335.403 3946.761 2346.369 0.000 1934.013 2491.477 17728.949 10550.910 2021.439 1161.581 1669.729 1810.655 1287.987 1142.827 2562.786 2332.125 613.935 5295.814 5416.887 15255.718 13808.007 1501.780 14011.549 3402.948 2884.709 1011.023 11613.660 1511.756 12114.572 14072.305 19629.292 7324.312
2367.047 1432.862 3748.456 1514.818 876.743 14859.537 5232.328 10716.127 10533.758 7182.858 18377.035 6374.000 4625.371 7292.439 2306.597 7523.694 1936.961 17234.490 428.377 13268.140 5858.252 4250.224 1934.013 0.000 1691.950 16680.022 12482.496 1002.818 1455.295 3238.469 1038.953 2440.709 1550.940 4477.210 4214.768 2336.580 6352.187 6471.610 13360.800 15739.966 601.735 12191.246 2678.876 3662.456 1701.576 13547.158 2456.172 10486.537 12189.069 18757.481 9118.980
2200.093 1841.577 3586.487 1489.464 1231.014 14897.489 5484.469 11358.216 10058.546 5904.588 16914.338 5104.923 4001.436 6402.211 2702.450 8168.452 1545.244 17821.873 1974.335 13216.988 5789.857 4265.139 2491.477 1691.950 0.000 15298.745 12417.059 703.974 2772.141 2879.150 787.211 2017.799 1384.447 4513.810 4166.394 2478.915 5110.288 5222.852 13917.256 15801.479 2088.948 12989.357 1021.880 2477.334 1568.638 13514.415 1842.061 11623.558 12803.233 17276.634 8601.260
17116.417 17112.530 18014.090 16711.201 16520.977 27543.962 20019.327 17268.743 21607.886 15724.758 2230.902 15649.272 17446.732 17728.443 17848.901 22965.840 16569.685 31995.223 17082.055 25753.302 19714.542 18728.761 17728.949 16680.022 15298.745 0.000 25020.659 15923.566 18027.381 17323.681 16070.924 16792.944 16586.380 18943.649 18568.825 17527.753 15783.235 15767.514 17911.700 28436.391 17237.766 19082.832 14330.718 15722.154 16725.895 26075.962 16522.847 20509.972 17751.884 2764.192 20429.104
10304.156 11086.246 8860.490 11180.003 11818.038 2571.638 7292.811 23070.794 3518.646 9300.925 25897.717 9464.044 8552.400 7331.073 10175.958 6252.235 10931.572 7692.728 12168.004 801.881 6658.681 8255.413 10550.910 12482.496 12417.059 25020.659 0.000 12305.621 11395.645 9540.745 12076.904 10414.954 11223.239 8018.462 8316.953 10188.454 9337.317 9331.896 25750.809 3489.174 12028.566 24349.873 12813.767 10439.787 11022.439 1111.988 10575.042 22042.754 24547.082 26069.896 4592.628
2001.594 1363.835 3447.471 1137.846 626.074 14748.131 5208.807 11169.378 10116.202 6333.869 17566.561 5525.897 4083.305 6636.245 2302.403 7764.736 1392.936 17459.880 1270.555 13101.318 5647.677 4066.455 2021.439 1002.818 703.974 15923.566 12305.621 0.000 2108.947 2806.603 229.700 1929.791 1083.017 4310.765 3992.210 2164.733 5516.583 5633.401 13770.039 15643.838 1388.663 12737.082 1719.546 2825.031 1284.584 13391.713 1841.231 11220.547 12629.448 17934.673 8672.628
2073.319 1257.878 3072.675 1667.804 1546.311 13697.373 4104.124 11678.073 9751.717 7254.244 19675.266 6468.832 4224.078 6953.569 1509.568 6144.478 2065.171 15837.708 1027.583 12166.400 4915.287 3365.183 1161.581 1455.295 2772.141 18027.381 11395.645 2108.947 0.000 2829.958 1984.965 2336.628 1789.678 3552.816 3383.208 1772.528 6417.115 6538.587 14355.581 14560.849 853.638 13021.056 3788.422 3898.341 1782.558 12432.652 2504.301 11019.041 13154.934 20042.256 8398.458
871.896 1838.230 742.395 1747.691 2419.806 12018.556 2768.594 13921.664 7327.349 4510.083 18733.321 3760.277 1416.767 4143.063 1365.158 5663.553 1413.684 15128.184 3071.295 10340.033 2914.708 1470.588 1669.729 3238.469 2879.150 17323.681 9540.745 2806.603 2829.958 0.000 2584.273 880.276 1753.267 1713.087 1339.408 1057.491 3688.955 3808.321 16545.057 12923.157 2998.489 15426.636 3409.544 1685.019 1566.729 10636.411 1039.778 13676.257 15389.525 19043.208 5896.283
1773.244 1150.504 3219.628 908.479 450.136 14518.550 4980.790 11375.275 9899.885 6197.990 17697.406 5389.010 3875.216 6449.568 2081.319 7549.503 1171.553 17240.601 1233.571 12872.439 5418.739 3836.796 1810.655 1038.953 787.211 16070.924 12076.904 229.700 1984.965 2584.273 0.000 1710.003 853.824 4081.071 3762.906 1936.293 5375.125 5492.987 13981.162 15414.177 1327.961 12931.873 1806.174 2679.214 1055.199 13162.637 1633.514 11380.713 12837.159 18061.325 8458.415
350.819 1145.947 1568.750 925.899 1586.301 12884.517 3507.677 13070.518 8191.017 4931.838 18272.141 4139.341 2193.236 4855.219 1180.592 6306.791 539.110 15877.968 2337.217 11213.541 3774.288 2255.427 1287.987 2440.709 2017.799 16792.944 10414.954 1929.791 2336.628 880.276 1710.003 0.000 903.327 2504.164 2150.545 799.592 4092.867 4214.423 15685.279 13787.008 2295.963 14598.508 2646.297 1596.821 739.154 11508.546 272.096 12922.908 14535.662 18599.508 6752.319
920.766 565.061 2367.682 130.878 684.482 13665.541 4147.203 12172.332 9080.368 5690.587 18148.704 4885.517 3096.480 5742.813 1319.041 6785.515 386.283 16450.468 1503.374 12018.666 4564.950 2984.647 1142.827 1550.940 1384.447 16586.380 11223.239 1083.017 1789.678 1753.267 853.824 903.327 0.000 3229.682 2909.195 1108.419 4853.633 4974.375 14792.322 14561.774 1497.833 13695.267 2260.739 2203.729 202.023 12308.813 907.232 12037.345 13638.871 18496.420 7646.705
2325.901 3068.484 971.603 3175.288 3801.616 10439.224 1077.425 15158.216 6201.967 5043.675 20294.350 4451.398 1755.531 3943.451 2177.810 4024.201 2976.103 13415.199 4188.773 8809.378 1383.993 248.804 2562.786 4477.210 4513.810 18943.649 8018.462 4310.765 3552.816 1713.087 4081.071 2504.164 3229.682 0.000 379.697 2170.473 4340.858 4442.256 17818.504 11333.449 4062.992 16555.511 5116.565 3221.539 3027.661 9094.717 2718.714 14557.932 16634.422 20587.899 4873.061
1994.680 2790.412 597.056 2863.146 3504.654 10757.647 1455.713 14919.707 6379.405 4826.265 19926.618 4199.635 1480.745 3865.059 1943.415 4397.413 2637.463 13790.975 3948.408 9111.170 1658.985 172.217 2332.125 4214.768 4166.394 18568.825 8316.953 3992.210 3383.208 1339.408 3762.906 2150.545 2909.195 379.697 0.000 1884.162 4094.761 4200.493 17572.367 11655.611 3831.928 16343.602 4747.296 2847.584 2707.713 9400.235 2356.138 14402.230 16394.708 20222.351 5015.285
448.827 906.803 1418.441 1030.001 1631.796 12605.144 3044.766 13051.305 8207.700 5523.078 19032.990 4753.147 2460.841 5191.877 386.122 5694.366 976.370 15344.958 2099.969 10979.795 3538.542 1933.439 613.935 2336.580 2478.915 17527.753 10188.454 2164.733 1772.528 1057.491 1936.293 799.592 1108.419 2170.473 1884.162 0.000 4691.807 4812.616 15697.371 13496.456 2003.483 14505.201 3272.673 2357.017 913.411 11265.118 1062.925 12671.592 14524.848 19365.697 6805.611
4344.621 5232.427 3867.135 4930.776 5483.456 11901.184 5192.683 16351.006 6141.012 839.263 16839.514 136.867 2617.394 2020.945 5039.536 7943.286 4481.219 16245.208 6356.792 10104.159 4405.840 4256.556 5295.814 6352.187 5110.288 15783.235 9337.317 5516.583 6417.115 3688.955 5375.125 4092.867 4853.633 4340.858 4094.761 4691.807 0.000 121.560 18831.399 12812.955 6346.109 18047.880 4819.469 2696.097 4760.076 10427.130 3972.117 16723.984 17766.762 17067.990 4786.571
4466.035 5353.918 3980.082 5051.790 5603.311 11893.292 5283.811 16453.471 6112.581 717.802 16809.367 149.813 2725.099 2005.416 5159.812 8019.553 4602.239 16272.715 6477.464 10095.748 4481.536 4361.424 5416.887 6471.610 5222.852 15767.514 9331.896 5633.401 6538.587 3808.321 5492.987 4214.423 4974.375 4442.256 4200.493 4812.616 121.560 0.000 18929.793 12803.914 6467.134 18153.932 4920.988 2814.273 4881.254 10418.908 4093.399 16838.642 17867.574 17034.474 4770.679
15690.171 14792.414 17105.723 14799.946 14129.125 28015.565 18459.587 2690.470 23872.352 19533.327 20140.913 18792.653 17852.890 20313.536 15641.323 20122.910 15146.560 29318.008 13629.893 26518.967 19202.473 17599.509 15255.718 13360.800 13917.256 17911.700 25750.809 13770.039 14355.581 16545.057 13981.162 15685.279 14792.322 17818.504 17572.367 15697.371 18831.399 18929.793 0.000 28859.508 13756.735 2297.195 14017.159 16367.256 14978.805 26781.429 15611.247 5539.604 1239.410 20675.561 22437.582
13650.254 14378.499 12220.442 14508.714 15127.168 918.701 10507.905 26169.991 6833.136 12742.775 29249.309 12938.148 12002.759 10799.454 13445.715 8861.713 14290.586 5553.719 15399.917 2709.166 10012.748 11577.383 13808.007 15739.966 15801.479 28436.391 3489.174 15643.838 14560.849 12923.157 15414.177 13787.008 14561.774 11333.449 11655.611 13496.456 12812.955 12803.914 28859.508 0.000 15250.973 27345.630 16246.475 13900.884 14359.841 2386.728 13962.473 24864.113 27640.235 29402.938 8042.270
2140.200 1166.819 3416.888 1415.349 968.818 14376.982 4748.862 11095.247 10198.702 7184.145 18914.370 6380.587 4412.960 7125.443 1889.733 6952.005 1864.895 16657.835 174.242 12808.854 5446.591 3848.123 1501.780 601.735 2088.948 17237.766 12028.566 1388.663 853.638 2998.489 1327.961 2295.963 1497.833 4062.992 3831.928 2003.483 6346.109 6467.134 13756.735 15250.973 0.000 12514.399 3108.013 3700.198 1588.019 13082.960 2377.590 10679.007 12571.430 19289.219 8805.443
14556.809 13616.192 15923.622 13684.379 13014.553 26526.144 17099.518 1965.938 22711.851 18798.119 21309.429 18024.783 16790.915 19368.183 14400.260 18524.452 14067.584 27495.694 12406.632 25099.669 17930.639 16351.193 14011.549 12191.246 12989.357 19082.832 24349.873 12737.082 13021.056 15426.636 12931.873 14598.508 13695.267 16555.511 16343.602 14505.201 18047.880 18153.932 2297.195 27345.630 12514.399 0.000 13247.887 15466.666 13869.002 25348.374 14560.315 3272.772 1503.547 21837.180 21307.838
2913.550 2782.068 4150.617 2383.278 2242.718 15334.375 6146.844 11532.799 10238.157 5551.517 15918.544 4787.402 4270.063 6367.987 3555.261 8943.156 2296.328 18519.840 2988.108 13615.645 6291.144 4870.322 3402.948 2678.876 1021.880 14330.718 12813.767 1719.546 3788.422 3409.544 1806.174 2646.297 2260.739 5116.565 4747.296 3272.673 4819.469 4920.988 14017.159 16246.475 3108.013 13247.887 0.000 2462.272 2412.414 13921.158 2406.252 12112.355 12947.393 16275.616 8775.548
1924.973 2652.833 2308.277 2296.904 2801.142 12984.368 4297.344 13826.326 7777.557 3521.996 17086.881 2712.811 1909.241 3948.929 2742.560 7244.936 1855.875 16512.893 3693.978 11240.366 4123.051 3009.467 2884.709 3662.456 2477.334 15722.154 10439.787 2825.031 3898.341 1685.019 2679.214 1596.821 2203.729 3221.539 2847.584 2357.017 2696.097 2814.273 16367.256 13900.884 3700.198 15466.666 2462.272 0.000 2143.279 11551.038 1395.699 14043.325 15265.473 17388.495 6315.390
722.336 525.116 2168.709 186.763 854.919 13463.717 3947.574 12355.156 8893.569 5598.677 18274.228 4796.912 2927.853 5593.246 1146.724 6599.998 287.625 16258.150 1613.208 11817.677 4363.962 2782.659 1011.023 1701.576 1568.638 16725.895 11022.439 1284.584 1782.558 1566.729 1055.199 739.154 202.023 3027.661 2707.713 913.411 4760.076 4881.254 14978.805 14359.841 1588.019 13869.002 2412.414 2143.279 0.000 12107.595 789.571 12184.636 13822.815 18618.379 7462.809
11391.107 12159.361 9950.007 12262.989 12896.267 1474.553 8337.380 24097.781 4501.659 10367.998 26921.956 10552.659 9662.060 8415.121 11241.905 7080.863 12022.197 6985.241 13225.235 323.467 7744.255 9333.960 11613.660 13547.158 13514.415 26075.962 1111.988 13391.713 12432.652 10636.411 13162.637 11508.546 12308.813 9094.717 9400.235 11265.118 10427.130 10418.908 26781.429 2386.728 13082.960 25348.374 13921.158 11551.038 12107.595 0.000 11672.413 22989.117 25572.994 27085.612 5662.313
616.869 1270.015 1764.241 966.207 1582.818 13057.413 3740.634 13008.619 8281.199 4811.037 18000.131 4010.830 2242.298 4844.664 1438.538 6561.938 521.557 16113.599 2399.736 11374.931 3954.378 2470.926 1511.756 2456.172 1842.061 16522.847 10575.042 1841.231 2504.301 1039.778 1633.514 272.096 907.232 2718.714 2356.138 1062.925 3972.117 4093.399 15611.247 13962.473 2377.590 14560.315 2406.252 1395.699 789.571 11672.413 0.000 12940.711 14469.889 18327.412 6834.216
12811.481 11838.814 14063.061 11998.284 11357.900 24082.351 14946.073 3818.025 20758.549 17526.902 22694.639 16724.433 15087.295 17777.879 12495.083 16002.468 12423.097 24618.212 10606.380 22761.132 15890.842 14380.386 12114.572 10486.537 11623.558 20509.972 22042.754 11220.547 11019.041 13676.257 11380.713 12922.908 12037.345 14557.932 14402.230 12671.592 16723.984 16838.642 5539.604 24864.113 10679.007 3272.772 12112.355 14043.325 12184.636 22989.117 12940.711 0.000 4505.982 23204.628 19417.372
14530.104 13621.834 15937.087 13642.370 12970.560 26799.328 17258.760 1477.071 22714.223 18484.239 19982.028 17732.625 16712.148 19205.170 14459.013 18892.226 13997.849 28078.724 12447.994 25312.578 18017.937 16418.035 14072.305 12189.069 12803.233 17751.884 24547.082 12629.448 13154.934 15389.525 12837.159 14535.662 13638.871 16634.422 16394.708 14524.848 17766.762 17867.574 1239.410 27640.235 12571.430 1503.547 12947.393 15265.473 13822.815 25572.994 14469.889 4505.982 0.000 20512.804 21285.420
18936.622 19042.289 19696.736 18624.899 18507.632 28533.974 21650.364 20012.176 22584.509 16883.620 536.792 16931.341 18992.595 18915.456 19708.544 24601.922 18435.377 33299.128 19142.261 26766.704 21224.283 20388.503 19629.292 18757.481 17276.634 2764.192 26069.896 17934.673 20042.256 19043.208 18061.325 18599.508 18496.420 20587.899 20222.351 19365.697 17067.990 17034.474 20675.561 29402.938 19289.219 21837.180 16275.616 17388.495 18618.379 27085.612 18327.412 23204.628 20512.804 0.000 21517.127
6759.527 7691.676 5388.709 7643.909 8315.990 7136.284 4725.631 19817.936 1462.892 4708.489 21333.040 4908.211 4603.509 2765.983 6938.167 5822.872 7291.127 11905.067 8905.577 5338.850 3618.490 5039.545 7324.312 9118.980 8601.260 20429.104 4592.628 8672.628 8398.458 5896.283 8458.415 6752.319 7646.705 4873.061 5015.285 6805.611 4786.571 4770.679 22437.582 8042.270 8805.443 21307.838 8775.548 6315.390 7462.809 5662.313 6834.216 19417.372 21285.420 21517.127 0.000
NODE_COORD_SECTION
1 27567.380647 -311.862562
2 28431.196991 138.186791
3 26891.010382 -1590.959804
4 28092.393238 410.433655
5 28560.084004 893.141950
6 23128.408401 -12266.563631
7 27296.890384 -3585.715310
8 36413.824345 9296.542510
9 22101.919183 -6403.553857
10 22387.967122 -448.982108
11 17986.468510 15638.836469
12 23169.655048 -239.752488
13 25601.492812 -1458.446831
14 23029.617253 -2377.418957
15 28244.381112 -794.242128
16 28546.029434 -6261.700422
17 27648.710425 337.974527
18 27817.380182 -15947.775576
19 29472.275652 798.947818
20 23090.296717 -10469.042360
21 26139.975508 -3667.760187
22 27007.774472 -2313.695070
23 28516.750816 -516.909152
24 29375.150132 1216.168670
25 27816.360986 1874.096924
26 20155.353849 15116.474428
27 23325.753381 -9702.508675
28 28413.903795 1501.911701
29 29638.440600 -215.111101
30 26880.307020 -848.641685
31 28338.476700 1284.948512
32 27305.836359 -78.050108
33 27998.581771 501.694667
34 26968.865756 -2559.437982
35 26890.033004 -2188.014757
36 27908.894761 -603.090270
37 23223.093852 -365.756421
38 23101.767854 -373.300989
39 37727.347258 11644.581314
40 23004.300918 -13176.843647
41 29491.269348 625.744265
42 38374.490281 9440.423257
43 27055.629237 2556.391717
44 25795.691247 440.891601
45 27934.966675 309.948962
46 23104.235979 -10792.208758
47 27161.261737 152.459480
48 38614.361567 6176.453917
49 37292.166463 10484.083838
50 17452.866744 15697.268553
51 22832.926964 -5136.399311
DEMAND_SECTION
1 0
2 6
3 7
4 6
5 4
6 8
7 4
8 10
9 3
10 3
11 98
12 8
13 6
14 6
15 5
16 9
17 3
18 4
19 7
20 6
21 7
22 2
23 9
24 56
25 10
26 55
27 1
28 4
29 3
30 3
31 8
32 8
33 5
34 1
35 1
36 7
37 9
38 9
39 10
40 10
41 4
42 91
43 8
44 10
45 3
46 7
47 63
48 9
49 1
50 7
51 8
DEPOT_SECTION
1
-1
EOF
