NAME : mamut-paris-n50-hyb
COMMENT : Mamut2026 shortest metric; city paris; 3-decimal seconds/meters; ENU ref in mamut-paris-n50-hyb.vrp.json
TYPE : CVRP
DIMENSION : 51
EDGE_WEIGHT_TYPE : EXPLICIT
EDGE_WEIGHT_FORMAT : FULL_MATRIX
CAPACITY : 151
EDGE_WEIGHT_SECTION
0.000 2863.691 5408.661 1747.932 4259.616 4593.494 518.879 4235.083 4200.365 5744.496 3175.330 2845.608 4144.759 7028.956 9919.821 5662.332 5987.549 1457.257 4759.131 4189.752 2977.501 3310.901 8843.970 1843.802 2836.934 4627.093 8396.423 8313.985 9443.569 10124.378 9120.976 3814.264 8700.539 10007.000 4657.879 10702.605 5062.296 6419.344 6394.606 6235.177 9962.248 5456.343 5199.705 3137.068 6237.854 8729.342 11047.163 7310.604 8399.632 5274.177 2963.259
3490.052 0.000 7743.997 4544.261 6595.800 6929.677 2957.048 2710.064 6825.362 6977.657 6137.498 4141.716 6946.031 9365.140 11725.861 7997.668 7793.589 3739.507 5805.207 6525.936 5459.165 6112.173 10650.010 3988.841 5249.934 6963.277 7454.400 6885.354 8229.518 10613.965 7692.344 2758.870 7351.686 9298.290 5891.040 12683.726 7653.286 8755.527 5102.950 8571.361 12298.432 3931.324 7535.888 3254.854 5843.097 10535.381 10080.489 8184.505 10205.671 3014.167 3957.260
4729.038 7142.077 0.000 4545.638 2313.600 4415.085 5095.966 7028.127 7173.055 2548.493 5574.874 4150.019 6085.070 3862.659 13513.161 253.671 9251.879 3773.231 3948.029 1645.990 3989.517 5714.672 12437.310 3571.154 3780.286 1392.249 12535.147 12638.091 13767.674 13717.718 13445.081 5879.112 13024.645 14145.724 3150.172 5609.797 8217.036 2573.867 8836.731 1322.672 6259.635 8249.387 3453.874 4788.553 8027.387 12322.682 15185.887 5314.633 11992.971 9157.762 5140.160
1841.231 3955.812 5233.994 0.000 3673.562 3619.389 2360.111 6076.314 2751.080 6152.259 1633.713 3993.621 2603.142 6233.429 9091.186 5487.665 4829.905 1814.012 5504.177 4015.085 1984.468 1769.283 8015.335 1904.668 1843.901 4375.110 8169.240 8915.392 9611.734 9295.743 9722.382 5655.496 9301.945 9779.817 5074.981 10164.782 3795.062 5623.816 8235.837 5894.684 9166.720 7297.574 4404.177 4978.299 8079.085 7900.707 10819.980 8187.068 7570.996 6703.829 4804.490
4678.066 7178.017 1629.345 4334.587 0.000 3111.846 5131.905 7130.548 6021.914 3671.837 4271.636 4196.707 4781.831 3966.038 12935.998 1883.016 8662.316 3722.259 4738.973 1663.969 2918.525 4411.434 11860.147 3395.848 2709.295 701.548 12324.096 12674.031 13766.591 13232.614 13481.021 5981.534 13060.584 13934.673 3941.116 7055.757 7270.621 2820.109 8939.152 2309.632 6363.014 8351.809 2821.065 4998.091 8461.442 11745.519 14974.836 6437.977 11415.809 9193.702 5186.847
6132.389 8828.026 3918.651 5147.391 3276.949 0.000 6651.268 9477.913 4587.226 6467.144 4204.457 6544.071 3280.103 3618.525 11604.638 4172.322 7209.387 5249.872 7127.210 4052.206 3372.346 3922.623 10462.577 4923.461 3798.930 3978.497 12294.189 13492.721 13736.683 11901.254 14299.711 8328.898 13879.275 13429.899 6329.353 8631.200 5200.631 4090.234 11286.516 4569.302 6671.417 10699.173 1336.933 7386.328 10808.806 10414.159 14802.963 9233.284 10084.448 10970.002 7534.212
1046.908 2743.205 5912.287 2499.249 4763.241 5097.119 0.000 4114.598 4951.682 5948.567 3926.647 3049.680 4896.076 7532.582 10643.051 6165.957 6710.779 1906.949 4963.202 4693.377 3626.606 4062.217 9567.200 2156.283 3417.376 5130.718 8333.862 8193.500 9323.083 10439.639 9000.490 3693.779 8580.054 10061.006 4861.950 11080.747 5813.613 6922.969 6274.120 6738.802 10465.874 5335.858 5703.330 3246.690 6266.365 9452.572 10959.950 7514.675 9122.861 5153.692 3167.330
4518.606 2883.033 7080.556 5917.112 7067.182 7946.608 3989.059 0.000 8369.545 5859.205 7369.663 3432.106 8318.882 10288.033 13556.098 7334.227 9623.826 4756.438 4639.305 6448.084 6476.095 7485.023 12480.247 5005.772 6266.864 7249.499 9153.582 8236.465 9743.047 12444.202 9043.455 1374.354 8865.215 11087.110 4772.588 11974.115 9231.476 9307.426 2613.895 8086.909 12794.849 1614.120 8458.781 2146.498 3405.798 12365.619 11645.653 6601.484 12035.908 3038.117 2848.904
4361.620 5891.358 7196.045 3272.600 5625.575 4462.054 4880.499 8396.335 0.000 9099.462 2200.173 6803.600 2370.893 7348.010 7399.415 7449.716 3004.164 4623.991 8451.380 6378.170 4032.312 1850.678 6257.354 4714.647 4123.464 6327.123 7918.366 9554.339 9352.794 7696.031 10361.330 8175.884 9547.298 9085.922 8022.184 12116.795 1303.681 7575.829 10756.225 7846.697 10494.393 9617.595 5496.522 7498.688 10599.473 6208.936 10337.622 11134.272 5879.225 8621.166 7324.878
5869.245 7049.963 2693.276 6163.777 4964.535 6646.916 5861.544 5839.742 8791.194 0.000 7258.714 3767.332 8055.821 6116.872 15131.300 2946.947 10870.018 5202.381 1686.347 3849.606 5623.338 7394.284 14055.449 5101.758 5414.107 3784.326 13451.568 12706.748 14203.275 15335.857 13513.738 4690.727 13325.443 15220.938 1522.107 6657.645 9835.175 4503.192 6388.258 3576.885 7901.854 6590.746 6122.349 3600.167 5545.601 13940.821 16077.657 2832.848 13611.110 8018.367 4357.201
3529.982 5505.926 5573.448 2186.392 4002.977 3243.076 4048.861 7765.065 1750.278 7602.188 0.000 5748.928 973.657 6396.390 8664.363 5827.118 4390.680 3630.719 7029.703 4755.572 2409.714 139.798 7588.512 3721.375 2500.866 4704.525 8604.576 9709.897 10047.070 8960.979 10516.887 7344.246 10096.450 10160.656 6600.507 10494.197 2998.985 5953.231 9924.588 6224.099 9449.281 8986.325 4277.544 6667.050 9767.835 7473.884 11255.316 9712.595 7144.173 8253.943 6493.241
3076.790 5007.361 3922.024 4124.052 3908.649 5159.955 3069.089 3908.719 6751.469 3119.400 5314.210 0.000 6121.926 7129.500 12701.019 4175.695 8768.747 3162.655 2461.980 3289.552 3689.443 5449.780 11625.168 3062.032 3480.212 4090.966 10751.576 10611.214 11740.798 12905.576 11418.205 2759.704 10997.768 12478.721 2032.783 8719.585 7795.450 6141.656 5717.322 4928.377 9540.319 5129.979 5300.248 1924.158 5239.613 11510.540 13377.665 5144.871 11180.830 6085.463 1965.018
3998.563 6008.647 5861.413 2654.973 4290.943 2800.541 4517.442 8233.645 2074.343 7890.154 924.354 6036.894 0.000 6035.425 9167.084 6115.084 4893.401 4099.300 7317.669 5043.538 2697.680 642.520 8091.233 4189.956 2788.832 4992.491 9107.297 10212.618 10549.791 9463.700 11019.608 7812.827 10599.172 10663.377 6888.473 10611.411 3310.179 6070.445 10393.168 6512.065 9088.316 9454.906 3835.009 7027.397 10236.416 7976.605 11758.037 10000.561 7646.894 8756.664 6961.821
7157.349 9779.696 4046.132 6582.730 4228.619 3752.925 7676.228 10429.583 7334.254 6379.704 6139.269 7495.741 6027.131 0.000 14257.940 4299.803 9851.478 6201.542 7794.850 5003.876 4807.684 6279.067 13111.069 5875.131 5188.578 4237.847 14572.239 15207.903 16014.733 14648.281 16014.893 9280.568 15594.456 16176.927 6996.993 6035.775 7664.633 1943.632 12118.583 3637.156 4034.208 11650.843 2846.291 8337.998 11463.555 13067.460 17222.979 8393.537 12737.750 11921.672 8485.881
9853.198 10894.294 14003.004 9457.160 12432.534 11766.255 10251.517 13548.473 7555.656 15284.021 9064.368 12578.246 9548.731 14425.366 0.000 14256.675 4878.443 10808.550 14491.769 12857.580 10743.441 8714.873 2086.037 10899.206 10602.874 13134.082 8553.481 10776.138 9275.866 2962.522 11583.128 13360.361 10022.410 7404.703 14206.743 18923.754 6793.084 14382.788 15940.702 14653.656 17571.749 14769.733 12634.752 12869.706 15932.947 1862.515 9249.268 17043.241 2209.977 13093.859 12695.896
5280.694 7693.733 758.385 5097.294 2947.565 5037.266 5647.622 6774.456 7724.711 2294.822 6176.549 4251.888 6707.251 4194.645 14064.817 0.000 9803.535 4324.887 3694.358 2197.646 4541.173 6312.119 12988.966 4122.810 4331.942 2094.374 13086.803 13189.747 14319.330 14269.374 13996.737 5625.442 13576.301 14697.380 2896.501 5858.152 8768.692 2905.852 8583.060 1654.658 6519.626 7995.716 4087.840 4534.882 7773.716 12874.338 15737.543 5060.962 12544.627 8951.249 5242.028
6112.190 7243.165 9451.729 5205.188 7881.259 6970.086 6510.509 9807.465 2788.228 11032.050 4455.857 8736.187 4878.924 9629.197 5176.181 9705.400 0.000 6556.578 10383.968 8583.777 6287.996 4106.362 4029.310 6647.234 6329.070 8582.807 6835.257 9036.778 8003.897 5857.048 9843.768 9619.353 8750.441 7409.713 9954.772 14372.479 1996.915 9831.513 12199.694 10102.381 12775.579 11028.725 7838.583 9128.698 12191.939 3985.701 8863.267 13066.859 3655.991 9589.763 8954.888
1585.049 4419.119 4273.915 2010.429 3124.869 3458.747 2103.928 5182.261 4637.846 4956.533 3200.587 2606.864 4170.016 5894.210 10966.624 4527.585 6705.342 0.000 4299.112 3055.005 1988.234 3336.158 9890.773 517.911 1779.004 3492.346 9559.691 9635.603 10765.186 11171.181 10442.593 4391.691 10022.156 11170.268 3869.916 9442.375 5670.499 5284.597 7341.784 5100.430 8827.502 6403.521 4064.958 3597.367 6871.600 9776.145 12210.431 6982.004 9446.434 6561.096 3597.005
4490.489 5713.160 3695.627 4869.177 4239.269 5874.848 4482.788 4504.772 7496.594 1568.208 6039.711 2388.577 6836.819 7238.140 13836.700 3949.297 9575.419 3907.781 0.000 3335.040 4404.335 6175.282 12760.849 3807.158 4195.104 4136.454 12114.765 11369.945 12866.472 14041.257 12176.935 3355.758 11988.640 13884.135 481.591 7778.913 8540.576 5624.459 6104.395 4698.152 9023.122 5726.032 5630.868 2265.198 5141.851 12646.221 14740.854 3512.365 12316.510 6681.564 3015.992
3710.722 6123.761 1846.583 3527.322 1784.914 3467.294 4077.650 6065.545 6154.739 3508.462 4606.577 3131.703 5137.279 4944.902 12494.845 2100.254 8233.563 2754.915 3425.145 0.000 2971.201 4742.147 11418.994 2552.838 2761.970 1429.088 11516.831 11619.775 12749.358 12699.402 12426.765 4916.530 12006.329 13127.408 2627.287 7456.380 7198.720 3798.973 7874.148 3084.118 7341.878 7286.805 3176.513 3933.087 7396.439 11304.366 14167.571 5835.658 10974.655 8139.446 4121.844
2760.043 5551.126 3826.715 1775.045 2256.244 2182.876 3278.922 6608.487 3586.925 5527.906 1840.875 3674.645 2487.748 4816.111 10457.722 4080.385 6184.039 2380.446 4955.421 2681.290 0.000 1976.445 9381.871 2054.036 426.584 2957.793 9764.554 10510.706 11207.048 10754.338 11317.696 5459.473 10897.259 11375.131 4526.225 8747.464 4806.002 4206.498 8417.091 4477.366 7749.403 7829.747 2986.859 4665.149 7939.381 9267.243 12415.294 7638.313 8937.532 8034.220 4664.786
3743.053 5366.128 5824.921 2431.099 4254.451 3582.831 4261.932 7871.104 1610.480 7853.662 829.049 6000.401 1313.412 6647.864 8524.564 6078.592 4250.882 3875.427 7281.177 5007.046 2661.188 0.000 7448.713 3966.083 2752.340 4955.999 8464.777 9570.099 9907.271 8821.180 10377.089 7557.317 9956.652 10020.857 6851.981 10745.671 2859.187 6204.705 10137.658 6475.573 9700.755 9092.364 4601.405 6880.121 9980.906 7334.085 11115.517 9964.069 7004.375 8114.144 6706.311
8017.790 9058.886 12167.597 7621.752 10597.126 9930.847 8416.109 11713.065 5720.248 13448.614 7228.960 10742.839 7713.324 12589.959 2070.223 12421.268 3043.036 8973.142 12656.361 11022.173 8908.033 6879.465 0.000 9063.798 8767.466 11298.675 7447.989 9670.645 8170.374 2212.793 10477.635 11524.953 8916.918 6299.211 12371.336 17088.346 4957.676 12547.380 14105.295 12818.248 15736.341 12934.325 10799.345 11034.298 14097.540 527.534 8143.776 15207.834 930.402 11405.483 10860.489
1711.196 4574.886 3990.105 1492.518 2841.059 3174.937 2230.075 5491.439 4119.935 4908.369 2682.676 2916.042 3652.105 5610.400 10460.041 4243.776 6198.759 1150.143 4260.287 2771.196 1704.425 2818.247 9384.189 0.000 1495.194 3208.536 9482.027 9653.114 10782.697 10664.597 10460.104 4700.869 10039.668 11092.604 3831.091 9284.048 5163.916 5000.787 7650.962 4816.620 8543.692 6712.699 3781.148 3906.545 7180.777 9269.561 12132.767 6943.179 8939.851 6870.273 3906.182
2993.278 5615.625 3564.458 2098.977 2218.524 2164.351 3512.157 6265.512 3910.857 5184.930 2164.807 3331.670 2961.914 4778.391 10781.654 3818.128 6507.971 2037.471 4612.445 2345.548 529.431 2300.377 9705.803 1711.060 0.000 2782.889 10088.486 10834.638 11530.980 11078.270 11641.628 5116.497 11221.191 11699.063 4183.249 8709.744 5129.934 4168.778 8074.115 4390.973 7711.683 7486.772 2949.139 4322.173 7596.405 9591.175 12739.226 7295.337 9261.464 7757.601 4321.810
4863.139 7276.178 1350.756 4679.739 1771.243 3555.161 5230.066 7217.961 6465.229 3393.248 4714.950 4284.119 5225.146 4141.669 13379.313 1604.427 9105.630 3907.331 4577.561 1780.090 3361.840 4854.749 12303.462 3705.254 3152.609 0.000 12669.248 12772.191 13901.775 13675.929 13579.182 6068.946 13158.745 14279.824 3779.703 6960.553 7713.935 2974.533 9026.565 2253.488 6538.644 8439.221 3264.379 5085.503 8548.855 12188.834 15319.988 6159.388 11859.123 9291.862 5274.260
8202.333 6935.249 13225.049 8316.451 11736.177 11682.004 8600.652 9280.506 8023.673 13299.822 9210.409 10400.935 9697.296 14296.044 9089.095 13478.720 6883.176 9617.564 12314.458 12006.140 10047.084 8863.438 7782.117 9758.498 9906.517 12437.726 0.000 2630.962 1744.209 6303.771 3437.952 9691.257 2270.661 2941.653 12213.205 18227.397 8120.492 13686.431 10098.653 13957.299 17229.336 8981.317 12466.792 10187.242 11731.409 8057.972 3251.910 14865.930 8540.981 6689.299 10467.683
8602.218 6480.765 13595.257 9163.408 12446.212 12558.242 8807.461 8201.472 9674.198 12981.891 10407.152 10087.132 11042.200 15172.282 10922.937 13848.928 9129.218 9589.919 11809.441 12376.348 10923.322 10208.341 9615.960 9839.253 10782.755 12813.689 2756.333 0.000 1841.815 8137.614 806.990 8763.104 963.983 4459.081 11895.274 18629.142 10002.574 14562.669 8859.112 14421.773 18105.574 7741.776 13343.030 9259.089 10491.868 9891.815 4160.605 14188.739 10374.824 5484.022 9961.495
9304.958 7511.516 14327.674 9419.076 12838.803 12784.629 9703.277 9739.728 9126.299 13888.295 10313.035 10989.408 10799.922 15398.669 9294.688 14581.345 7959.730 10492.195 12902.931 13108.765 11149.709 9966.063 7987.711 10741.529 11009.142 13540.351 1891.531 2393.987 0.000 6509.365 3200.978 10267.525 881.680 2830.832 12801.678 19330.022 9197.045 14789.056 10397.368 15059.924 18331.961 9280.033 13569.417 10763.510 12030.125 8263.565 2532.356 15454.403 8746.574 7022.278 11056.155
9966.040 10266.195 14115.847 9570.002 12545.377 11939.048 10364.359 12971.383 7710.463 15396.864 9219.175 12691.089 9703.538 14623.484 2986.371 14369.518 5323.998 10921.392 14604.611 12970.423 10856.283 8869.680 2429.627 11012.048 10715.716 13246.925 6324.062 8546.718 6916.262 0.000 9353.709 13022.204 7662.806 5229.021 14319.586 19036.596 7125.316 14495.630 15294.529 14766.498 17769.866 13738.252 12832.870 12925.794 15945.469 2610.978 7073.586 17156.084 3108.038 11439.790 12808.739
9409.208 7287.756 14402.247 9970.398 13253.202 13365.232 9614.451 9008.462 10379.847 13788.881 11214.142 10894.122 11849.190 15979.272 11321.817 14655.918 9730.886 10396.910 12616.432 13183.338 11730.312 11015.332 10014.839 10646.244 11589.745 13620.679 3155.213 806.990 2240.694 8536.493 0.000 9570.094 1362.862 4857.961 12702.264 19436.132 10708.224 15369.660 9666.102 15228.763 18912.564 8548.766 14150.021 10066.079 11298.858 10290.694 4559.484 14995.729 10773.703 6291.012 10768.485
3948.015 2849.889 6021.225 5400.356 6007.851 7052.585 3418.468 1481.826 7852.789 4809.969 6799.072 2372.775 7768.501 9228.702 13287.899 6274.896 9355.627 4185.847 3637.519 5388.753 5582.072 6934.642 12212.048 4435.181 5372.842 6190.168 9251.494 8506.674 10003.201 12411.059 9313.664 0.000 9125.369 11095.384 3723.352 10914.784 8714.719 8248.095 3290.430 7027.578 11735.518 2703.086 7399.450 1087.167 3695.011 12097.419 11877.583 6016.817 11767.709 3678.975 1789.573
8693.930 6700.953 13686.969 9255.120 12537.924 12649.955 8899.173 8858.048 9420.451 13077.732 10463.658 10178.845 11094.074 15263.995 9958.955 13940.640 8623.997 9681.632 12092.368 12468.060 11015.034 10260.215 8651.977 9930.966 10874.467 12905.401 2195.816 1512.307 877.832 7173.631 2319.297 9419.680 0.000 3495.099 11991.115 18720.854 9748.827 14654.382 9515.688 14513.485 18197.286 8398.352 13434.743 9915.665 11148.444 8927.832 3196.622 14643.840 9410.841 6140.598 10245.592
9589.677 8374.790 14588.309 9703.795 13017.839 12908.223 9987.996 10805.617 8964.690 14739.364 10154.441 11840.476 10638.804 15577.705 7511.488 14841.980 7199.498 11004.908 13753.999 13393.484 11328.745 9804.945 6204.511 11145.842 11188.178 13719.387 2588.210 4348.760 2437.410 4726.165 5155.750 11130.799 3183.954 0.000 13652.747 19509.059 8613.976 14968.093 11706.303 15238.961 18510.997 10471.276 13748.453 11626.783 13305.320 6480.366 2301.579 16305.472 6963.374 8172.814 11907.224
4709.279 5931.950 3227.294 5087.967 3972.540 5654.921 4701.578 4723.562 7715.384 1086.617 6256.113 2607.366 7053.220 6756.548 14055.490 3480.965 9794.208 4126.571 797.857 2912.273 4620.737 6391.683 12979.639 4025.947 4411.506 3713.688 12333.555 11588.735 13085.261 14260.046 12395.725 3574.547 12207.430 14102.924 0.000 7297.321 8759.365 5142.868 5996.325 4216.561 8541.530 5944.822 5364.139 2483.987 5033.781 12865.010 14959.643 3360.331 12535.300 6900.354 3234.782
10230.128 12643.167 5557.350 10046.728 7403.702 8610.951 10597.056 11885.610 12013.044 6770.715 10262.766 9363.042 10772.962 5890.232 18927.129 5715.668 14653.446 9274.321 8207.303 7147.080 8931.182 10402.564 17851.278 9072.244 9241.545 6579.278 18036.237 18139.181 19268.764 19218.807 18946.171 10736.596 18525.734 19646.814 8007.655 0.000 13054.165 5037.121 12355.011 5340.520 3443.327 12706.497 7596.548 9646.036 11699.983 17736.650 20686.977 7094.320 17406.939 14062.403 10353.182
5186.242 6613.098 8159.934 4097.223 6589.463 5203.969 5705.122 9118.075 1319.703 9924.085 3164.061 7628.222 3112.808 7674.646 6746.156 8413.604 2339.694 5448.613 9276.003 7342.059 4996.200 2814.566 5599.285 5539.269 5087.352 7291.012 8052.099 9974.503 9220.739 7137.200 10781.493 8929.963 9884.701 8665.845 8846.807 12926.980 0.000 8473.873 11510.304 8810.585 10925.413 10339.335 6028.138 8323.310 11424.096 5555.676 10119.399 11958.895 5225.966 9342.906 8149.501
6606.475 9228.822 2330.044 6102.385 2987.751 4007.109 7125.354 9089.863 7409.202 4594.618 5658.924 6394.371 6169.120 2066.882 14323.287 2568.515 10049.604 5650.667 6009.765 3890.342 4327.340 5798.722 13247.436 5324.257 4637.703 2741.474 14091.894 14657.029 15534.388 14619.903 15464.019 7940.848 15043.582 15702.471 5211.907 5454.323 8566.025 0.000 10333.497 1852.070 4463.857 10311.123 2992.706 6850.288 9678.470 13132.808 16742.634 6653.009 12803.097 11266.655 7384.512
6754.010 5160.930 9015.894 8152.517 9133.444 10178.179 6224.464 2501.536 10604.950 6593.360 9605.068 5498.368 10554.287 12185.568 15833.995 9269.565 11901.723 6991.842 6245.433 8514.347 8707.666 9720.428 14758.144 7241.176 8498.435 9315.761 10429.268 9385.105 10962.156 14722.100 10192.095 3356.542 10084.325 12486.027 6380.259 12149.642 11466.881 10465.442 0.000 9664.427 13607.337 1983.013 10525.043 4212.760 2113.105 14643.516 12876.756 6510.033 14313.806 4281.892 4590.958
5384.303 7797.342 711.525 5200.903 2894.059 4995.544 5751.230 7391.190 7828.320 2895.946 6155.333 4805.284 6665.529 3805.893 14168.426 869.843 9907.144 4428.496 4311.092 2301.255 4644.781 6295.131 13092.575 4226.419 4435.550 2047.514 13190.412 13293.356 14422.939 14372.982 14100.346 6242.175 13679.909 14800.989 3513.235 5238.199 8872.301 2501.010 9109.990 0.000 5899.672 8612.450 4034.333 5151.616 8374.839 12977.946 15841.152 5503.897 12648.236 9567.982 5795.424
10171.735 12794.082 6080.820 9597.116 6565.425 6767.311 10690.614 12528.935 10444.151 7886.253 9153.654 10006.366 9137.028 3893.621 17461.562 6239.138 13066.311 9215.928 9322.841 7670.550 7822.070 9293.453 16319.501 8889.517 8202.964 6530.013 17586.625 18222.289 19029.119 17758.178 19029.279 11379.920 18608.842 19197.201 8650.979 3295.984 11057.555 4235.799 13470.549 5863.990 0.000 13750.195 5860.677 10289.360 12815.521 16271.083 20237.365 8724.916 15941.373 14705.727 10996.507
5767.640 4132.067 8329.591 7166.146 8316.216 9195.642 5238.093 1594.170 9618.579 6687.652 8618.697 4681.140 9567.916 11537.067 14805.132 8583.261 10872.860 6005.472 5928.931 7697.118 7725.129 8734.058 13729.281 6254.806 7515.898 8498.533 8784.110 7736.951 9314.003 13327.930 8543.941 2623.388 8436.171 10813.488 6031.717 12471.422 10480.510 10556.460 1567.210 9335.943 13929.117 0.000 9707.815 3395.532 3101.378 13614.653 11228.602 6690.918 13284.942 2584.294 4097.938
5134.328 7829.965 2812.171 4149.330 2278.888 1322.657 5653.207 8479.852 5456.147 5360.664 3705.869 5546.010 4180.176 2673.073 12370.232 3065.842 8096.549 4251.811 6129.149 3054.145 2374.285 3845.667 11294.381 3925.400 2800.869 2922.648 12138.839 12884.991 13581.333 12666.848 13691.981 7330.837 13271.544 13749.416 5331.292 7524.721 6220.338 2983.755 10288.455 3462.823 5725.964 9701.112 0.000 6388.267 9810.745 11179.753 14789.579 8126.804 10850.042 9971.941 6536.150
3083.467 3455.258 4934.059 4535.808 4920.684 5965.419 2830.953 2239.574 6988.241 4133.543 5934.524 1285.608 6903.953 8141.535 12707.696 5187.730 8775.424 3321.299 2961.093 4301.587 4494.906 6070.094 11631.845 3570.633 4285.675 5103.001 9856.863 9112.043 10608.569 12538.293 9919.033 1090.560 9730.738 11683.919 3046.926 9827.617 7850.171 7160.929 4048.178 5940.411 10648.351 3460.835 6312.283 0.000 3572.515 11517.217 12482.951 5340.391 11187.507 4423.662 951.614
6744.483 6481.004 7805.574 8196.824 8657.473 9702.207 6214.937 3868.600 10649.257 5383.040 9595.541 5022.397 10564.970 10975.248 16110.463 8059.245 12178.191 6982.315 5160.327 8038.375 8231.695 9731.111 15034.612 7231.649 8022.464 8839.790 11928.906 10934.792 12504.164 15907.052 11741.782 3932.893 11626.333 13953.695 5295.152 11166.811 11511.188 9255.123 2480.921 8454.107 12624.506 3474.978 10049.072 3874.520 0.000 14919.984 14406.771 5386.307 14590.274 5724.502 3974.175
7990.683 9031.778 12140.489 7594.644 10570.019 9903.740 8389.002 11685.957 5693.141 13421.506 7201.853 10715.731 7686.216 12562.851 2042.561 12394.160 3015.928 8946.035 12629.254 10995.065 8880.925 6852.357 440.059 9036.691 8740.358 11271.567 7764.924 9987.580 8487.308 2374.696 10794.570 11497.846 9233.852 6616.146 12344.228 17061.239 4930.569 12520.273 14078.187 12791.141 15709.234 12907.217 10772.237 11007.190 14070.432 0.000 8460.711 15180.726 497.060 11378.376 10833.381
10119.357 8741.084 15142.073 10233.475 13653.201 13599.028 10517.676 11078.133 9859.379 15117.863 11049.129 12218.975 11533.493 16213.068 8999.652 15395.744 8271.349 11534.588 14132.498 13923.164 11964.108 10699.634 7692.674 11675.522 11823.541 14354.750 2860.726 4365.771 2106.920 6214.328 5172.761 11497.093 2853.464 1935.689 14031.246 20144.421 9508.664 15603.455 11978.819 15874.323 19146.360 10743.792 14383.816 11993.078 13577.836 7968.529 0.000 16683.971 8451.538 8445.330 12285.723
7581.301 8482.365 5320.769 8060.107 7185.806 8868.187 7573.601 6768.354 10687.524 2907.831 9230.641 5356.726 10027.748 8049.294 17027.629 5574.440 12766.348 7098.710 3346.022 6125.540 7595.264 9366.211 15951.778 6998.087 7386.034 6411.820 14883.970 14120.018 15626.600 17232.186 14927.008 6123.129 14748.768 16653.340 3238.450 6570.457 11731.505 6369.578 6340.958 5786.680 8460.326 6763.876 8577.405 5032.569 5524.309 15837.150 17510.058 0.000 15507.440 8921.670 5736.089
7913.303 8954.399 12063.110 7517.265 10492.639 9826.360 8311.622 11608.578 5615.761 13344.126 7124.473 10638.351 7608.836 12485.472 2661.322 12316.780 2938.549 8868.655 12551.874 10917.685 8803.546 6774.978 1218.322 8959.311 8662.979 11194.187 7794.833 10102.841 8679.277 3096.617 10909.831 11420.466 9425.821 7114.862 12266.848 16983.859 4853.189 12442.893 14000.807 12713.761 15631.854 12829.838 10694.857 10929.811 13993.053 784.289 8959.427 15103.346 0.000 11300.996 10756.001
5354.397 2630.023 9546.158 6328.327 8460.144 8794.022 4821.393 3414.329 8465.525 8518.653 7840.508 5943.877 8601.727 11229.485 12865.704 9799.829 9019.726 5603.852 7346.203 8390.280 7323.509 7767.868 11558.726 5853.186 7114.279 8827.621 6274.358 5343.034 6849.616 10813.589 6150.024 4227.101 5971.784 8299.147 7432.036 14485.886 9287.096 10619.872 4546.624 10435.705 14162.777 2990.346 9400.233 4795.851 5824.390 11761.519 8752.222 9413.930 11431.808 0.000 5498.257
3435.735 3982.814 5286.327 4888.076 5272.952 6317.687 3183.221 2772.593 7340.509 3601.793 6286.792 1637.876 7256.221 8493.803 13059.965 5539.998 9127.692 3673.567 2429.343 4653.855 4847.174 6422.363 11984.114 3922.901 4637.943 5455.269 10384.419 9639.599 11136.126 13008.162 10446.589 1623.578 10258.294 12153.789 2515.176 9812.497 8202.440 7499.845 4206.984 6292.680 10898.508 3993.853 6664.551 533.018 3311.317 11869.485 13010.507 4808.641 11539.775 4951.218 0.000
NODE_COORD_SECTION
1 -500.874011 70.822412
2 -1189.014212 -1927.237969
3 3333.246176 1819.115707
4 -803.370270 1460.969193
5 2190.388819 2312.433168
6 922.150963 3915.358487
7 -376.526573 -224.052693
8 743.499702 -3152.611082
9 -2545.282289 3149.197626
10 4207.559725 -344.418333
11 -1176.706175 2832.767241
12 1840.727049 -564.555606
13 -1077.797510 3368.678598
14 3443.146856 4632.544919
15 -8968.090380 3226.274443
16 3444.327764 1591.719711
17 -5010.715661 2937.292886
18 268.484075 759.311640
19 3064.581246 -792.192299
20 2296.553016 1598.613643
21 424.641228 2398.071733
22 -1303.178361 2852.012000
23 -7411.107998 2823.763996
24 362.282035 1038.546994
25 630.099890 2141.513455
26 2739.000085 2121.999273
27 -6283.792676 -2748.649065
28 -5920.487029 -4364.252606
29 -7232.659514 -3990.411437
30 -8823.241679 1359.069202
31 -6561.791978 -4644.265317
32 1134.854718 -2313.469860
33 -6554.773169 -4195.011301
34 -8453.910364 -2199.983596
35 3358.440333 -590.138268
36 8466.448362 3237.067402
37 -3329.075744 3668.916364
38 4000.085320 3276.905427
39 1876.709733 -4765.993148
40 3937.114845 1943.260589
41 6246.636345 4607.044519
42 953.341981 -4581.024254
43 1695.375491 3914.216512
44 1498.729844 -1475.742058
45 3444.398744 -4164.377231
46 -7472.188396 3107.091231
47 -8229.859927 -3229.057504
48 5805.192590 -1713.688370
49 -7373.447094 3284.313817
50 -1289.933912 -4013.437924
51 1628.021808 -1658.518605
DEMAND_SECTION
1 0
2 6
3 10
4 2
5 3
6 7
7 1
8 5
9 7
10 6
11 57
12 3
13 8
14 7
15 2
16 8
17 94
18 5
19 1
20 4
21 9
22 3
23 1
24 7
25 10
26 2
27 3
28 7
29 5
30 9
31 3
32 4
33 90
34 5
35 9
36 7
37 9
38 1
39 69
40 2
41 1
42 71
43 3
44 7
45 7
46 2
47 1
48 4
49 10
50 4
51 1
DEPOT_SECTION
1
-1
EOF
