NAME : mamut-san_francisco-n25-hyb
COMMENT : Mamut2026 euclidean metric; city san_francisco; 3-decimal seconds/meters; ENU ref in mamut-san_francisco-n25-hyb.vrp.json
TYPE : CVRP
DIMENSION : 26
EDGE_WEIGHT_TYPE : EXPLICIT
EDGE_WEIGHT_FORMAT : FULL_MATRIX
CAPACITY : 129
EDGE_WEIGHT_SECTION
0.000 14630.728 1645.916 1825.512 6012.118 6016.812 16285.154 2642.360 14829.729 1220.871 2913.550 535.076 2009.235 12356.186 12785.565 11278.344 5828.882 12828.322 3808.362 14625.908 15133.378 6744.377 1213.945 2804.354 12023.424 17367.523
14630.728 0.000 13017.410 15457.615 18652.658 19566.517 2155.945 14723.152 1977.808 13594.403 13273.608 14253.443 16457.579 23552.414 27031.546 25394.871 17465.153 26911.544 14954.592 26524.241 27327.310 17998.788 15741.987 13497.117 4547.396 5454.885
1645.916 13017.410 0.000 2719.520 7261.409 7150.549 14648.076 2756.279 13186.532 647.864 2137.980 1236.562 3622.411 13514.790 14415.458 12891.252 6808.970 14441.220 3785.411 15936.162 16494.380 7696.367 2727.344 2772.873 10582.033 15732.438
1825.512 15457.615 2719.520 0.000 7159.734 4431.291 16957.558 1309.679 15436.807 2071.794 2446.559 1711.918 2770.725 13483.632 12771.858 11402.308 7265.905 12931.742 2318.023 15516.671 15932.982 8177.720 1220.042 4625.340 13269.343 17675.810
6012.118 18652.658 7261.409 7159.734 0.000 9036.879 20597.361 8395.350 19338.921 7132.435 8925.476 6536.726 4390.208 6354.462 8765.047 7061.256 1476.831 8471.534 9477.032 8675.973 9258.726 1785.527 5942.970 5343.462 14980.272 22350.145
6016.812 19566.517 7150.549 4431.291 9036.879 0.000 20901.256 4859.834 19330.432 6502.983 6299.930 6081.715 5560.689 14636.386 11121.643 10215.058 9799.041 11548.641 4701.890 15917.851 16073.554 10593.061 4864.843 8706.379 17660.716 21167.722
16285.154 2155.945 14648.076 16957.558 20597.361 20901.256 0.000 16117.307 1608.706 15192.251 14668.892 15874.595 18174.550 25632.761 28853.159 27237.893 19451.969 28766.413 16222.413 28587.113 29377.025 20016.921 17348.988 15367.229 6698.164 3648.034
2642.360 14723.152 2756.279 1309.679 8395.350 4859.834 16117.307 0.000 14566.541 2210.006 1451.297 2276.162 4027.970 14738.594 14008.322 12669.878 8397.328 14191.980 1166.529 16813.600 17237.858 9313.963 2470.517 5234.086 12877.107 16641.466
14829.729 1977.808 13186.532 15436.807 19338.921 19330.432 1608.706 14566.541 0.000 13713.915 13121.487 14404.580 16746.966 24559.369 27474.590 25876.896 18244.805 27412.802 14643.732 27475.355 28241.258 18849.812 15868.724 14055.345 6182.344 3647.369
1220.871 13594.403 647.864 2071.794 7132.435 6502.983 15192.251 2210.006 13713.915 0.000 1899.709 712.711 3227.830 13445.950 13984.575 12489.629 6811.244 14039.253 3302.721 15783.378 16310.035 7715.725 2156.739 3090.709 11222.610 16183.453
2913.550 13273.608 2137.980 2446.559 8925.476 6299.930 14668.892 1451.297 13121.487 1899.709 0.000 2394.320 4751.347 15268.801 15193.148 13790.475 8689.246 15328.482 1963.019 17520.603 18007.044 9598.240 3313.504 4903.732 11524.354 15252.409
535.076 14253.443 1236.562 1711.918 6536.726 6081.715 15874.595 2276.162 14404.580 712.711 2394.320 0.000 2523.029 12875.452 13271.864 11778.312 6313.923 13327.798 3436.847 15158.603 15668.043 7227.038 1491.187 2991.605 11769.674 16894.230
2009.235 16457.579 3622.411 2770.725 4390.208 5560.689 18174.550 4027.970 16746.966 3227.830 4751.347 2523.029 0.000 10715.741 10793.715 9272.747 4609.257 10822.846 5088.728 12812.059 13270.160 5502.670 1559.450 3528.250 13576.207 19353.739
12356.186 23552.414 13514.790 13483.632 6354.462 14636.386 25632.761 14738.594 24559.369 13445.950 15268.801 12875.452 10715.741 0.000 8486.588 7299.133 6756.634 7733.054 15800.473 3059.749 3981.256 5941.748 12274.932 11234.063 19365.845 27838.947
12785.565 27031.546 14415.458 12771.858 8765.047 11121.643 28853.159 14008.322 27474.590 13984.575 15193.148 13271.864 10793.715 8486.588 0.000 1704.649 10201.830 829.635 14633.286 7459.988 7002.280 10101.339 11941.183 13543.603 23634.885 30147.454
11278.344 25394.871 12891.252 11402.308 7061.256 10215.058 27237.893 12669.878 25876.896 12489.629 13790.475 11778.312 9272.747 7299.133 1704.649 0.000 8497.241 1550.100 13372.254 6839.966 6594.932 8406.415 10500.471 11898.654 21952.166 28607.864
5828.882 17465.153 6808.970 7265.905 1476.831 9799.041 19451.969 8397.328 18244.805 6811.244 8689.246 6313.923 4609.257 6756.634 10201.830 8497.241 0.000 9875.160 9536.172 9393.959 10077.219 916.958 6059.744 4491.765 13667.065 21358.079
12828.322 26911.544 14441.220 12931.742 8471.534 11548.641 28766.413 14191.980 27412.802 14039.253 15328.482 13327.798 10822.846 7733.054 829.635 1550.100 9875.160 0.000 14870.760 6631.360 6175.164 9706.709 12043.946 13414.683 23419.151 30156.087
3808.362 14954.592 3785.411 2318.023 9477.032 4701.890 16222.413 1166.529 14643.732 3302.721 1963.019 3436.847 5088.728 15800.473 14633.286 13372.254 9536.172 14870.760 0.000 17797.275 18188.424 10451.810 3534.415 6370.194 13439.727 16488.137
14625.908 26524.241 15936.162 15516.671 8675.973 15917.851 28587.113 16813.600 27475.355 15783.378 17520.603 15158.603 12812.059 3059.749 7459.988 6839.966 9393.959 6631.360 17797.275 0.000 978.051 8675.319 14351.217 13872.886 22386.498 30693.984
15133.378 27327.310 16494.380 15932.982 9258.726 16073.554 29377.025 17237.858 28241.258 16310.035 18007.044 15668.043 13270.160 3981.256 7002.280 6594.932 10077.219 6175.164 18188.424 978.051 0.000 9401.611 14790.456 14527.301 23230.584 31422.353
6744.377 17998.788 7696.367 8177.720 1785.527 10593.061 20016.921 9313.963 18849.812 7715.725 9598.240 7227.038 5502.670 5941.748 10101.339 8406.415 916.958 9706.709 10451.810 8675.319 9401.611 0.000 6968.895 5296.321 14080.413 22023.965
1213.945 15741.987 2727.344 1220.042 5942.970 4864.843 17348.988 2470.517 15868.724 2156.739 3313.504 1491.187 1559.450 12274.932 11941.183 10500.471 6059.744 12043.946 3534.415 14351.217 14790.456 6968.895 0.000 3849.904 13225.175 18291.761
2804.354 13497.117 2772.873 4625.340 5343.462 8706.379 15367.229 5234.086 14055.345 3090.709 4903.732 2991.605 3528.250 11234.063 13543.603 11898.654 4491.765 13414.683 6370.194 13872.886 14527.301 5296.321 3849.904 0.000 10229.439 17009.545
12023.424 4547.396 10582.033 13269.343 14980.272 17660.716 6698.164 12877.107 6182.344 11222.610 11524.354 11769.674 13576.207 19365.845 23634.885 21952.166 13667.065 23419.151 13439.727 22386.498 23230.584 14080.413 13225.175 10229.439 0.000 9829.397
17367.523 5454.885 15732.438 17675.810 22350.145 21167.722 3648.034 16641.466 3647.369 16183.453 15252.409 16894.230 19353.739 27838.947 30147.454 28607.864 21358.079 30156.087 16488.137 30693.984 31422.353 22023.965 18291.761 17009.545 9829.397 0.000
NODE_COORD_SECTION
1 27567.380647 -311.862562
2 38257.799860 9676.787791
3 28538.966090 1016.693012
4 25888.914386 405.943791
5 28540.425734 -6244.715858
6 21553.927040 -512.874100
7 38424.235110 11826.298885
8 25872.749559 1715.523159
9 36957.000240 11166.634803
10 27910.377166 859.836616
11 27055.629237 2556.391717
12 27590.995832 222.692284
13 26855.440353 -2190.735905
14 30079.263644 -12410.035017
15 21628.207005 -11634.268768
16 23001.815504 -10624.798929
17 29894.807566 -5655.919675
18 22355.373881 -12033.672188
19 25092.789939 2582.964149
20 28326.578033 -14918.053311
21 27502.683222 -15445.102092
22 30311.322838 -6472.820801
23 26415.372131 -694.666816
24 30234.935720 -1177.051005
25 38289.055259 5129.499080
26 36230.288805 14740.874347
DEMAND_SECTION
1 0
2 2
3 4
4 2
5 3
6 5
7 52
8 7
9 5
10 7
11 70
12 4
13 1
14 79
15 10
16 3
17 1
18 82
19 4
20 9
21 9
22 6
23 62
24 9
25 86
26 2
DEPOT_SECTION
1
-1
EOF
