NAME : poryos-san_francisco-n10-poi
COMMENT : Poryos2026 euclidean metric; city san_francisco; 3-decimal seconds/meters; ENU ref in poryos-san_francisco-n10-poi.vrp.json
TYPE : CVRP
DIMENSION : 11
EDGE_WEIGHT_TYPE : EXPLICIT
EDGE_WEIGHT_FORMAT : FULL_MATRIX
CAPACITY : 108
EDGE_WEIGHT_SECTION
0.000 2030.155 14558.251 2796.732 2855.642 1663.307 3902.413 16006.607 1757.730 2862.972 3037.228
2030.155 0.000 12742.045 1790.239 4486.787 3669.502 2731.482 14145.409 634.626 1486.497 1852.084
14558.251 12742.045 0.000 13585.331 17228.651 15904.882 10877.935 1611.452 12816.467 13095.015 11601.596
2796.732 1790.239 13585.331 0.000 4098.790 4348.535 4434.158 14887.380 2361.570 502.524 3603.442
2855.642 4486.787 17228.651 4098.790 0.000 2498.090 6749.090 18628.181 4466.186 4477.158 5866.371
1663.307 3669.502 15904.882 4348.535 2498.090 0.000 5053.047 17392.689 3300.060 4482.928 4305.737
3902.413 2731.482 10877.935 4434.158 6749.090 5053.047 0.000 12391.823 2403.868 4017.370 913.903
16006.607 14145.409 1611.452 14887.380 18628.181 17392.689 12391.823 0.000 14255.215 14405.611 13087.155
1757.730 634.626 12816.467 2361.570 4466.186 3300.060 2403.868 14255.215 0.000 2104.189 1490.093
2862.972 1486.497 13095.015 502.524 4477.158 4482.928 4017.370 14405.611 2104.189 0.000 3219.736
3037.228 1852.084 11601.596 3603.442 5866.371 4305.737 913.903 13087.155 1490.093 3219.736 0.000
NODE_COORD_SECTION
1 27567.380647 -311.862562
2 26084.418944 -1698.352224
3 22059.761677 -13788.093734
4 24775.526836 -476.976999
5 27546.013525 2543.699329
6 29008.580132 518.520036
7 27190.189009 -4196.004172
8 20832.810362 -14832.780078
9 26702.547130 -1842.116571
10 24783.328017 -979.440060
11 27016.614788 -3298.735731
DEMAND_SECTION
1 0
2 74
3 8
4 5
5 9
6 2
7 4
8 55
9 8
10 55
11 80
DEPOT_SECTION
1
-1
EOF
