NAME : mamut-hong_kong-n50-hyb
COMMENT : Mamut2026 shortest metric; city hong_kong; 3-decimal seconds/meters; ENU ref in mamut-hong_kong-n50-hyb.vrp.json
TYPE : CVRP
DIMENSION : 51
EDGE_WEIGHT_TYPE : EXPLICIT
EDGE_WEIGHT_FORMAT : FULL_MATRIX
CAPACITY : 161
EDGE_WEIGHT_SECTION
0.000 5640.523 3851.716 16683.777 3824.671 8874.112 10470.316 5918.896 13967.100 9142.047 9155.193 2586.292 5276.272 8816.492 4358.575 10105.900 6809.257 14447.697 9847.594 4800.215 8841.450 15502.632 18362.765 6235.531 17183.688 5003.997 9696.612 4887.763 10079.282 4280.402 4915.254 15693.260 3433.113 16410.991 10224.821 14318.774 2956.516 12764.518 23430.815 14625.070 12565.489 15555.417 14385.811 3747.019 12633.412 8131.742 12249.854 5221.820 2676.594 13324.092 12155.792
5802.017 0.000 3235.722 18247.392 4124.690 5418.739 7723.429 2016.379 11220.214 5686.675 5699.821 4527.257 1480.041 5361.120 4738.573 6650.528 11190.948 13847.385 12460.427 2067.265 5386.077 12047.260 22659.425 1201.168 13728.316 2166.674 9290.104 3384.394 14460.973 2698.922 2333.434 12237.888 4896.639 17974.606 12264.994 13718.462 3978.276 12164.206 25385.712 11169.698 9110.117 12100.044 13785.499 2756.292 12033.100 10467.715 8794.482 1621.740 3842.861 14640.958 8700.420
4250.174 3103.447 0.000 17582.509 1328.709 6920.528 7038.331 2486.911 10535.115 7188.464 7201.610 2436.852 2109.794 6862.908 4562.089 7208.997 9963.022 14206.478 10093.294 1633.737 6887.866 13549.049 21516.530 3069.053 15230.104 1696.140 9667.244 1581.224 13233.047 1113.924 1472.991 13739.677 2277.653 17309.723 9920.889 14077.555 1483.101 12523.299 23126.883 12671.486 10611.905 13601.833 14144.592 2397.144 12392.193 7855.334 10296.271 3515.482 2340.937 12386.270 10202.208
16910.330 18478.081 17269.697 0.000 18068.524 21611.993 23889.971 19338.551 27386.755 21879.929 21893.075 17531.623 18695.928 21554.374 15672.625 22843.782 21311.514 11876.317 25778.257 18219.871 21579.331 22694.198 29365.500 19185.214 24260.822 18423.653 19345.206 18470.511 22126.427 17700.058 18334.910 22884.826 18405.895 2430.835 26049.131 11747.394 17391.205 10749.807 39255.125 27362.952 25303.371 22746.982 11814.431 16989.687 11403.205 23983.576 24987.736 17565.937 16387.790 28715.105 24893.674
3936.705 4160.522 1217.825 17965.627 0.000 8030.649 7159.622 3167.653 10656.406 8298.584 8311.730 2589.241 3159.226 7973.029 4945.206 7330.288 10045.958 14774.804 9044.493 2810.802 7997.987 14659.169 21284.177 4035.143 16340.225 2656.023 10235.569 1418.207 13000.693 2290.989 2242.838 14849.797 1405.767 17692.841 8872.088 14645.881 1570.522 13091.625 22048.215 13036.406 11722.026 14711.954 14712.918 3199.240 12960.519 6806.533 11406.391 4625.603 2724.055 11303.461 11312.329
8892.299 4803.917 6427.245 21337.673 7350.614 0.000 6954.909 6269.472 10090.655 1931.704 1594.278 7617.539 5501.699 1917.088 7828.854 3313.232 14281.229 13709.636 15895.736 5447.878 1386.868 8961.411 25749.707 5762.377 10642.466 5742.848 12380.385 6736.627 17551.254 6079.536 5834.534 9152.038 8080.094 21064.888 15723.331 13580.713 7140.359 13220.559 28929.324 7219.175 5159.594 9014.195 13160.838 5846.573 13089.454 13657.776 4843.959 5141.028 6933.143 18268.293 4749.897
10795.710 7834.774 7497.964 23738.445 7786.263 7422.205 0.000 6841.905 3926.671 5461.660 5765.418 9229.942 6833.478 7830.922 10718.024 4076.000 16184.641 19048.931 15101.274 7014.730 6042.693 14495.252 27738.149 7709.396 16061.877 6330.275 15115.602 6871.308 19454.666 7083.453 6190.259 14685.880 8289.807 23465.659 14905.841 18920.008 8272.284 18153.994 28026.558 6458.375 7145.300 14548.037 18500.133 8496.659 18022.888 13108.562 7711.482 8341.484 8789.251 17281.804 7936.934
5916.408 2034.756 2618.662 18859.142 2978.228 6494.571 6474.993 0.000 9971.777 6762.507 6775.652 4421.907 1033.460 6436.951 5520.171 6645.659 11305.339 14628.982 11211.990 1711.472 6461.909 13123.091 22858.847 1905.166 14804.147 1225.014 10071.701 2135.957 14575.363 2204.150 1084.998 13313.719 3927.171 18586.356 11016.557 14500.059 3464.249 12945.803 24137.275 12245.529 10185.948 13175.876 14567.096 3537.889 12814.697 9219.278 9870.313 2541.467 3909.949 13392.521 9776.251
13867.330 10906.394 10569.585 26810.065 10857.883 10493.825 3853.236 9913.525 0.000 8533.280 8837.038 12301.562 9905.098 10902.542 13789.644 7147.621 19256.261 22120.551 18172.894 10086.350 9114.314 17566.872 30809.770 10781.016 19133.497 9401.895 18187.222 9942.929 22526.286 10155.073 9261.879 17757.500 11361.427 26537.279 17977.461 21991.628 11343.904 21225.614 31098.179 5253.098 5940.024 17619.657 21571.754 11568.279 21094.508 16180.182 6506.205 11413.105 11860.872 20353.425 6731.658
9903.799 5815.417 7438.745 22349.174 8362.114 2668.566 5407.267 7280.972 8543.013 0.000 972.002 8629.039 6513.199 3318.591 8840.354 2097.346 15292.729 15111.138 16775.749 6459.378 1296.346 10362.913 26761.207 6773.877 12043.969 6754.348 13391.885 7748.127 18562.754 7091.036 6846.034 10553.541 9091.594 22076.388 16580.317 14982.215 8151.860 14622.062 29701.034 6914.800 5742.041 10415.698 14562.341 6858.073 14490.956 14669.276 5426.407 6152.528 7944.643 18956.280 5332.344
9357.609 5269.228 6892.555 21802.984 7815.924 1954.164 5594.134 6734.782 8729.880 429.168 0.000 8082.849 5967.009 2771.609 8294.165 2284.214 14746.540 14564.157 16361.046 5913.189 681.757 9815.932 26215.017 6227.688 11496.988 6208.159 12845.696 7201.938 18016.565 6544.846 6299.844 10006.560 8545.405 21530.198 16188.641 14435.234 7605.670 14075.081 29394.635 6200.398 5027.640 9868.716 14015.360 6311.884 13943.975 14123.086 4712.005 5606.339 7398.453 18733.604 4617.943
2044.306 4840.438 2102.612 16854.538 2051.168 8074.027 8855.675 4585.315 12352.459 8341.962 8355.108 0.000 3942.692 8016.407 3806.214 9026.341 8153.558 13895.336 9461.589 3466.635 8041.365 14702.547 19707.066 4901.951 16383.603 3670.417 9144.252 3114.260 11423.583 2946.822 3560.008 14893.175 1659.610 16581.753 9297.674 13766.413 1183.013 12212.157 22503.667 13824.985 11765.404 14755.332 13833.450 2946.934 12081.051 7232.119 11449.769 4421.735 1475.852 12249.193 11355.707
5979.378 1379.550 2803.920 18766.006 3692.888 6096.217 7291.390 1804.104 10788.174 6364.153 6377.299 4500.225 0.000 6038.598 5257.187 7328.006 11368.309 14365.999 12028.387 1769.610 6063.555 12724.738 22921.817 1190.135 14405.794 1734.634 9808.718 2952.354 14638.334 2267.120 1901.395 12915.366 4464.837 18493.221 11832.955 14237.076 3546.474 12682.820 24953.672 11847.176 9787.595 12777.522 14304.113 3274.906 12551.714 10035.675 9471.960 2143.113 3972.919 14208.918 9377.898
9589.314 5500.933 7124.260 21378.547 8047.629 1063.852 7690.648 6966.487 10826.394 2995.556 2658.130 8314.554 6198.714 0.000 8525.870 3965.334 14978.245 11824.295 16592.751 6144.894 2450.720 7076.070 26446.722 6459.393 8757.126 6439.864 13077.401 7433.643 18248.270 6776.551 6531.549 7266.698 8777.110 21105.761 16420.346 11695.372 7837.375 11335.219 29626.340 8079.085 6019.504 7128.854 11275.497 6543.589 11204.113 14354.791 5703.870 5838.044 7630.158 18965.309 5609.807
4632.645 4417.353 3465.159 15193.331 4388.528 7551.265 10085.434 5427.071 13582.218 7819.201 7832.347 4005.232 4659.299 7493.645 0.000 8783.054 9758.519 10557.464 12695.145 4415.333 7518.603 13051.166 19586.859 5124.485 14617.790 4619.115 5806.380 4665.974 12347.786 3895.520 4530.373 13241.794 4879.503 14920.545 12522.740 10428.541 3864.814 8874.285 25728.733 13302.223 11242.642 13103.950 10495.578 3027.181 8743.179 10457.185 10927.008 3505.209 2861.399 15188.714 10832.945
10687.350 6598.968 8222.296 23132.725 8623.864 4292.766 4702.631 7679.506 7838.377 2584.653 2888.411 9412.590 7296.750 4622.966 9623.905 0.000 16076.280 15856.471 15938.875 7242.930 3090.239 11302.792 27544.758 7557.428 12869.416 7167.876 14175.436 7708.909 19346.305 7874.587 7027.860 11493.420 9127.408 22859.939 15743.442 15727.547 8935.411 15367.394 28864.159 7731.957 7698.423 11355.576 15307.673 7641.624 15236.288 13946.163 7382.788 6936.079 8728.194 18119.405 7288.726
7122.840 11228.628 9439.821 20485.334 9945.434 14462.217 16058.421 11507.001 19555.205 14730.152 14743.298 8919.420 10864.377 14404.597 9859.015 15694.005 0.000 18284.810 10295.942 10388.320 14429.555 20960.243 13359.486 11823.636 22526.868 10592.102 15105.124 10640.636 5076.002 9868.507 10503.359 21150.871 9740.762 20212.548 10870.778 18155.887 9268.114 16601.631 23615.500 20213.175 18153.594 21013.028 18222.924 9335.124 16470.525 10912.011 17837.959 10809.925 8264.699 16104.361 17743.897
13883.014 13741.951 13477.341 11965.567 14400.710 11900.396 18145.319 14751.669 21281.065 13711.568 13462.368 14017.414 13983.896 11195.461 10643.012 14420.005 18284.198 0.000 22707.327 13930.076 13201.665 12248.616 26338.184 14449.083 13815.241 14225.046 13802.387 14560.498 19099.111 13852.132 14316.731 12439.244 14891.685 11692.781 22534.922 466.346 13876.996 3201.776 35740.916 18915.629 16856.048 12301.401 1020.587 12694.862 3483.349 20469.367 16540.413 12829.807 12873.581 25200.896 16446.351
9929.461 12581.873 9788.931 25356.216 9180.713 16543.262 15288.843 11589.004 18785.627 16811.198 16824.343 10082.001 11580.577 16485.642 12771.104 15459.509 9992.041 22860.226 0.000 11352.632 16510.600 23171.782 19916.770 12456.495 24852.838 11077.374 18109.141 10205.527 11633.287 10832.819 10755.452 23362.410 8352.971 25083.430 1331.989 22731.303 9279.140 21177.047 14405.116 21165.627 20234.639 23224.567 22798.340 11688.616 21045.941 3111.321 19919.004 13088.583 10440.742 7575.994 19824.942
4838.277 1785.558 1662.820 17781.012 2551.787 5927.062 6577.143 1551.569 10073.927 6194.998 6208.144 3359.124 791.905 5869.442 4749.035 6747.809 10227.208 13857.847 11134.247 0.000 5894.400 12555.583 21780.717 1751.164 14236.638 789.333 9300.566 1832.144 13497.233 1126.020 881.018 12746.211 3323.737 17508.226 10938.814 13728.924 2405.374 12174.668 24059.531 11678.020 9618.439 12608.367 13795.961 2539.226 12043.562 8901.418 9302.805 2292.268 2831.819 13314.777 9208.742
8812.261 4723.880 6347.207 21257.636 7270.576 1491.292 5970.121 6189.434 9105.867 899.951 552.419 7537.501 5421.661 2151.742 7748.817 2469.401 14201.192 13944.290 15815.698 5367.841 0.000 9196.065 25669.669 5682.340 10877.120 5662.811 12300.348 6656.590 17471.217 5999.498 5754.496 9386.692 8000.057 20984.850 15643.293 13815.367 7060.322 13455.213 28849.287 6327.038 5000.904 9248.849 13395.492 5766.536 13324.107 13577.738 4685.269 5060.991 6853.105 18188.256 4591.207
16378.871 12290.489 13913.817 22530.405 14837.186 8066.088 14437.073 13756.044 17572.819 9893.421 9644.221 15104.111 12988.271 7361.153 13193.678 10711.759 21246.726 12976.153 23382.308 12934.451 9383.519 0.000 29219.874 13248.950 2213.238 13229.421 16353.053 14223.199 21980.801 13566.108 13321.106 497.362 15566.666 22257.619 23209.903 12847.230 14626.932 12487.077 36415.896 15081.321 13021.740 359.519 12427.356 13333.145 12355.971 21144.348 12706.105 12627.600 14419.715 25754.865 12612.043
18604.448 22710.236 20921.430 28775.925 21414.320 25943.825 27540.029 22988.609 31036.813 26211.761 26224.907 20401.029 22345.986 25886.205 20001.532 27175.614 13427.760 26517.025 20276.004 21869.929 25911.163 29195.329 0.000 23305.245 30761.954 22073.710 23755.831 22122.244 9633.337 21350.115 21984.968 29385.957 20454.426 28503.139 20850.840 26388.102 20720.587 24833.846 11715.802 31694.783 29635.202 29248.114 26455.139 20816.732 24702.740 21388.667 29319.568 21937.475 19746.308 23350.345 29225.505
6065.246 658.279 3380.861 18775.920 4269.828 6077.019 7868.330 1835.604 11365.114 6344.954 6358.100 4789.758 1630.663 6019.399 5267.101 7308.807 11454.176 14375.913 12605.327 2253.482 6044.356 12705.539 23007.685 0.000 14386.595 2311.574 9818.632 3529.295 14724.201 2844.061 2478.335 12896.167 5041.778 18503.134 12409.895 14246.990 4123.415 12692.734 25530.612 11827.977 9768.396 12758.323 14314.027 3284.820 12561.628 10612.616 9452.761 2153.027 4106.090 14785.858 9358.699
17964.180 13875.798 15499.126 24084.985 16422.495 9651.396 15991.653 15341.353 19127.399 11478.730 11229.530 16689.420 14573.580 8946.462 14748.258 12266.339 22801.306 14530.733 24967.617 14519.759 10968.828 2090.852 30774.454 14834.258 0.000 14814.729 17907.633 15808.508 23535.381 15151.417 14906.415 1785.121 17151.975 23812.199 24795.212 14401.810 16212.241 14041.657 38001.205 16666.630 14607.049 2019.743 13981.936 14918.454 13910.551 22729.657 14291.414 14212.909 16005.024 27340.174 14197.352
4894.223 2022.060 1718.765 17836.958 2567.656 6017.799 6485.617 1489.970 9982.401 6285.735 6298.881 3415.070 1020.764 5960.179 4816.537 6656.284 10283.154 13948.584 11150.115 684.455 5985.137 12646.320 21836.662 1980.023 14327.375 0.000 9391.303 1848.013 13553.179 1181.966 896.886 12836.948 3379.682 17564.172 10954.682 13819.661 2461.320 12265.405 24075.400 11768.757 9709.176 12699.104 13886.698 2595.172 12134.299 8957.364 9393.542 2528.770 2887.764 13330.646 9299.479
5879.311 2736.588 2581.565 18822.045 2746.554 6939.296 5925.792 1743.719 9422.576 7207.232 7220.377 4354.414 1735.292 6881.676 5761.269 6096.459 11268.241 14870.081 10662.790 1916.544 6906.634 13567.816 22821.750 2611.210 15248.872 1232.090 0.000 1773.123 14538.266 2167.053 1092.073 13758.444 3851.323 18549.259 10467.357 14741.158 3396.757 13186.902 23588.075 11802.576 10630.673 13620.601 14808.195 3580.259 13055.796 8670.078 10315.038 3243.299 3872.852 12843.321 10220.976
5120.145 3277.420 1822.399 18062.879 1556.217 7147.547 6417.598 2284.551 9914.382 7415.482 7428.628 3430.081 2276.124 7089.927 5042.459 6588.264 10509.075 14411.943 10030.687 1927.700 7114.885 13776.067 22062.584 3152.041 15457.123 1772.921 9690.373 0.000 13779.100 1407.887 1359.736 13966.695 2838.797 17790.093 9858.282 14283.020 2472.423 12728.764 23034.409 12294.382 10838.924 13828.852 14350.057 2821.093 12597.658 7792.727 10523.289 3742.501 3113.686 12289.655 10429.227
10189.907 14295.695 12506.889 21514.941 12999.778 17529.284 19125.488 14574.068 22622.272 17797.220 17810.365 11986.488 13931.445 17471.664 12740.548 18761.073 5013.219 19256.041 11861.463 13455.387 17496.622 21934.345 9534.373 14890.704 23500.969 13659.169 16494.847 13707.703 0.000 12935.574 13570.427 22124.973 12039.885 21242.155 12436.299 19127.118 12306.046 17572.862 21250.175 23280.242 21220.661 21987.129 19194.155 12402.191 17441.756 12974.126 20905.026 13876.992 11331.767 17825.736 20810.964
4358.816 1989.523 1183.358 17301.551 2102.403 5806.604 6639.018 1643.371 10135.802 6074.540 6087.686 2879.663 995.870 5748.985 4281.130 6809.684 9747.747 13737.389 10659.917 519.813 5773.942 12435.125 21301.255 1955.130 14116.181 723.595 9180.108 1480.910 13017.772 0.000 761.796 12625.753 2844.275 17028.765 10487.512 13608.466 1925.913 12054.210 23693.506 11557.563 9497.982 12487.909 13675.503 2059.765 11923.104 8421.957 9182.347 2401.558 2352.357 13153.400 9088.285
4999.135 2251.136 1701.389 17941.869 2044.655 6453.843 6076.607 1273.062 9573.391 6721.779 6734.924 3488.334 1249.839 6396.223 4921.449 6247.273 10388.066 14384.628 10627.114 1431.091 6421.181 13082.363 21941.574 2140.553 14763.419 746.637 9750.107 1325.012 13658.090 1286.877 0.000 13272.991 2993.598 17669.083 10431.682 14255.705 2530.676 12701.449 23552.399 11953.391 10145.220 13135.148 14322.742 2700.083 12570.343 8534.953 9829.585 2757.846 2992.676 12807.645 9735.523
16511.401 12423.019 14046.347 22662.935 14969.716 8198.618 14569.603 13888.574 17705.349 10025.951 9776.751 15236.641 13120.801 7493.683 13326.208 10844.289 21379.256 13108.683 23514.838 13066.981 9516.049 439.264 29352.405 13381.480 1918.449 13361.951 16485.583 14355.730 22113.331 13698.638 13453.636 0.000 15699.197 22390.150 23342.433 12979.760 14759.462 12619.607 36548.427 15213.851 13154.270 234.622 12559.886 13465.675 12488.501 21276.878 12838.635 12760.131 14552.245 25887.395 12744.573
3327.924 4959.056 2125.323 17746.012 1729.755 8776.137 8420.049 4417.146 11916.833 9044.073 9057.219 2138.821 3965.403 8718.518 4697.688 8590.715 9437.176 14786.810 8369.212 3489.346 8743.475 15404.658 20568.778 4924.663 17085.713 3693.128 10035.725 2792.847 12285.294 2969.533 3331.951 15595.286 0.000 17473.226 8205.297 14657.887 1205.725 13103.631 21411.291 14296.833 12467.514 15457.442 14724.924 3825.331 12972.525 6139.742 12151.880 5300.132 2367.326 11166.771 12057.817
16634.094 18201.846 16993.461 2427.386 17792.289 21335.758 23613.736 19062.316 27110.520 21603.694 21616.839 17255.388 18419.692 21278.138 15396.390 22567.546 21035.278 11600.081 25502.022 17943.635 21303.096 22417.962 29089.265 18908.978 23984.587 18147.417 19068.970 18194.276 21850.192 17423.822 18058.675 22608.590 18129.659 0.000 25772.896 11471.158 17114.969 10473.571 38978.889 27086.716 25027.135 22470.747 11538.195 16713.451 11126.970 23707.341 24711.500 17289.702 16111.554 28438.870 24617.438
9958.780 11923.768 9265.151 25304.765 8656.933 15885.157 14630.738 10930.899 18127.522 16153.093 16166.238 9738.181 10922.472 15827.537 12256.441 14801.404 12059.266 22345.563 2594.714 10698.312 15852.495 22513.677 21983.996 11798.389 24194.733 10419.269 17594.478 9547.421 13700.512 10178.499 10097.347 22704.305 7829.192 25031.979 0.000 22216.640 8759.872 20662.384 14519.034 20507.522 19576.534 22566.462 22283.677 11164.837 20531.278 2791.934 19260.899 12430.478 9926.079 6986.752 19166.837
14030.108 13889.045 13624.436 12112.661 14547.805 12047.490 18292.414 14898.764 21428.159 13858.662 13609.462 14164.509 14130.991 11342.556 10790.106 14567.100 18431.292 181.753 22854.422 14077.170 13348.760 12395.711 26485.279 14596.178 13962.335 14372.140 13949.481 14707.593 19246.205 13999.226 14463.826 12586.339 15038.780 11839.876 22682.016 0.000 14024.090 3348.870 35888.010 19062.724 17003.143 12448.495 1167.682 12841.957 3630.443 20616.461 16687.508 12976.901 13020.675 25347.990 16593.446
2832.041 3861.060 1027.327 16544.893 1385.932 7678.141 8000.415 3510.030 11497.199 7946.077 7959.222 1018.719 2867.407 7620.521 3496.569 8171.081 8609.235 13585.690 9548.595 2391.350 7645.479 14306.661 20162.744 3826.666 15987.717 2595.132 8834.606 2227.052 11879.260 1871.537 2484.723 14497.289 1732.954 16272.107 9376.190 13456.767 0.000 11902.511 22582.184 13429.099 11369.518 14359.446 13523.804 2637.288 11771.405 7310.635 11053.883 4112.089 1166.206 12042.078 10959.821
12896.245 12782.896 12518.286 12338.782 13441.655 12112.229 18357.152 13792.614 21492.898 13923.401 13674.201 13058.359 13024.841 11407.294 9683.957 14631.838 17297.429 2261.805 21748.272 12971.021 13413.498 12460.449 25351.415 13490.028 14027.074 13265.991 12843.332 13601.443 18112.342 12893.077 13357.676 12651.077 13932.630 12065.997 21575.867 2132.882 12917.941 0.000 34781.861 19127.462 17067.881 12513.234 1783.848 11735.807 2382.740 19510.312 16752.246 11870.752 11914.526 24241.841 16658.184
23096.525 25061.513 22402.896 38442.510 21794.679 29022.902 27768.483 24068.644 31265.267 29290.838 29303.983 22875.926 24060.217 28965.282 25394.186 27939.149 23295.389 35483.308 14107.023 23836.057 28990.240 35651.422 33220.118 24936.135 37332.478 23557.014 30732.223 22685.167 24936.635 23316.244 23235.092 35842.050 20966.937 38169.724 13142.652 35354.385 21897.618 33800.129 0.000 33645.267 32714.279 35704.207 35421.422 24302.582 33669.023 15929.679 32398.644 25568.223 23063.824 12611.055 32304.582
15232.860 11144.479 12767.807 27678.235 13691.176 7442.321 7503.820 12610.033 6276.585 7044.544 7348.301 13958.100 11842.261 8347.464 14169.416 6944.319 20621.791 20140.012 21163.794 11788.440 7625.577 15391.787 32090.268 12102.939 17072.843 12083.410 18720.947 12933.828 23891.816 12420.097 12175.095 15582.415 14352.327 27405.449 20968.361 20011.089 13480.921 19650.936 34089.079 0.000 2857.644 15444.571 19591.214 12187.135 19519.830 19171.082 3423.825 11481.590 13273.704 23344.325 3649.278
12820.967 8732.585 10355.913 25266.341 11279.282 5323.742 7544.176 10198.140 6316.941 5433.566 5300.452 11546.207 9430.367 6228.885 11757.522 7288.613 18209.897 18021.433 19824.404 9376.546 5312.695 13273.208 29678.375 9691.045 14954.264 9671.516 16309.053 10665.295 21479.922 10008.204 9763.202 13463.836 12008.762 24993.556 19651.999 17892.510 11069.027 17532.357 32857.992 2693.372 0.000 13325.992 17472.635 9775.241 17401.251 17586.444 575.844 9069.696 10861.811 22196.961 801.297
16373.557 12285.176 13908.504 22525.092 14831.873 8060.774 14431.760 13750.731 17567.506 9888.108 9638.908 15098.797 12982.958 7355.840 13188.365 10706.446 21241.413 12970.840 23376.995 12929.137 9378.205 301.421 29214.561 13243.636 2153.071 13224.107 16347.740 14217.886 21975.488 13560.794 13315.793 234.622 15561.353 22252.306 23204.590 12841.917 14621.618 12481.764 36410.583 15076.008 13016.427 0.000 12422.043 13327.832 12350.658 21139.034 12700.792 12622.287 14414.401 25749.552 12606.730
13509.526 13565.434 13300.825 12055.137 14224.194 11526.908 17771.831 14575.153 20907.577 13338.080 13088.880 13840.898 13807.380 10821.974 10466.495 14046.517 17910.710 754.781 22377.453 13753.560 12828.178 11875.129 25964.696 14272.567 13441.753 14048.530 13625.870 14383.982 18725.623 13675.616 14140.215 12065.757 14715.169 11782.351 22358.406 625.858 13700.479 2959.788 35564.399 18542.142 16482.561 11927.913 0.000 12518.346 3478.830 20292.850 16166.926 12653.291 12697.064 25024.379 16072.864
4019.743 2987.556 1856.662 16591.052 2780.031 6121.468 8218.990 3667.570 11715.774 6389.404 6402.550 3046.956 3024.946 6063.848 3421.472 7353.257 9408.674 12700.990 11325.153 2548.889 6088.806 12749.989 20940.545 3694.688 14431.044 2752.671 8161.755 2915.087 12678.699 2029.076 2663.928 12940.617 3509.511 16318.266 11152.748 12572.067 2569.777 11017.811 24358.741 11872.426 9812.845 12802.773 12639.104 0.000 10886.705 9087.193 9497.211 1861.250 2060.587 13818.636 9403.148
12907.149 12361.346 12096.736 11253.377 13020.105 12186.647 18042.216 13371.064 21539.000 13997.819 13748.619 12636.809 12603.291 11481.713 9262.407 14706.257 17308.333 3418.820 21326.722 12549.471 13487.917 12534.868 25288.603 13068.478 14101.492 12844.441 12421.782 13179.893 18049.529 12471.527 12936.126 12725.496 13511.080 10980.591 21154.317 3289.897 12496.391 1535.063 34360.310 19201.881 17142.300 12587.652 3318.912 11314.257 0.000 19088.762 16826.665 11449.202 11492.976 23820.291 16732.603
8648.276 10613.264 7641.736 23681.350 7033.518 14492.228 13320.234 9620.395 16817.018 14760.164 14773.310 8114.766 9611.968 14434.609 10633.026 13490.900 10760.308 20722.147 3117.228 9205.437 14459.566 21120.749 20685.037 10487.885 22801.805 9108.765 15971.063 8096.610 12401.554 8685.624 8731.284 21311.377 6205.776 23408.564 3364.895 20593.224 7136.457 19038.968 16570.888 19197.018 18183.606 21173.533 20660.262 9541.422 18907.862 0.000 17867.971 11016.223 8302.664 7217.902 17773.909
12542.786 8454.404 10077.732 24988.161 11001.101 5045.561 7694.406 9919.959 6467.171 5155.386 5022.271 11268.026 9152.186 5950.704 11479.342 7010.432 17931.716 17743.252 19546.223 9098.366 5034.514 12995.027 29400.194 9412.865 14676.083 9393.336 16030.872 10387.114 21201.741 9730.023 9485.021 13185.655 11730.581 24715.375 19373.818 17614.329 10790.847 17254.176 32579.811 2843.602 691.194 13047.811 17194.455 9497.060 17123.070 17308.263 0.000 8791.515 10583.630 21918.780 569.113
5428.376 2126.097 3265.294 17322.290 4188.663 5260.009 8289.614 3135.815 11786.398 5527.945 5541.091 4455.588 2368.043 5202.389 3708.119 6491.798 10817.306 12922.282 12733.785 2314.222 5227.347 11888.530 21734.323 2833.229 13569.585 2609.192 8259.650 3602.971 14087.331 2945.879 2700.877 12079.157 4918.144 17049.504 12561.380 12793.359 3978.409 11239.103 25767.374 11010.967 8951.386 11941.314 12860.396 1831.189 11107.997 10495.825 8635.752 0.000 3469.220 15134.637 8541.689
2856.213 4166.701 1364.877 16180.802 1736.086 7400.290 8339.055 3847.581 11835.839 7668.226 7681.371 1199.186 3204.957 7342.670 3132.478 8509.721 8245.144 13221.599 9889.098 2728.900 7367.628 14028.810 19798.653 4164.216 15709.866 2932.682 8470.515 2565.692 11515.169 2209.087 2822.273 14219.438 2073.457 15908.016 9716.693 13092.676 1058.767 11538.420 22922.687 13151.248 11091.667 14081.595 13159.713 2273.197 11407.314 7651.138 10776.032 3747.998 0.000 12382.667 10681.970
13018.188 14575.610 12061.569 28309.727 11410.820 18597.121 17282.580 13582.741 20779.364 18865.057 18878.203 12783.554 13574.314 18539.502 15261.403 17453.247 15752.866 25350.525 7445.634 13410.277 18564.459 25225.642 26711.591 14450.232 26906.698 13071.112 20599.440 12259.386 18428.108 12890.463 12809.311 25416.270 10886.884 28036.941 7127.453 25221.602 11764.834 23667.346 12891.590 23159.364 22288.499 25278.426 25288.639 14042.984 23536.240 6806.148 21972.864 15082.321 12931.041 0.000 21878.802
12592.949 8504.568 10127.896 25038.324 11051.265 5095.725 7325.117 9970.123 6097.882 5205.549 5072.435 11318.189 9202.350 6000.868 11529.505 7060.595 17981.880 17793.416 19596.387 9148.529 5084.678 13045.191 29450.358 9463.028 14726.246 9443.499 16081.036 10437.278 21251.905 9780.186 9535.184 13235.818 11780.745 24765.538 19423.982 17664.493 10841.010 17304.339 32629.975 2474.313 409.697 13097.975 17244.618 9547.224 17173.233 17358.426 975.878 8841.679 10633.793 21968.944 0.000
NODE_COORD_SECTION
1 1438.942575 -1211.855723
2 1882.012250 -5979.995779
3 858.614156 -3739.175638
4 11702.106575 3237.190405
5 151.651824 -3445.452972
6 2659.333168 -8113.573634
7 -3154.229262 -8000.388369
8 811.510910 -5751.510925
9 -3072.095738 -9744.042350
10 945.995817 -8519.911428
11 1242.905609 -8521.008912
12 1075.622856 -2357.237710
13 1328.347890 -5552.596466
14 3340.165439 -7563.027616
15 3689.195135 -3012.485751
16 -92.970191 -7399.566658
17 2710.852844 2335.381988
18 10487.178738 -5544.548763
19 -4249.754269 2253.107529
20 1311.048820 -5083.128519
21 1684.953721 -8302.278803
22 7797.521317 -9945.396614
23 724.394253 10642.915879
24 1390.069746 -6242.620690
25 9158.652102 -10012.655047
26 1119.949307 -5171.199471
27 449.570355 -4626.287117
28 502.816003 -4209.259399
29 4153.445942 4643.860311
30 1171.287585 -4678.538248
31 745.995799 -4885.848309
32 7828.746437 -10016.859511
33 -29.221863 -2391.148717
34 10623.115236 3572.894974
35 -5226.507032 1960.699124
36 10500.373146 -5399.411380
37 892.606073 -2883.892606
38 10331.434941 -4045.585427
39 -7585.697083 8044.947281
40 -121.585522 -11006.930656
41 755.655600 -11578.364016
42 7634.053751 -10035.205360
43 10224.381696 -5262.960447
44 2272.682943 -4059.664925
45 10017.413834 -2829.149740
46 -3303.477536 436.908092
47 1285.714345 -11483.928906
48 2421.721709 -5270.634401
49 1534.823499 -3052.159105
50 -8005.749412 733.398510
51 950.148116 -11376.851647
DEMAND_SECTION
1 0
2 4
3 7
4 81
5 8
6 2
7 10
8 6
9 4
10 1
11 1
12 1
13 10
14 1
15 1
16 5
17 9
18 7
19 6
20 2
21 2
22 10
23 5
24 9
25 4
26 9
27 1
28 8
29 3
30 3
31 55
32 7
33 1
34 2
35 4
36 9
37 5
38 9
39 2
40 7
41 1
42 73
43 2
44 8
45 59
46 3
47 4
48 4
49 4
50 72
51 6
DEPOT_SECTION
1
-1
EOF
