NAME : poryos-lyon-n100-poi
COMMENT : Poryos2026 fastest metric; city lyon; 3-decimal seconds/meters; ENU ref in poryos-lyon-n100-poi.vrp.json
TYPE : CVRP
DIMENSION : 101
EDGE_WEIGHT_TYPE : EXPLICIT
EDGE_WEIGHT_FORMAT : FULL_MATRIX
CAPACITY : 190
EDGE_WEIGHT_SECTION
0.000 172.414 124.506 145.501 97.640 226.538 77.834 181.655 170.587 292.892 198.686 112.633 230.216 279.218 151.445 178.084 236.615 173.153 89.864 110.735 188.159 254.901 50.988 44.725 178.796 171.313 17.979 174.429 108.641 85.242 250.891 175.421 62.764 133.016 73.035 273.884 98.944 97.078 109.805 356.742 97.582 129.794 119.143 170.460 94.517 87.900 191.695 159.716 203.443 127.421 226.511 186.692 264.068 260.195 382.853 148.506 125.110 230.935 228.339 74.424 123.565 117.074 199.604 156.245 54.855 75.507 60.000 158.596 80.723 136.057 175.921 50.152 168.312 141.116 177.518 174.245 244.995 181.007 163.295 113.857 105.156 80.318 142.777 90.254 152.956 226.163 168.367 192.139 285.079 205.398 121.669 152.338 146.706 97.785 237.309 90.006 32.929 173.006 292.481 168.850 103.678
140.573 0.000 192.835 116.888 95.649 347.045 188.755 222.616 309.633 202.465 307.626 146.447 81.129 326.844 216.859 167.324 87.528 120.244 155.040 244.631 54.553 309.487 190.033 165.232 196.115 153.351 157.025 25.342 90.679 203.496 137.214 197.431 186.119 67.981 177.468 177.663 68.686 201.511 218.745 495.787 231.478 248.048 184.319 25.322 220.697 220.182 235.823 27.194 116.894 266.467 337.379 37.604 323.866 277.133 415.071 231.711 264.156 344.970 342.374 197.779 188.741 108.647 231.109 208.824 170.891 193.761 125.177 224.010 191.643 51.837 78.164 170.659 209.273 201.665 240.645 237.421 384.041 301.514 185.450 88.433 209.589 184.557 225.982 177.230 87.921 139.614 282.403 301.079 135.992 344.444 204.873 235.542 200.665 217.430 170.734 119.679 153.436 23.919 158.875 71.093 187.991
95.136 208.854 0.000 199.305 134.081 291.260 142.646 275.265 189.004 329.333 264.153 101.139 266.656 344.685 113.909 140.548 273.056 209.594 70.823 129.152 224.599 320.368 132.080 138.335 163.431 186.528 90.646 210.870 145.082 69.877 287.332 160.056 70.347 169.457 61.696 284.234 135.385 85.740 175.272 375.159 115.999 114.429 104.480 206.900 112.934 106.316 154.160 196.156 242.663 145.838 291.233 223.132 282.485 244.829 382.386 110.970 143.527 269.625 267.029 82.008 95.040 170.877 184.377 118.709 148.464 60.141 81.074 121.060 145.535 172.497 212.362 143.762 261.922 125.751 139.982 136.709 263.412 245.730 256.905 150.298 93.818 45.586 105.242 176.822 189.396 265.383 191.283 256.982 321.520 223.815 84.133 114.802 212.173 116.201 291.112 176.555 126.538 209.447 328.922 205.291 66.142
124.940 131.540 223.241 0.000 139.544 283.319 173.737 159.320 269.322 334.004 239.625 208.536 189.342 258.842 250.179 276.819 195.742 248.917 185.767 204.280 186.093 241.486 149.722 102.234 277.530 262.957 116.714 133.556 200.285 183.977 268.753 274.155 161.498 149.977 171.770 309.203 157.343 195.813 150.744 455.476 191.127 228.529 215.046 129.586 180.346 179.832 290.430 158.734 128.784 226.156 269.378 145.818 361.490 358.929 480.276 247.241 223.845 304.619 302.024 173.159 219.468 42.415 297.026 254.979 102.890 174.241 155.903 257.330 176.626 133.833 140.697 107.661 145.977 239.851 276.252 272.980 343.730 243.273 140.960 130.907 203.891 179.053 241.512 109.228 169.917 151.504 242.052 233.078 244.205 304.132 220.403 251.072 132.664 177.079 162.649 89.246 106.613 132.132 270.618 133.626 202.413
77.341 97.343 174.448 108.762 0.000 283.813 125.523 198.643 246.401 295.619 255.961 128.060 155.146 298.165 198.472 187.979 161.545 159.967 136.653 181.399 151.897 280.808 126.802 102.001 203.274 174.006 93.793 99.359 111.334 161.056 234.557 204.590 131.365 78.913 141.637 275.007 50.585 165.680 167.080 432.556 168.246 205.608 165.932 90.182 157.465 156.951 238.723 124.538 150.809 203.235 283.786 111.622 331.025 284.292 422.230 213.324 200.924 281.738 279.143 143.026 170.354 80.334 238.267 203.272 112.130 151.320 106.790 205.623 128.412 53.504 112.079 107.427 185.299 208.824 224.545 221.273 320.809 238.282 180.283 59.755 173.758 156.132 207.595 147.529 98.853 173.529 219.171 249.414 210.009 281.212 186.486 217.155 171.986 154.198 200.569 89.710 90.204 97.936 236.422 105.008 169.604
251.099 349.200 342.437 302.949 281.552 0.000 299.896 299.623 258.165 514.954 80.369 334.695 407.002 288.093 369.376 396.015 413.402 395.215 311.926 261.937 403.753 189.092 275.482 239.640 378.095 393.375 242.474 351.216 330.703 303.173 472.953 356.062 287.259 316.927 297.530 495.946 299.351 321.573 176.684 404.193 248.784 347.725 341.205 347.246 255.585 225.611 409.627 376.394 346.444 304.454 34.109 363.478 397.045 478.126 515.830 366.438 316.815 196.811 194.215 298.919 345.627 274.521 332.580 374.176 244.898 293.438 282.062 376.527 302.785 319.968 358.358 226.525 318.624 359.047 395.449 392.176 379.909 98.806 294.370 297.768 329.651 298.249 360.709 178.941 336.867 369.164 227.879 56.244 461.865 340.311 339.600 370.269 202.667 252.317 368.324 247.454 232.917 349.793 488.279 351.287 321.609
96.437 237.650 160.981 228.101 162.877 321.447 0.000 276.565 221.480 358.129 293.595 177.869 295.452 374.128 202.338 228.977 301.852 238.389 123.186 161.628 253.395 349.811 73.493 139.635 229.689 236.549 68.872 239.666 173.877 136.135 316.127 226.314 85.269 198.252 95.541 339.120 164.180 119.584 204.714 407.635 148.475 180.687 156.843 235.696 145.410 138.792 242.588 224.952 271.459 178.314 321.420 251.928 314.961 311.088 433.746 199.399 176.003 300.834 298.238 96.930 156.887 199.673 250.497 207.137 149.764 126.399 125.237 209.489 37.607 201.293 241.158 145.062 263.222 192.009 228.410 225.138 295.888 275.917 258.205 179.093 127.662 131.211 193.670 185.164 218.192 294.179 223.759 287.048 350.315 256.291 172.562 203.231 241.616 148.678 319.908 184.916 127.839 238.242 357.717 234.087 154.571
160.703 163.538 259.004 118.111 175.307 300.434 209.500 0.000 305.085 366.003 270.135 244.299 221.340 183.731 285.943 308.928 227.740 280.915 221.530 240.044 218.091 194.755 185.486 137.997 313.294 294.955 152.477 165.554 232.283 219.740 300.752 309.919 197.262 181.975 207.533 341.201 193.106 231.576 181.254 491.240 226.890 264.292 250.809 161.584 216.110 215.595 326.194 190.732 160.782 261.920 288.845 177.816 397.254 394.693 516.039 283.004 259.608 340.383 337.787 208.922 255.231 109.870 332.789 290.743 138.653 210.005 191.667 293.094 212.389 165.832 172.696 143.424 25.639 275.614 312.016 308.743 379.493 273.783 51.819 191.524 239.654 214.816 277.275 139.739 201.915 183.502 277.815 263.588 276.204 339.896 256.167 286.836 163.174 212.842 102.819 141.210 142.377 164.131 302.617 165.625 238.176
194.337 337.713 245.535 310.410 262.940 240.474 243.134 308.773 0.000 458.192 230.320 259.704 395.516 355.247 272.474 299.113 401.915 338.453 227.867 169.293 353.459 330.930 218.720 209.634 283.130 336.613 185.712 339.729 273.941 206.271 416.191 261.097 222.878 298.316 214.228 439.184 264.244 238.271 185.833 394.753 156.140 250.823 261.524 335.759 171.935 146.457 312.725 325.015 355.594 207.552 240.447 351.991 302.080 381.224 420.865 269.536 219.913 214.011 211.415 234.539 261.568 281.982 237.615 277.274 219.763 196.536 225.300 279.625 246.023 301.356 341.221 215.061 327.774 262.146 298.547 295.274 283.007 194.943 303.520 279.157 246.349 201.348 263.807 187.383 318.256 378.314 61.851 206.195 450.379 243.409 242.698 273.367 222.735 175.202 377.473 254.915 197.838 338.306 457.781 334.150 224.707
230.824 210.191 281.722 300.653 251.834 455.054 278.334 390.534 399.884 0.000 427.201 234.428 267.993 490.056 304.840 212.575 274.393 180.711 243.927 334.882 201.799 472.700 280.284 273.241 301.639 198.602 247.276 207.675 135.930 292.383 197.681 302.955 275.006 253.895 266.355 140.882 222.657 290.398 338.320 586.038 321.729 336.935 273.206 211.236 310.948 310.433 281.075 188.502 303.759 356.718 455.027 224.469 429.390 309.003 520.594 319.692 354.407 435.221 432.625 286.666 277.628 272.226 336.632 254.076 283.370 282.648 214.064 311.991 281.222 237.752 265.029 278.668 377.191 307.189 285.896 282.672 474.292 409.523 372.174 251.646 298.476 273.444 313.963 318.770 273.835 326.479 372.654 420.655 254.130 434.695 292.854 323.523 363.877 307.681 357.598 282.892 261.445 209.099 262.167 257.958 276.878
211.325 305.534 309.226 259.283 237.885 80.369 260.122 255.957 248.011 475.180 0.000 294.921 363.336 302.431 336.165 362.804 369.736 355.441 272.151 248.906 360.087 199.706 235.708 195.974 363.516 353.601 202.700 307.550 290.929 269.962 433.179 345.908 247.484 273.261 257.755 456.172 255.684 281.798 133.017 394.039 235.753 314.514 301.431 303.580 224.972 215.457 376.416 332.728 302.778 294.300 60.425 319.812 386.891 444.915 505.676 333.227 306.661 186.657 184.061 259.144 305.853 230.855 322.427 340.965 201.232 260.227 242.288 343.316 263.010 276.301 314.691 182.859 274.958 325.836 362.238 358.965 369.755 44.504 250.704 254.102 289.877 265.039 327.498 135.275 293.201 325.498 217.725 24.125 418.199 330.158 306.389 337.058 169.919 221.705 324.657 203.788 189.250 306.126 444.613 307.621 288.398
84.233 157.896 123.545 188.402 111.971 309.244 131.743 264.362 246.894 269.384 281.392 0.000 215.699 361.924 94.623 121.262 222.098 149.644 97.337 187.042 164.650 337.607 133.694 127.432 170.295 147.804 100.685 155.380 85.132 126.718 227.382 171.611 128.237 158.553 119.586 250.375 82.795 143.629 192.511 433.048 173.889 164.786 126.616 157.602 164.358 163.843 134.380 136.207 231.760 203.728 309.217 172.174 298.046 251.313 389.250 109.474 201.417 288.631 286.035 139.897 131.038 159.974 205.288 99.422 137.561 84.115 67.473 101.774 134.632 146.486 201.459 132.858 251.018 149.724 101.275 117.423 321.302 263.713 246.002 139.395 151.708 79.357 103.745 172.960 178.493 254.480 226.063 274.845 261.941 281.704 82.636 113.305 229.412 161.090 280.209 165.651 115.635 156.804 268.972 194.388 102.717
206.411 65.838 258.673 182.726 161.488 412.883 254.593 273.465 375.472 268.303 373.464 212.286 0.000 387.606 282.698 233.162 6.400 186.082 220.878 310.469 120.391 375.325 255.872 231.071 261.954 219.189 222.863 67.490 156.517 269.334 203.052 263.270 251.957 133.819 243.306 243.502 134.524 267.349 284.583 561.626 297.316 313.887 250.158 91.160 286.536 286.021 301.662 93.033 182.733 332.306 403.217 70.982 389.705 342.971 480.909 297.549 329.994 410.809 408.213 263.617 254.580 174.485 296.947 274.663 236.730 259.599 191.015 289.849 257.482 117.675 119.871 236.498 260.122 267.504 306.483 303.260 449.879 367.352 251.288 154.272 275.427 250.395 291.820 243.068 153.759 192.737 348.241 366.918 127.464 410.282 270.712 301.380 266.503 283.268 160.159 185.517 219.274 66.067 153.878 115.637 253.829
279.426 282.545 377.727 237.118 294.030 267.093 328.224 165.434 391.354 485.009 299.944 363.022 340.347 0.000 404.666 427.934 346.747 399.922 340.253 323.296 337.098 237.155 304.209 256.720 432.017 413.962 271.201 284.560 351.290 338.463 419.758 428.642 315.985 300.982 326.256 460.208 311.829 350.299 251.180 575.117 310.143 383.015 369.532 280.591 299.362 298.847 444.917 309.739 279.789 380.643 267.066 296.823 480.506 513.416 599.291 401.728 378.332 416.385 413.789 327.645 373.954 228.877 416.042 409.466 257.376 328.728 310.390 411.817 331.112 284.838 291.702 257.249 191.073 394.337 430.739 427.466 463.370 324.412 204.077 310.247 358.378 333.539 395.999 209.665 320.922 302.509 361.067 275.819 395.210 423.773 374.890 405.559 233.100 296.095 223.316 259.933 261.100 283.137 421.623 284.631 356.899
170.704 257.427 141.222 274.872 209.648 366.828 218.213 350.832 264.572 368.914 339.720 99.530 315.229 420.253 0.000 123.551 321.629 249.175 136.914 204.720 264.180 395.936 207.647 213.902 205.082 170.689 166.213 254.911 184.663 144.396 326.913 201.707 145.915 245.024 137.264 267.237 182.325 161.307 250.839 450.726 191.567 182.463 170.571 257.132 188.502 181.884 138.321 235.737 318.231 221.406 366.801 271.705 332.833 257.348 424.037 127.152 219.095 345.192 342.597 157.575 161.131 246.445 226.028 100.072 224.031 101.792 156.642 7.151 221.102 246.017 287.929 219.329 337.489 167.402 124.143 71.355 338.979 321.297 332.472 225.865 169.385 97.035 121.423 252.389 264.964 340.951 266.850 332.549 361.471 299.382 100.314 130.983 287.741 191.769 366.680 252.122 202.106 256.334 368.503 280.858 120.394
176.741 202.723 227.640 246.571 197.751 400.971 224.251 336.451 345.802 257.566 373.119 180.346 260.525 435.974 142.015 0.000 266.925 154.668 189.845 280.800 209.477 418.617 226.202 219.159 236.170 69.103 193.194 200.207 81.848 238.301 232.406 232.795 220.923 216.722 212.273 143.686 168.575 236.316 284.238 531.956 267.647 282.853 219.124 202.429 256.866 256.351 87.548 181.034 288.618 302.636 400.944 217.001 363.921 282.836 455.125 251.321 300.325 381.139 378.543 232.584 223.546 218.143 257.116 41.501 229.288 225.962 159.981 149.166 227.140 191.313 249.888 224.586 323.108 198.490 73.370 70.098 420.209 355.440 318.091 197.564 244.394 219.361 245.592 264.687 236.662 311.338 318.571 366.572 288.854 380.612 224.484 255.153 309.795 253.599 338.378 228.809 207.362 201.631 310.251 242.817 222.796
212.811 72.238 265.073 189.126 167.887 419.283 260.993 267.065 381.871 274.703 379.864 218.685 6.400 381.207 289.097 239.562 0.000 192.482 227.278 316.869 126.791 381.725 262.271 237.470 268.353 225.589 229.263 73.890 162.917 275.734 209.452 269.669 258.357 140.219 249.706 249.901 140.924 273.749 290.983 568.025 303.716 320.286 256.557 97.560 292.935 292.420 308.061 99.432 189.132 338.705 409.617 77.381 396.104 349.371 487.309 303.949 336.394 417.208 414.612 270.017 260.979 180.885 303.347 281.062 243.129 265.999 197.415 296.248 263.881 124.075 126.271 242.897 253.722 273.903 312.883 309.659 456.279 373.752 247.842 160.671 281.827 256.795 298.220 249.468 160.159 199.137 354.641 373.317 133.864 416.682 277.111 307.780 272.903 289.668 153.759 191.917 225.674 72.466 160.277 122.037 260.229
178.953 130.704 231.215 224.266 182.205 385.425 227.134 321.889 348.013 178.051 357.572 184.827 188.507 421.411 255.239 165.857 194.906 0.000 193.420 283.011 122.312 404.055 228.413 203.612 232.010 151.884 195.405 128.189 89.212 241.876 102.077 233.326 224.498 174.408 215.847 153.250 153.028 239.890 268.691 534.167 269.858 286.428 222.699 131.750 259.077 258.562 234.356 109.015 224.272 304.847 385.398 144.982 359.761 260.897 450.965 270.090 302.536 383.350 380.754 236.159 227.121 203.581 267.003 207.357 213.741 232.140 163.556 262.390 230.023 158.265 185.542 209.039 308.546 237.560 239.178 235.954 422.421 339.894 292.828 183.001 247.969 222.936 264.361 249.141 194.348 246.992 320.782 351.026 158.526 382.823 243.253 273.922 295.232 255.810 278.112 214.247 191.816 129.612 179.922 178.471 226.371
114.457 214.448 61.551 218.626 153.402 321.980 161.967 294.585 219.724 325.935 294.872 89.610 272.250 375.405 102.380 129.019 278.650 206.196 0.000 159.872 221.201 351.088 162.799 157.655 169.437 174.999 121.365 211.932 141.684 100.596 283.934 166.062 101.067 188.777 92.416 272.705 131.987 116.459 205.991 405.878 146.719 145.148 90.900 214.153 143.654 137.036 142.631 192.758 261.984 176.558 321.953 228.726 297.188 250.836 388.393 105.301 174.247 300.345 297.749 112.727 81.460 190.198 190.384 107.180 167.784 66.148 97.697 109.531 164.855 191.818 231.682 163.082 281.242 131.758 128.453 125.180 294.131 276.449 276.225 169.618 124.537 52.187 99.572 203.184 208.717 284.704 222.002 287.701 318.492 254.534 78.463 109.132 242.893 146.921 310.433 195.875 145.859 213.355 325.524 224.612 35.207
109.380 252.756 147.771 222.083 177.983 212.513 158.177 219.464 113.327 373.235 185.406 161.940 310.558 265.938 174.710 201.349 316.958 253.496 130.103 0.000 268.501 241.621 133.763 124.677 185.366 247.329 100.755 254.772 188.984 108.507 331.234 163.333 125.114 213.358 116.463 345.035 179.287 140.506 96.525 296.989 56.281 153.059 163.760 250.802 72.076 46.598 214.960 240.058 266.285 109.787 212.486 267.034 204.315 283.460 323.101 171.771 122.149 194.370 191.775 136.774 163.804 193.655 139.851 179.510 134.806 98.772 135.841 181.861 161.065 216.399 256.264 130.104 238.465 164.381 200.783 197.510 185.242 166.983 214.212 194.200 148.585 103.583 166.042 98.075 233.298 289.005 112.536 178.235 365.421 145.645 144.934 175.603 133.426 75.343 288.165 166.588 112.880 253.349 372.824 249.193 126.943
160.625 39.437 212.888 150.556 128.367 367.098 208.807 256.284 329.686 210.576 339.245 166.500 106.969 359.561 236.912 185.678 113.368 128.354 175.093 264.684 0.000 342.205 210.086 185.285 214.469 171.705 177.078 30.703 109.033 223.549 145.325 215.786 206.171 100.698 197.520 185.774 101.404 221.563 250.364 515.840 251.531 268.101 204.372 58.040 240.750 240.235 254.178 35.305 150.562 286.520 367.071 63.445 342.220 293.422 433.425 251.763 284.209 365.023 362.427 217.831 208.794 141.731 249.463 227.179 195.414 213.813 145.229 244.063 211.696 84.555 111.832 190.712 242.941 220.020 258.999 255.775 404.094 321.567 219.118 121.151 229.642 204.609 246.034 209.948 120.638 173.282 302.455 332.699 137.263 364.496 224.926 255.595 233.383 237.483 204.402 152.397 173.489 32.127 163.677 104.761 208.044
209.385 252.134 307.287 206.707 235.946 146.669 258.182 190.052 315.024 454.599 157.128 292.981 309.936 221.565 334.225 360.865 316.336 353.501 270.212 246.966 306.687 0.000 233.768 194.034 361.577 351.661 200.760 254.150 288.989 268.023 389.348 358.201 245.544 270.571 255.816 429.797 253.745 279.859 174.850 498.787 233.813 312.575 299.491 250.180 223.032 222.517 374.476 279.328 249.378 310.202 135.080 266.412 404.176 442.975 522.961 331.287 307.891 293.884 291.288 257.205 303.913 198.467 339.712 339.025 199.292 258.287 240.348 341.376 261.071 254.428 261.292 180.919 215.691 323.897 360.298 357.026 387.040 160.776 197.304 252.162 287.937 263.099 325.558 133.335 290.511 272.098 284.738 150.581 364.800 347.443 304.449 335.118 86.357 219.765 252.196 201.848 187.311 252.727 391.213 254.221 286.459
85.071 226.284 130.751 216.735 151.511 310.082 121.522 265.199 218.960 346.763 282.229 166.503 284.086 362.762 184.591 211.231 290.486 227.024 92.956 159.108 242.029 338.445 0.000 128.269 211.942 225.183 66.352 228.300 162.511 118.389 304.761 208.567 55.040 186.886 65.311 327.754 152.814 89.354 193.348 405.114 145.955 162.941 126.614 224.330 142.890 136.272 224.842 213.586 260.093 175.794 310.055 240.562 312.440 293.341 430.898 181.653 173.483 289.468 286.872 66.700 126.658 188.307 232.889 189.391 138.398 108.653 98.695 191.742 35.086 189.927 229.792 133.696 251.856 174.263 210.664 207.391 293.367 264.551 246.839 167.727 97.432 113.465 175.924 173.798 206.826 282.813 221.238 275.683 338.949 253.770 154.815 185.484 230.250 146.157 308.542 173.550 116.473 226.876 346.351 222.721 125.907
87.780 199.961 186.080 146.585 125.187 239.492 136.577 178.048 211.608 351.635 209.769 171.376 257.763 277.570 213.019 239.659 264.162 231.896 148.607 143.550 246.901 260.214 112.562 0.000 240.370 230.056 79.554 201.976 167.384 146.817 309.634 236.995 124.338 160.563 134.610 332.627 142.987 158.653 120.888 395.371 130.397 191.369 177.886 198.007 119.617 119.102 253.270 218.458 204.526 188.996 239.465 214.239 300.761 321.769 419.546 210.081 186.685 243.889 241.294 135.999 182.308 118.157 236.296 217.819 51.247 137.081 118.743 220.170 139.466 163.604 203.468 30.436 164.705 202.691 239.092 235.819 283.624 193.962 159.688 141.404 166.731 141.893 204.352 86.608 180.503 227.246 181.322 203.222 312.626 244.027 183.243 213.912 151.391 116.349 238.392 91.090 45.884 200.553 339.039 196.397 165.253
181.879 226.058 173.974 269.905 205.261 386.717 229.389 359.786 295.216 336.611 359.610 174.106 283.860 440.142 179.500 184.100 290.260 217.806 169.666 237.472 232.811 415.825 231.339 225.077 0.000 215.031 198.331 223.542 152.359 177.148 295.544 38.314 178.667 240.057 170.016 231.362 176.085 194.059 270.728 400.192 224.319 215.215 203.323 225.763 221.254 214.636 207.966 204.368 311.953 254.158 386.690 240.336 181.785 135.433 272.990 147.598 251.847 363.686 361.091 190.327 193.883 241.478 62.636 160.621 235.206 134.545 165.119 186.651 232.277 214.648 273.222 230.504 346.443 21.102 193.788 124.257 288.446 341.186 341.426 220.898 202.137 129.787 177.949 270.606 259.997 334.672 296.081 352.438 330.102 248.848 156.840 187.509 307.630 224.521 361.712 252.144 213.281 224.965 337.134 266.151 153.147
158.990 184.971 209.888 228.819 179.999 383.219 206.499 318.700 328.050 229.560 355.367 162.594 242.774 418.222 177.246 55.346 249.173 136.916 172.093 263.048 191.725 400.865 208.450 201.407 229.804 0.000 175.442 182.455 64.096 220.549 214.654 231.121 203.171 198.970 194.521 142.469 150.823 218.564 266.486 514.204 249.895 265.101 201.372 184.677 239.114 238.599 104.380 163.282 270.866 284.884 383.192 199.249 357.555 294.476 448.760 247.857 282.573 363.387 360.791 214.832 205.794 200.391 264.798 86.853 211.536 210.814 142.229 184.398 209.388 173.561 232.136 206.834 305.356 233.721 101.314 105.329 402.458 337.688 300.339 179.812 226.642 201.609 242.129 246.935 218.910 293.586 300.819 348.820 271.102 362.860 221.020 251.689 292.043 235.847 320.626 211.057 189.610 183.879 292.499 225.065 205.044
93.395 222.377 106.527 209.860 147.604 254.864 142.193 246.014 152.608 342.856 227.757 120.696 280.179 308.289 133.465 160.105 286.579 223.116 88.858 92.756 238.122 283.972 110.375 109.084 160.817 206.084 0.000 224.393 158.604 67.263 300.854 157.441 83.870 182.979 75.219 303.791 148.907 99.262 138.876 338.762 79.603 111.815 122.515 220.423 76.538 69.920 173.716 209.679 256.186 109.442 254.837 236.655 246.089 242.215 364.874 130.527 107.131 233.229 230.633 95.530 122.559 181.432 181.624 138.265 119.213 57.527 94.597 140.616 145.081 186.020 225.884 114.511 232.671 123.137 159.538 156.266 227.016 209.333 227.654 163.820 107.340 62.339 124.798 140.426 202.919 278.906 154.886 220.585 335.042 187.418 103.690 134.358 175.777 79.805 301.667 154.365 97.288 222.969 342.444 218.814 85.699
149.654 9.081 201.916 125.969 104.730 356.126 197.836 231.697 318.714 211.546 316.707 155.528 83.328 335.925 225.940 176.405 89.727 129.325 164.121 253.712 63.634 318.568 199.115 174.314 205.196 162.432 166.106 0.000 99.760 212.577 146.295 206.513 195.200 77.062 186.549 186.744 77.767 210.592 227.826 504.869 240.559 257.129 193.400 34.403 229.778 229.264 244.905 36.275 125.975 275.548 346.460 39.804 332.947 286.214 424.152 240.792 273.237 354.051 351.456 206.860 197.822 117.728 240.190 217.906 179.972 202.842 134.258 233.092 200.725 60.918 87.245 179.740 218.354 210.747 249.726 246.502 393.122 310.595 194.531 97.514 218.670 193.638 235.063 186.311 97.002 148.695 291.484 310.161 128.206 353.525 213.954 244.623 209.746 226.511 179.815 128.760 162.517 1.423 154.620 80.174 197.072
94.894 168.557 145.792 199.062 122.631 319.905 142.403 275.022 263.954 236.261 292.052 98.498 226.359 372.585 168.910 128.654 232.759 122.303 107.997 198.952 175.310 348.268 144.354 138.092 180.955 114.681 111.346 166.041 0.000 156.453 200.041 182.272 139.076 169.214 130.425 217.252 93.455 154.468 203.171 450.108 185.799 201.005 137.276 168.263 175.018 174.503 197.153 146.867 242.421 220.788 319.878 182.835 308.706 261.973 399.911 183.762 218.477 299.291 296.695 150.736 141.698 170.635 215.949 170.155 148.221 146.718 78.134 176.061 145.292 157.147 212.119 143.519 261.679 186.506 194.983 191.710 338.362 274.374 256.662 150.055 162.546 137.514 178.033 183.621 189.154 265.140 236.723 285.506 256.490 298.764 156.924 187.593 240.073 171.751 290.869 176.312 126.296 167.464 277.886 205.048 140.948
127.151 240.869 97.670 231.320 166.096 323.275 174.661 307.279 221.019 361.348 296.168 111.839 298.671 376.700 124.608 151.248 305.071 241.609 93.361 161.167 256.614 352.383 164.095 170.349 151.960 197.227 122.661 242.885 177.096 0.000 319.346 148.585 102.362 201.471 93.711 294.934 167.399 117.754 207.287 407.173 148.014 44.552 127.018 238.915 144.949 138.331 164.859 228.171 274.678 177.853 323.248 255.147 279.711 233.358 370.915 121.670 173.361 301.640 299.044 114.022 117.578 202.892 172.906 129.408 180.479 48.670 113.089 131.760 177.549 204.512 244.377 175.776 293.936 114.280 150.681 147.409 295.427 277.744 288.919 182.312 125.833 53.482 115.941 208.837 221.411 297.398 223.297 288.996 353.534 255.829 94.833 125.501 244.188 148.216 323.127 208.569 158.553 241.461 360.936 237.306 76.842
259.940 176.257 312.202 269.818 247.630 466.412 308.122 375.547 429.001 223.604 438.560 265.815 211.035 478.824 336.227 246.844 217.435 118.306 274.408 363.998 167.865 461.468 309.401 284.600 312.998 232.872 276.393 173.741 170.200 322.864 0.000 314.314 305.486 219.961 296.835 198.803 220.667 320.878 349.679 615.155 350.845 367.416 303.687 177.302 340.065 339.550 315.344 154.568 269.825 385.835 466.385 188.229 440.749 306.450 531.953 351.078 383.524 464.338 461.742 317.146 308.109 260.994 347.991 288.345 294.729 313.128 244.544 343.378 311.011 203.818 231.095 290.027 362.204 318.548 320.165 316.942 503.408 420.882 338.381 240.414 328.957 303.924 345.349 329.210 239.901 292.545 401.770 432.013 117.083 463.811 324.241 354.910 352.645 336.797 323.664 271.659 272.804 175.165 116.097 224.024 307.358
179.285 223.463 171.380 267.311 202.667 357.758 226.794 357.192 266.257 334.016 330.651 171.511 281.266 411.183 176.906 181.505 287.665 215.212 167.072 234.571 230.217 386.866 228.745 222.483 22.033 212.437 195.737 220.948 149.765 174.553 292.949 0.000 176.073 237.463 167.422 240.539 173.490 191.465 241.770 371.233 221.418 212.621 200.729 223.169 218.659 211.735 205.371 201.774 309.358 245.209 357.731 237.741 152.793 148.512 243.997 145.004 249.252 334.727 332.132 187.733 191.289 238.883 33.677 158.026 232.612 131.950 162.525 184.057 229.683 212.053 270.628 227.910 343.848 34.181 191.193 121.662 259.487 312.227 338.832 218.304 199.543 127.192 175.355 243.320 257.402 332.078 267.122 323.479 327.508 219.890 154.246 184.915 278.671 221.927 359.118 249.549 210.687 222.371 334.539 263.557 150.552
97.152 238.365 156.307 228.816 163.592 322.163 144.661 277.280 263.072 358.844 294.310 178.584 296.167 374.843 210.147 236.787 302.567 239.105 118.513 201.210 254.110 350.526 146.612 140.350 237.499 237.264 113.604 240.381 174.592 143.945 316.842 234.123 0.000 198.967 90.867 339.835 164.895 114.910 205.429 449.226 188.057 188.497 152.170 236.411 177.276 176.761 250.398 225.667 272.174 219.906 322.135 252.643 356.553 318.897 456.454 207.209 217.595 301.549 298.953 92.256 152.214 200.388 258.445 214.947 150.479 134.209 123.190 217.298 147.550 202.008 241.873 145.777 263.937 199.819 236.220 232.948 337.480 276.632 258.920 179.808 122.988 139.021 201.480 185.879 218.907 294.894 238.981 287.764 351.030 297.883 180.372 211.040 242.331 174.009 320.623 185.631 128.554 238.957 358.432 234.802 151.464
80.997 118.676 179.003 77.115 78.005 287.469 129.179 166.996 250.057 321.140 247.301 163.978 176.478 266.518 230.915 233.198 182.877 205.186 141.209 185.055 173.229 249.162 130.458 105.657 245.148 219.226 97.449 120.691 156.554 164.712 255.889 246.465 135.021 0.000 145.293 296.339 95.805 169.336 158.419 436.212 171.902 209.264 170.488 116.722 161.121 160.607 271.165 145.870 135.057 206.891 277.054 132.954 343.538 326.166 462.323 227.976 204.580 285.394 282.799 146.682 174.910 48.688 279.074 235.715 110.566 154.977 111.345 238.066 132.068 91.238 122.183 111.083 153.653 220.586 256.988 253.715 324.465 241.938 148.636 60.119 177.414 159.788 222.247 116.904 19.940 157.777 222.827 240.754 231.341 284.868 201.139 231.808 140.339 157.854 168.922 59.353 93.860 119.268 257.754 115.112 174.159
103.549 217.267 121.543 207.717 142.493 294.150 141.096 283.677 191.894 337.745 267.043 151.579 275.069 347.575 164.349 190.989 281.468 218.006 83.748 132.042 233.012 323.258 107.564 146.747 191.700 216.166 66.130 219.282 153.494 98.146 295.744 188.325 45.831 177.869 0.000 318.737 143.797 24.043 178.162 378.049 118.889 142.699 117.405 215.313 115.824 109.206 204.600 204.569 251.076 148.728 294.123 231.545 285.375 273.099 404.160 161.411 146.417 272.515 269.919 57.491 117.449 179.290 212.647 169.149 156.876 88.411 89.487 171.500 142.650 180.910 220.774 152.174 270.334 154.021 190.422 187.149 266.302 248.620 265.317 158.710 32.121 93.223 155.682 179.712 197.809 273.795 194.173 259.872 329.932 226.705 134.573 165.242 215.063 119.092 299.524 184.967 134.951 217.859 337.334 213.703 116.582
291.766 213.790 342.665 307.351 285.162 515.996 339.276 413.080 460.827 157.473 488.144 295.371 271.592 516.357 337.760 195.745 277.992 184.309 304.870 395.825 205.397 499.000 341.227 334.184 271.570 194.990 308.219 211.274 196.873 353.326 201.280 272.886 335.948 257.494 327.297 0.000 258.199 351.341 399.263 644.119 382.671 397.878 334.149 214.835 371.891 371.376 283.293 192.101 307.358 417.661 515.969 228.068 399.321 306.546 490.525 359.296 415.350 496.164 493.568 347.609 338.571 298.526 306.563 237.246 344.313 343.590 275.006 344.912 342.165 241.350 268.627 339.610 399.736 272.127 269.115 265.843 532.373 470.465 375.913 277.947 359.419 334.386 374.905 366.743 277.434 330.078 433.596 481.597 257.728 492.775 353.797 384.466 390.178 368.623 361.197 309.192 322.387 212.698 265.766 261.557 337.821
98.995 119.601 151.257 132.802 66.554 305.467 147.177 222.683 268.056 272.428 277.615 104.870 177.403 322.205 175.282 164.788 183.803 136.776 113.462 203.053 144.267 304.849 148.456 123.655 180.083 150.816 115.447 121.617 88.144 161.918 214.514 181.400 144.541 102.954 135.890 253.387 0.000 159.933 188.734 454.210 189.900 206.471 142.742 88.660 179.120 178.605 215.532 115.824 174.849 224.890 305.440 133.879 307.834 261.101 399.039 190.133 222.578 303.392 300.797 156.201 147.164 104.374 215.077 180.082 133.784 152.183 83.599 182.433 150.066 77.544 136.119 129.082 209.340 185.634 201.355 198.082 342.463 259.936 204.323 83.795 168.011 142.979 184.404 169.184 122.894 197.569 240.825 271.068 232.266 302.866 163.295 193.964 196.026 175.852 224.609 115.040 111.858 120.193 248.590 129.048 146.413
103.654 217.372 121.649 207.823 142.599 292.557 141.202 283.707 190.301 337.851 265.450 157.592 275.175 345.982 171.158 197.798 281.574 218.112 83.854 130.449 233.117 321.665 107.669 146.777 198.509 216.272 66.235 219.388 153.600 104.956 295.850 195.134 45.937 177.975 24.043 318.843 143.903 0.000 176.569 376.455 117.296 149.508 117.511 215.418 114.231 107.613 211.409 204.674 251.181 147.135 292.530 231.650 283.782 279.908 402.567 168.220 144.824 270.922 268.326 57.597 117.555 179.395 219.317 175.958 156.906 95.220 89.592 178.309 142.755 181.015 220.880 152.204 270.364 160.830 197.231 193.958 264.709 247.026 265.347 158.816 56.164 100.032 162.491 178.119 197.915 273.901 192.579 258.278 330.038 225.111 141.382 172.051 213.470 117.498 299.630 185.073 134.981 217.965 337.440 213.809 116.805
139.737 185.787 237.639 140.360 166.298 225.085 188.534 136.210 245.376 388.252 194.083 223.333 243.589 182.684 264.578 291.217 249.989 283.853 200.564 177.318 240.340 158.367 164.120 124.386 291.929 282.013 131.112 187.803 219.341 198.375 323.001 288.554 175.897 201.673 186.168 363.450 184.097 210.211 0.000 429.139 164.165 242.927 229.843 183.833 153.384 152.870 304.828 212.981 183.031 240.554 213.495 200.065 334.529 373.328 453.314 261.639 238.243 277.657 275.062 187.557 234.265 132.119 270.064 269.377 129.644 188.639 170.701 271.729 191.423 188.080 194.944 111.271 160.201 254.249 290.650 287.378 317.392 197.731 130.957 182.515 218.289 193.451 255.910 63.687 221.613 205.751 215.090 187.537 298.452 277.795 234.802 265.471 50.172 150.117 204.910 132.200 117.663 186.379 324.866 187.873 216.811
402.603 544.042 428.192 515.306 469.269 405.525 451.400 512.687 404.895 664.521 395.372 442.361 601.844 559.161 455.130 481.770 608.244 544.781 410.523 373.208 559.787 534.845 426.986 417.900 389.061 527.749 393.978 546.058 480.269 388.928 622.519 367.028 405.535 504.644 396.884 607.567 470.572 420.927 389.748 0.000 360.055 433.480 444.180 542.088 375.849 350.372 495.381 531.344 559.509 390.208 405.498 558.320 310.314 501.646 521.172 452.192 402.569 220.491 290.583 417.195 444.224 486.879 343.546 459.930 428.029 379.192 416.262 462.282 454.289 507.685 547.549 423.327 531.688 398.355 481.203 477.931 120.213 359.995 507.435 485.485 429.005 384.004 446.463 391.298 524.584 582.228 405.759 371.247 656.707 202.358 425.355 456.024 426.650 379.117 581.388 459.811 406.103 544.634 664.109 540.479 407.364
122.533 265.909 160.924 235.236 191.136 225.666 171.330 232.617 126.480 386.388 198.559 175.093 323.711 279.091 187.863 214.502 330.111 266.649 143.256 13.153 281.654 254.775 146.916 137.830 198.519 260.482 113.908 267.925 202.137 121.660 344.387 176.486 138.267 226.512 129.616 358.188 192.440 153.659 109.678 310.142 0.000 166.212 176.913 263.955 66.263 40.578 228.114 253.211 279.438 122.940 225.639 280.187 217.468 296.613 336.254 184.924 135.302 207.524 204.928 149.927 176.957 206.808 153.004 192.663 147.959 111.925 148.994 195.014 174.218 229.552 269.417 143.257 251.618 177.534 213.936 210.663 198.395 180.136 227.365 207.353 161.738 116.736 179.195 111.228 246.451 302.158 125.689 191.388 378.575 158.798 158.087 188.756 146.579 69.531 301.318 179.741 126.033 266.502 385.977 262.346 140.096
171.703 285.421 142.222 275.872 210.648 367.827 219.213 351.832 265.571 405.900 340.720 156.391 343.223 421.252 169.160 195.800 349.623 286.161 137.913 205.719 301.166 396.935 208.647 214.902 196.512 241.779 167.213 287.437 221.648 44.552 363.899 193.137 146.914 246.023 138.263 339.486 211.952 162.306 251.839 451.725 192.566 0.000 171.571 283.467 189.501 182.883 209.411 272.723 319.230 150.593 367.800 299.699 324.263 277.911 415.467 166.222 134.987 346.192 343.596 158.574 162.130 247.444 217.458 173.960 225.031 93.222 157.641 176.312 222.102 249.064 288.929 220.328 338.488 158.832 195.233 191.961 339.979 322.296 333.471 226.865 170.385 98.034 160.493 253.389 265.963 341.950 267.849 333.548 398.086 300.381 139.385 170.054 288.740 192.768 367.679 253.121 203.105 286.014 405.488 281.858 121.394
158.868 258.858 105.962 263.036 197.812 366.391 206.377 338.996 264.135 370.346 339.283 134.021 316.661 419.816 146.791 173.430 323.060 250.607 44.411 204.283 265.612 395.499 207.210 202.066 213.848 219.410 165.776 256.343 186.095 145.007 328.345 210.473 145.478 233.188 136.827 317.116 176.398 160.870 250.402 450.289 191.130 189.559 0.000 258.564 188.064 181.447 187.042 237.169 306.395 220.969 366.364 273.137 341.599 295.247 432.804 149.712 218.657 344.755 342.160 157.138 125.871 234.609 234.795 151.591 212.195 110.559 142.108 153.942 209.266 236.229 276.093 207.493 325.653 176.168 172.864 169.591 338.542 320.860 320.636 214.029 168.948 96.598 143.983 247.595 253.128 329.115 266.413 332.112 362.903 298.945 122.874 153.543 287.304 191.332 354.844 240.286 190.270 257.766 369.935 269.022 79.618
123.656 36.115 206.674 119.774 81.560 330.128 171.838 209.655 292.716 238.580 289.959 160.286 93.917 309.177 230.698 181.163 100.317 153.150 168.879 227.714 90.668 291.820 173.116 148.315 209.954 167.190 140.108 38.131 104.518 207.371 173.329 211.270 177.680 42.659 187.951 213.778 82.525 211.994 201.078 478.870 214.561 251.923 198.158 0.000 203.780 203.265 249.662 63.309 129.683 249.550 319.712 50.393 337.705 290.972 428.910 245.550 247.239 328.053 325.457 189.340 202.580 91.346 244.948 222.663 153.224 197.635 139.016 237.849 174.726 26.515 90.953 153.742 196.311 215.504 254.484 251.260 367.124 284.597 191.294 74.344 220.073 198.396 239.821 159.563 62.599 152.403 265.485 283.413 148.781 327.526 218.712 249.381 182.998 200.513 183.522 102.012 136.519 36.708 175.194 83.882 201.830
108.476 251.852 191.749 224.549 177.079 245.314 157.273 252.265 157.843 372.331 218.206 192.072 309.655 298.739 218.688 245.327 316.054 252.592 169.303 60.895 267.598 274.422 132.859 123.773 232.374 250.752 99.851 253.868 188.080 152.485 330.330 210.341 144.635 212.455 154.907 353.323 178.383 178.950 129.325 343.998 47.742 197.037 198.582 249.898 0.000 38.059 258.939 239.155 282.490 156.796 245.287 266.130 251.324 327.438 370.109 215.750 169.157 220.185 217.590 156.296 203.004 196.121 186.860 223.488 133.902 142.750 139.439 225.839 160.162 215.495 255.360 129.200 247.360 208.360 244.761 241.488 232.251 199.783 242.343 193.296 187.028 147.562 210.021 130.875 232.395 305.210 157.618 211.035 364.518 192.654 188.912 219.581 166.227 3.267 316.356 169.054 111.977 252.445 371.920 248.289 170.921
86.605 229.981 178.500 202.678 155.208 221.843 135.402 228.794 141.564 350.460 194.735 170.201 287.784 275.268 205.439 232.078 294.183 230.721 147.432 36.326 245.726 250.951 110.988 101.902 216.094 228.881 77.980 231.997 166.209 139.236 308.459 194.062 122.764 190.584 133.035 331.452 156.512 157.078 105.854 327.718 23.173 183.788 176.711 228.027 45.230 0.000 245.689 217.283 260.619 140.516 221.816 244.259 235.044 314.189 353.829 202.500 152.878 196.714 194.118 134.424 181.133 174.250 170.580 210.238 112.031 129.500 117.568 212.590 138.291 193.624 233.489 107.329 225.489 195.110 231.511 228.239 215.971 176.312 220.472 171.425 165.157 134.312 196.771 107.404 210.524 283.339 134.146 187.564 342.647 176.374 175.663 206.332 142.756 41.963 294.485 147.183 90.105 230.574 350.049 226.418 157.672
159.267 232.930 210.165 263.436 187.005 384.278 206.777 339.395 328.327 289.838 356.426 162.871 290.732 436.958 138.674 70.596 297.132 186.676 172.370 263.325 239.684 412.641 208.728 202.465 232.829 66.814 175.719 230.414 116.382 220.826 264.414 229.454 203.449 233.587 194.798 202.747 157.828 218.841 267.545 514.482 250.172 265.379 201.650 232.636 239.391 238.877 0.000 211.241 306.794 285.161 384.251 247.208 360.580 279.495 451.784 215.983 282.850 363.664 361.069 215.109 206.072 235.008 253.775 48.756 212.595 190.623 142.507 145.825 209.665 221.520 276.493 207.892 326.052 195.149 45.861 66.756 402.735 338.747 321.035 214.428 226.919 185.865 210.254 247.994 253.527 329.514 301.097 349.879 320.863 363.138 189.145 219.814 304.446 236.124 355.243 240.685 190.669 231.838 342.259 269.422 205.321
137.986 51.576 190.248 134.853 93.062 344.458 186.168 224.734 307.046 227.944 305.039 143.860 109.378 324.257 214.272 164.736 115.778 136.724 152.453 242.044 80.032 306.900 187.446 162.645 193.528 150.764 154.438 53.592 88.092 200.909 162.693 194.844 183.531 65.393 174.880 203.142 66.099 198.924 216.158 493.200 228.891 245.461 181.732 22.735 218.110 217.595 233.236 0.000 145.144 263.880 334.792 65.854 321.279 274.546 412.483 229.123 261.569 342.383 339.787 195.192 186.154 106.426 228.521 206.237 168.304 191.173 122.589 221.423 189.056 49.250 106.413 168.072 211.391 199.078 238.057 234.834 381.454 298.927 206.374 85.846 207.002 181.969 223.394 174.643 85.333 167.864 279.815 298.492 164.241 341.856 202.286 232.955 198.078 214.843 198.983 117.092 150.849 52.168 184.354 99.342 185.404
161.360 107.619 259.661 66.002 168.767 319.739 210.157 163.215 305.742 310.084 276.045 235.942 165.058 292.669 286.599 256.818 171.457 227.863 222.187 240.700 162.172 277.906 186.142 138.654 285.610 242.846 153.134 109.271 180.174 220.397 244.833 286.926 197.918 129.866 208.190 285.283 158.181 232.233 187.164 491.896 227.547 264.949 251.466 109.475 216.766 216.252 325.318 134.814 0.000 262.576 305.798 121.533 397.910 366.628 504.565 283.661 260.265 341.039 338.444 209.579 255.888 57.761 320.603 291.399 139.310 210.661 192.323 293.750 213.046 113.722 101.091 144.081 149.872 276.271 312.672 309.400 380.150 279.693 134.564 147.137 240.311 215.473 277.932 145.649 149.806 65.691 278.472 269.498 219.921 340.552 256.823 287.492 169.084 213.499 111.333 115.005 143.033 107.848 246.334 94.021 238.833
139.278 258.045 142.195 248.496 183.272 300.746 188.075 291.896 198.490 378.524 273.639 156.364 315.847 354.171 169.134 195.773 322.247 258.785 124.527 138.638 273.790 329.854 156.257 154.966 196.485 241.753 123.249 260.061 194.273 102.931 336.523 193.110 119.538 218.648 110.887 339.459 184.576 134.930 184.758 384.645 125.485 147.483 158.184 256.091 122.420 115.802 209.385 245.347 291.854 0.000 300.719 272.323 291.971 277.884 410.756 166.196 16.933 279.111 276.515 131.199 158.228 220.068 217.432 173.934 165.095 93.196 130.265 176.285 190.964 221.688 261.553 160.393 278.553 158.805 195.207 191.934 272.898 255.216 273.536 199.489 143.009 98.007 160.467 186.308 238.587 314.574 200.769 266.468 370.711 233.301 139.358 170.027 221.659 125.687 340.303 200.247 143.170 258.638 378.113 254.482 121.367
238.221 335.287 329.560 289.036 267.638 34.109 287.019 285.710 245.287 502.077 60.425 321.817 393.089 287.509 356.498 383.138 399.489 382.338 299.048 249.059 389.840 177.502 262.605 225.727 365.217 380.497 229.596 337.303 317.825 290.296 460.076 343.185 274.381 303.014 284.652 483.068 285.437 308.695 162.770 391.315 235.906 334.848 328.327 333.333 242.707 212.733 396.749 362.481 332.531 291.576 0.000 349.565 384.167 465.248 502.952 353.560 303.937 183.933 181.337 286.041 332.750 260.608 319.703 361.298 230.985 280.560 269.185 363.649 289.907 306.054 344.444 212.612 304.711 346.170 382.571 379.299 367.031 84.892 280.457 283.855 316.774 285.372 347.831 165.028 322.954 355.251 215.001 36.300 447.952 327.434 326.722 357.391 191.078 239.440 354.410 233.541 219.003 335.879 474.366 337.374 308.732
157.002 16.429 209.264 133.317 112.078 363.474 205.184 239.045 326.062 218.894 324.055 162.876 97.558 343.273 233.288 183.752 103.957 136.673 171.469 261.060 70.982 325.916 206.462 181.661 212.544 169.780 173.454 18.081 107.108 219.925 153.643 213.860 202.548 84.410 193.897 194.092 85.115 217.940 235.174 512.216 247.907 264.477 200.748 41.751 237.126 236.611 252.252 43.623 133.323 282.896 353.808 0.000 340.295 293.562 431.500 248.140 280.585 361.399 358.803 214.208 205.170 125.076 247.537 225.253 187.320 210.190 141.606 240.439 208.072 68.266 94.593 187.088 225.702 218.094 257.074 253.850 400.470 317.943 201.879 104.862 226.018 200.985 242.411 193.659 104.349 156.043 298.831 317.508 146.287 360.872 221.302 251.971 217.094 233.859 187.163 136.108 169.865 16.657 172.701 87.522 204.420
303.230 347.409 295.325 391.256 326.612 429.545 350.740 436.496 338.045 457.962 402.438 295.457 405.211 482.970 300.851 305.451 411.610 339.157 291.017 306.358 354.162 458.654 345.907 336.821 145.978 336.382 312.899 344.893 273.710 298.499 416.895 147.294 300.018 361.408 291.367 364.484 297.436 315.410 313.557 371.606 293.205 336.566 324.674 347.114 309.000 283.522 329.317 325.719 433.304 316.996 429.518 361.687 0.000 230.574 231.248 268.949 329.357 406.515 403.919 311.678 315.234 362.829 180.971 281.972 346.950 255.896 286.470 308.002 353.628 335.999 394.573 342.248 455.497 164.927 315.139 245.608 259.860 384.015 431.244 342.249 323.488 251.138 299.300 315.107 381.348 456.023 338.909 395.267 451.453 273.990 278.191 308.860 350.458 312.267 483.063 373.495 325.025 346.316 458.485 387.502 274.497
237.779 281.957 221.383 325.805 261.161 446.988 285.288 415.686 344.732 348.076 419.881 229.777 339.760 500.413 233.531 238.130 346.159 273.706 217.074 284.880 288.711 476.096 287.239 280.977 90.065 270.931 246.374 279.442 208.259 224.556 339.499 91.381 226.075 295.957 217.424 229.976 231.984 241.467 331.000 462.615 271.727 262.624 250.731 281.663 268.662 262.044 261.996 260.268 367.852 301.566 446.961 296.235 217.816 0.000 297.822 195.007 299.255 425.353 422.757 237.735 241.291 297.377 125.058 214.651 291.106 181.953 221.019 240.682 288.177 270.547 329.122 286.404 402.342 90.623 247.819 178.287 350.868 401.457 397.326 276.798 249.546 177.195 225.357 326.506 315.896 390.572 347.010 412.709 386.002 311.271 204.249 234.918 367.901 271.929 417.612 308.043 269.181 280.865 393.033 322.051 200.555
398.330 446.240 394.156 490.087 425.443 506.352 447.128 513.303 414.851 556.793 479.245 394.288 504.042 559.777 399.682 404.282 510.442 437.988 389.848 383.165 452.993 535.460 422.714 413.628 244.809 435.213 389.705 443.724 372.541 392.522 515.726 246.125 398.849 460.239 390.198 462.856 396.267 414.241 390.364 507.394 370.012 435.397 423.505 445.945 385.806 360.329 428.148 424.550 532.135 393.803 506.325 460.518 229.107 321.380 0.000 367.780 406.164 483.321 480.726 410.509 414.065 461.660 279.802 380.803 423.757 354.727 385.301 406.833 450.016 434.830 493.404 419.054 532.304 263.758 413.970 344.439 395.648 460.821 508.050 441.080 422.319 349.969 398.131 391.914 480.179 554.854 415.716 472.073 550.284 400.464 377.022 407.691 427.265 389.074 581.894 458.909 401.831 445.147 557.316 486.333 373.329
117.656 231.373 88.174 221.824 156.600 313.780 165.165 297.784 211.524 351.852 286.672 87.144 289.176 367.205 99.914 126.554 295.575 232.113 83.866 151.672 247.119 342.888 154.599 160.854 152.034 172.533 113.165 233.389 167.601 91.347 309.851 148.658 92.867 191.976 84.216 270.240 157.904 108.259 197.791 397.678 138.519 129.415 117.523 229.419 135.453 128.836 140.165 218.676 265.183 168.358 313.753 245.652 279.785 233.432 370.989 0.000 166.046 292.144 289.549 104.527 108.083 193.397 172.980 104.714 170.983 48.744 103.594 107.065 168.054 195.016 234.881 166.281 284.441 114.354 125.987 122.714 285.931 268.249 279.424 172.817 116.337 43.986 82.725 199.341 211.916 287.902 213.802 279.501 344.039 246.334 61.616 92.285 234.693 138.721 313.631 199.074 149.058 231.966 351.441 227.810 67.346
126.763 245.530 129.680 235.981 170.757 288.232 175.560 279.381 185.975 366.009 261.124 143.849 303.333 341.656 156.619 183.258 309.732 246.270 112.012 126.123 261.275 317.340 143.742 142.451 183.970 229.238 110.734 247.546 181.758 90.416 324.008 180.595 107.023 206.133 98.373 326.944 172.061 122.416 172.243 372.130 112.970 134.968 145.669 243.576 109.905 103.288 196.870 232.832 279.339 15.606 288.204 259.808 279.456 265.369 398.241 153.681 0.000 266.596 264.000 118.684 145.713 207.553 204.917 161.419 152.580 80.681 117.750 163.770 178.449 209.173 249.038 147.878 266.038 146.290 182.692 179.419 260.383 242.701 261.021 186.974 130.494 85.492 147.952 173.793 226.073 302.059 188.254 253.953 358.196 220.786 126.843 157.512 209.145 113.173 327.788 187.732 130.655 246.123 365.598 241.967 108.852
225.724 369.101 319.949 341.797 294.328 191.002 274.521 341.975 232.538 489.580 180.848 309.320 426.903 388.449 346.887 373.527 433.303 369.840 286.551 243.706 384.846 332.341 250.108 241.021 355.207 368.000 217.099 371.117 305.328 280.685 447.578 333.175 261.884 329.703 272.155 470.571 295.631 296.198 219.036 214.243 230.553 325.237 315.830 367.147 238.549 209.580 387.138 356.403 388.796 281.965 190.975 383.379 374.157 455.637 492.942 343.949 294.326 0.000 70.093 273.544 320.252 313.370 309.693 351.687 251.151 270.949 256.688 354.038 277.410 332.744 372.608 246.448 360.976 336.559 372.960 369.687 261.272 145.471 336.722 310.544 304.276 275.761 338.220 220.586 349.643 411.516 202.252 156.723 481.766 272.493 317.111 347.780 255.937 235.282 410.676 286.302 229.225 369.693 489.168 365.538 299.121
241.819 385.195 336.043 357.892 310.422 207.096 290.616 358.070 248.632 505.674 196.943 325.415 442.998 404.544 362.982 389.621 449.397 385.935 302.646 259.801 400.941 348.436 266.202 257.116 371.302 384.095 233.194 387.211 321.423 296.779 463.673 349.269 277.978 345.798 288.250 486.666 311.726 312.293 235.130 286.037 246.648 341.331 331.925 383.241 254.644 225.674 403.233 372.497 404.891 298.060 207.069 399.473 390.252 471.732 509.037 360.044 310.421 71.794 0.000 289.639 336.347 329.464 325.788 367.782 267.245 287.044 272.782 370.133 293.505 348.838 388.703 262.543 377.071 352.653 389.055 385.782 333.066 161.566 352.817 326.639 320.371 291.855 354.315 236.681 365.738 427.611 218.346 172.818 497.861 333.917 333.206 363.875 272.032 251.377 426.770 302.397 245.320 385.788 505.263 381.632 315.215
89.506 203.224 119.742 193.675 128.451 314.517 137.016 269.635 226.507 323.703 286.665 143.444 261.027 367.197 173.582 200.222 267.426 203.964 81.948 166.655 218.969 342.881 138.967 132.705 200.933 202.124 100.101 205.240 139.452 107.380 281.702 197.558 79.803 163.827 71.152 304.695 129.755 95.195 197.784 412.661 153.502 151.932 115.605 201.270 150.437 143.819 213.833 190.526 237.033 183.341 314.490 217.502 319.988 282.332 419.889 170.644 181.030 293.904 291.308 0.000 115.649 165.247 221.880 178.382 142.834 97.644 75.444 180.733 139.905 166.867 206.732 138.132 256.292 163.254 199.655 196.382 300.915 268.986 251.275 144.668 103.273 102.456 164.915 178.234 183.767 259.753 228.785 280.118 315.890 261.317 143.806 174.475 234.686 153.704 285.482 170.925 120.908 203.817 323.292 199.661 114.898
87.877 201.595 101.881 192.046 126.822 284.001 135.387 268.005 181.745 322.074 256.894 116.050 259.397 337.426 128.820 155.460 265.797 202.334 68.076 121.893 217.340 313.109 124.820 131.075 156.171 200.494 83.386 203.611 137.822 62.617 280.072 152.796 63.088 162.197 54.437 299.145 128.125 78.480 168.012 367.899 108.740 107.169 101.733 199.641 105.675 99.057 169.071 188.897 235.404 138.579 283.974 215.873 275.226 237.570 375.127 125.882 136.268 262.366 259.770 74.748 0.000 163.618 177.118 133.620 141.205 52.882 73.815 135.971 138.275 165.238 205.102 136.502 254.662 118.492 154.893 151.620 256.153 238.470 249.645 143.038 86.558 57.694 120.153 169.563 182.137 258.124 184.023 249.722 314.260 216.555 99.044 129.713 204.914 108.942 283.853 169.295 119.279 202.187 321.662 198.032 81.053
116.335 89.125 214.636 28.428 116.792 274.714 165.132 150.715 260.717 291.590 231.020 199.931 146.927 250.237 241.574 234.515 153.327 206.502 177.162 195.675 143.678 232.881 141.117 93.629 263.306 220.542 108.109 91.141 157.870 175.372 226.339 264.623 152.893 107.562 163.165 266.788 134.591 187.208 142.139 446.871 182.522 219.924 206.441 87.171 171.741 171.227 281.825 116.319 86.369 217.551 260.773 103.403 352.885 344.324 471.670 238.636 215.240 296.014 293.419 164.554 210.863 0.000 288.421 246.374 94.285 165.636 147.298 248.725 168.021 91.419 98.283 99.056 137.372 231.246 267.647 264.374 335.125 234.668 112.261 98.905 195.286 170.448 232.907 100.623 127.502 109.089 233.447 224.473 201.791 295.527 211.798 242.467 124.058 168.474 120.235 57.244 98.008 89.718 228.204 91.212 193.808
212.962 257.140 205.057 300.988 236.344 334.276 260.471 341.227 242.776 367.693 307.169 205.188 314.943 387.701 210.583 215.182 321.342 248.889 200.749 211.089 263.894 363.384 250.638 241.552 55.710 246.114 217.630 254.625 183.442 208.231 326.627 33.677 209.750 271.140 201.099 274.216 207.167 225.142 218.288 347.752 197.936 246.298 234.406 256.846 213.730 188.253 239.049 235.451 343.035 221.727 334.249 271.418 174.798 179.335 277.674 178.681 234.088 311.246 308.650 221.410 224.966 272.561 0.000 191.703 251.681 165.627 196.202 217.734 263.360 245.730 304.305 246.979 360.228 65.004 224.871 155.340 236.005 288.745 335.974 251.981 233.220 160.870 209.032 219.838 291.080 365.755 243.640 299.998 361.185 196.408 187.923 218.592 255.189 216.998 392.795 283.226 229.755 256.048 368.216 297.234 184.229
210.935 250.848 248.538 294.696 238.673 435.946 258.445 384.577 371.887 305.692 408.094 206.846 308.651 484.099 109.209 48.125 315.050 202.793 224.039 312.035 257.602 464.309 260.396 254.133 203.364 110.384 227.387 248.333 129.973 251.711 280.531 199.989 253.230 264.848 244.579 191.811 209.496 268.622 319.213 558.041 298.882 289.779 253.318 250.554 291.059 289.199 86.114 229.159 336.743 328.721 435.919 265.126 331.115 250.030 422.319 225.042 326.410 415.332 412.737 264.890 257.740 266.269 224.310 0.000 264.263 209.108 194.175 116.360 261.333 239.438 298.013 259.560 371.234 165.684 71.936 37.291 446.295 390.415 366.217 245.689 276.701 204.350 228.738 299.662 284.788 359.463 352.765 401.547 336.980 406.698 207.630 238.299 356.114 287.792 386.503 276.934 242.337 249.756 358.376 290.942 227.710
87.191 191.060 185.492 137.684 116.287 227.518 135.988 169.147 199.634 351.046 197.794 170.787 248.862 268.670 212.430 239.070 255.262 231.307 148.018 131.576 245.613 251.313 111.973 24.978 239.781 229.467 78.965 193.076 166.795 146.228 309.045 236.406 123.749 151.662 134.021 332.038 134.086 158.064 108.913 383.397 118.423 190.780 177.297 189.106 107.642 107.127 252.681 217.869 195.626 188.407 227.491 205.338 288.786 321.180 407.571 209.492 186.096 231.915 229.319 135.410 181.719 109.257 224.322 217.230 0.000 136.492 118.154 219.581 138.877 154.703 194.568 18.462 155.804 202.102 238.503 235.231 271.650 181.987 150.787 132.504 166.142 141.304 203.763 74.634 171.602 218.346 169.348 191.248 303.725 232.053 182.654 213.323 142.491 104.375 229.491 82.189 33.909 191.653 330.139 187.497 164.664
103.961 217.679 74.480 208.130 142.906 300.085 151.471 284.089 197.829 338.158 272.978 88.649 275.481 353.510 101.418 128.058 281.881 218.419 70.171 137.977 233.424 329.193 140.904 147.159 118.764 174.037 99.471 219.695 153.906 50.750 296.156 115.389 79.172 178.281 70.521 271.744 144.209 94.564 184.096 383.983 124.824 88.818 103.828 215.725 121.759 115.141 141.669 204.981 251.488 154.663 300.058 231.957 246.515 200.163 337.720 98.480 152.352 278.450 275.854 90.832 94.388 179.702 139.711 106.218 157.289 0.000 89.899 108.569 154.359 181.322 221.187 152.586 270.746 81.085 127.491 124.219 272.237 254.554 265.729 159.122 102.643 30.292 92.751 185.647 198.221 274.208 200.107 265.806 330.344 232.639 71.642 102.311 220.998 125.026 299.937 185.379 135.363 218.271 337.746 214.116 53.652
93.678 193.669 74.259 197.847 132.623 318.689 141.188 273.807 227.339 305.157 290.837 121.051 251.471 371.369 133.820 160.460 257.871 185.417 36.464 167.487 200.423 347.052 143.139 136.877 195.019 183.577 110.131 191.153 120.905 108.211 263.155 191.644 93.657 167.999 85.007 286.148 111.208 109.050 201.956 413.493 154.334 152.763 70.122 193.375 151.269 144.651 174.071 171.980 241.205 184.173 318.662 207.947 320.819 276.418 413.974 130.882 181.862 298.076 295.480 105.318 70.166 169.419 215.965 138.620 147.006 91.729 0.000 140.972 144.077 171.039 210.904 142.304 260.464 157.339 159.893 156.621 301.746 273.158 255.447 148.840 117.128 65.981 125.153 182.405 187.938 263.925 229.617 284.290 297.714 262.149 104.045 134.714 238.857 154.536 289.654 175.097 125.080 192.577 304.745 203.833 69.415
177.855 264.578 148.373 282.024 216.800 373.979 225.365 357.983 271.723 376.065 346.871 106.682 322.380 427.404 7.151 130.702 328.780 256.326 144.065 211.871 271.331 403.087 214.798 221.053 212.233 177.840 173.364 262.062 191.814 151.547 334.064 208.858 153.066 252.175 144.415 274.388 189.476 168.458 257.990 457.877 198.718 189.614 177.722 264.284 195.653 189.035 145.472 242.888 325.382 228.557 373.952 278.856 339.984 264.499 431.188 134.303 226.246 352.344 349.748 164.726 168.282 253.596 233.179 107.223 231.182 108.944 163.793 0.000 228.253 253.168 295.080 226.480 344.640 174.553 131.294 78.506 346.130 328.448 339.623 233.016 176.536 104.186 128.574 259.540 272.115 348.102 274.001 339.700 368.622 306.533 107.465 138.134 294.892 198.920 373.831 259.273 209.257 263.485 375.654 288.010 127.546
77.694 218.907 123.374 209.358 144.134 286.130 114.145 257.822 183.874 339.386 259.022 151.961 276.709 339.555 164.731 191.370 283.109 219.647 85.580 124.022 234.652 315.238 35.887 120.892 192.082 217.806 31.265 220.923 155.134 98.528 297.385 188.707 47.663 179.509 57.934 320.377 145.438 81.977 170.141 370.028 110.869 143.080 119.237 216.953 107.803 101.186 204.982 206.209 252.716 140.708 286.103 233.185 277.354 273.481 396.139 161.793 138.396 264.494 261.899 59.323 119.281 180.930 212.890 169.531 131.021 88.793 91.318 171.882 0.000 182.550 222.415 126.319 244.479 154.402 190.804 187.531 258.281 240.599 239.462 160.350 90.055 93.604 156.064 166.421 199.449 275.436 186.152 251.851 331.572 218.684 134.955 165.624 207.043 111.071 301.165 166.173 109.096 219.499 338.974 215.344 116.964
119.556 43.839 214.398 115.674 73.883 326.028 167.738 205.555 288.617 246.304 285.860 168.010 101.642 305.078 238.422 188.887 108.041 160.875 176.603 223.614 98.392 287.721 169.017 144.216 217.678 174.914 136.009 45.855 112.242 203.271 181.053 218.995 173.581 50.383 183.852 221.503 90.249 207.895 196.979 474.771 210.461 247.823 205.882 36.678 199.681 199.166 257.387 71.033 135.772 245.451 315.613 58.117 345.429 298.696 436.634 253.274 243.140 323.954 321.358 185.241 210.304 87.247 252.672 230.388 149.125 193.536 146.740 245.574 170.627 0.000 97.042 149.643 192.212 223.229 262.208 258.984 363.024 280.498 187.195 66.667 215.973 198.347 247.545 155.464 70.323 158.492 261.386 279.313 156.505 323.427 226.436 257.105 178.899 196.413 189.611 97.913 132.420 44.432 182.918 89.971 209.554
225.673 108.621 297.140 154.932 183.578 408.670 273.855 236.453 394.673 311.085 364.975 250.752 94.570 368.141 321.164 271.629 90.254 228.864 259.345 329.631 163.174 366.836 275.073 227.584 300.420 257.656 242.065 110.272 194.984 307.801 245.834 301.736 279.697 144.676 281.773 286.284 172.991 305.816 276.094 580.827 316.478 352.353 288.624 124.285 305.697 305.182 340.128 135.815 106.225 351.507 394.728 114.099 428.171 381.438 519.376 336.016 349.196 429.970 427.374 291.358 293.046 146.692 335.414 313.129 228.240 298.066 229.482 328.315 276.744 128.533 0.000 233.011 223.110 305.970 344.950 341.726 469.080 368.623 216.954 176.362 313.894 288.862 330.287 234.579 164.616 109.678 367.402 358.429 192.694 429.483 309.178 339.847 258.014 302.430 123.147 203.935 231.964 108.849 219.107 29.299 292.296
80.282 223.659 178.184 178.095 148.886 213.806 129.080 209.559 185.921 344.138 179.332 163.878 281.461 259.865 205.123 231.762 287.861 224.399 141.109 117.864 239.404 235.548 104.666 64.932 232.474 222.558 71.658 225.675 159.886 138.920 302.137 229.099 116.442 184.261 126.713 325.129 150.190 150.756 90.451 369.684 104.710 183.472 170.388 221.705 93.930 93.415 245.374 210.961 236.037 181.100 209.085 237.937 275.074 313.873 393.859 202.185 178.788 218.203 215.607 128.102 174.811 149.668 210.609 209.923 102.894 129.185 111.246 212.274 131.968 187.302 227.167 0.000 196.215 194.794 231.196 227.923 257.938 168.275 191.198 165.103 158.835 133.996 196.456 69.371 204.201 258.757 155.635 172.786 336.324 218.340 175.347 206.016 127.353 90.662 269.903 122.600 58.208 224.251 343.726 220.096 157.356
191.477 194.312 289.778 148.885 206.081 274.795 240.275 30.774 312.030 396.777 260.737 275.073 252.115 158.092 316.717 339.702 258.514 311.690 252.304 243.972 248.865 169.116 216.260 168.771 344.068 325.729 183.252 196.328 263.057 250.514 331.526 340.693 228.036 212.749 238.307 371.976 223.880 262.350 171.856 495.793 230.819 295.066 281.583 192.358 220.038 219.523 356.968 221.506 191.556 292.694 263.206 208.590 401.182 425.467 519.967 313.779 290.383 344.311 341.715 239.696 286.005 140.645 336.718 321.517 169.428 240.779 222.441 323.868 243.163 196.606 203.470 174.198 0.000 306.388 342.790 339.517 384.046 264.385 82.593 222.298 270.429 245.590 308.050 130.341 232.689 214.276 281.744 254.190 306.978 344.449 286.941 317.610 153.776 216.771 133.593 171.984 173.151 194.905 333.391 196.399 268.950
165.524 209.703 157.620 253.551 188.906 382.707 213.034 343.431 280.969 320.256 355.600 157.751 267.505 436.132 163.146 167.745 273.905 201.451 153.311 221.117 216.457 411.815 214.985 208.723 37.680 198.677 181.977 207.187 136.005 160.793 279.189 34.305 162.312 223.702 153.661 215.008 159.730 177.704 266.719 396.183 207.964 198.861 186.969 209.409 204.899 198.281 191.611 188.014 295.598 237.803 382.680 223.981 165.431 119.079 256.635 131.244 235.492 359.677 357.081 173.973 177.528 225.123 58.626 144.266 218.852 118.190 148.764 170.297 215.923 198.293 256.868 214.150 330.088 0.000 177.433 107.902 284.436 337.176 325.071 204.543 185.783 113.432 161.594 254.251 243.642 318.318 283.248 348.429 313.748 244.839 140.486 171.155 303.620 208.166 345.358 235.789 196.926 208.611 320.779 249.797 136.792
162.850 236.513 205.304 267.019 190.588 387.861 210.360 342.978 328.653 304.217 360.008 152.331 294.315 440.541 140.408 73.370 300.715 190.259 175.953 266.908 243.267 416.224 212.310 206.048 235.603 90.772 179.302 233.997 119.965 208.477 267.997 232.228 207.032 237.170 198.381 217.056 161.411 222.424 271.127 514.807 253.755 246.545 205.232 236.219 242.974 242.459 58.404 214.823 310.377 285.487 387.834 250.791 363.354 282.270 454.559 191.233 283.176 367.247 364.651 218.692 209.654 238.591 256.550 51.531 216.177 165.874 146.090 147.560 213.248 225.103 280.075 211.475 329.635 197.924 0.000 69.531 403.061 342.330 324.618 218.011 230.502 161.116 185.504 251.577 257.110 333.097 304.680 353.462 324.446 363.463 164.396 195.064 308.029 239.707 358.826 244.268 194.252 235.420 345.842 273.005 184.476
208.530 262.566 211.246 306.414 236.268 433.541 256.040 388.658 334.596 317.409 405.689 169.555 320.368 486.221 71.918 59.843 326.768 214.511 206.938 274.744 269.320 461.904 257.991 251.728 166.072 116.077 224.982 260.050 141.691 214.420 292.248 162.697 215.939 276.565 207.288 203.529 207.091 231.331 316.808 520.750 261.591 252.487 240.595 262.272 258.526 251.908 83.709 240.877 348.461 291.430 433.514 276.844 293.823 212.739 385.028 187.751 289.119 412.927 410.332 227.599 231.155 277.986 187.019 36.364 261.858 171.817 191.770 79.069 258.928 251.156 309.731 257.155 375.315 128.393 69.531 0.000 409.003 388.010 370.298 257.406 239.409 167.059 191.447 297.257 296.505 371.181 336.874 399.142 348.697 369.406 170.338 201.007 353.709 261.793 398.221 288.652 239.932 261.474 370.093 302.660 190.419
282.390 423.829 307.979 395.093 349.056 385.524 331.187 392.474 284.682 544.308 358.416 322.148 481.631 438.948 334.917 361.557 488.031 424.568 290.310 252.995 439.574 414.632 306.773 297.687 268.848 407.536 273.765 425.845 360.056 268.715 502.306 246.815 285.322 384.431 276.671 487.354 350.359 300.714 269.535 111.747 239.842 313.267 323.967 421.875 255.636 230.159 375.168 411.131 439.295 269.995 385.496 438.107 201.007 389.364 408.891 331.979 282.356 261.408 331.501 296.982 324.011 366.666 223.333 339.717 307.816 258.979 296.049 342.069 334.076 387.472 427.336 303.114 411.475 278.142 360.990 357.718 0.000 339.993 387.222 365.272 308.792 263.791 326.250 271.085 404.371 462.015 285.546 351.245 536.494 82.145 305.142 335.811 306.437 258.904 461.175 339.598 285.890 424.421 543.896 420.266 287.151
204.235 309.182 295.573 262.930 241.533 98.272 253.032 259.605 211.301 468.090 44.504 287.831 366.984 306.079 322.512 349.151 373.384 348.351 265.062 215.072 363.356 203.708 228.618 199.622 331.231 346.511 195.610 311.198 283.839 256.309 426.089 309.198 240.394 276.909 250.665 449.082 259.332 274.708 136.665 357.328 201.919 300.861 294.341 307.228 208.720 178.747 362.762 334.913 306.426 257.589 84.330 323.460 350.180 431.262 468.966 319.573 269.951 149.946 147.350 252.054 298.763 234.503 285.716 327.311 204.879 246.573 235.198 329.663 255.921 279.949 318.339 186.507 278.606 312.183 348.585 345.312 333.044 0.000 254.352 257.750 282.787 251.385 313.844 138.922 296.849 329.146 181.014 48.031 421.847 293.447 292.736 323.405 173.567 205.453 328.305 207.436 192.898 309.774 448.261 311.268 274.745
108.885 111.720 207.185 66.293 123.488 262.011 157.682 119.842 253.267 314.184 218.316 192.481 169.522 219.364 234.124 257.109 175.921 229.097 169.711 188.225 166.273 214.922 133.667 86.179 261.475 243.137 100.659 113.735 180.465 167.921 248.933 258.100 145.443 130.157 155.714 289.383 141.288 179.757 129.435 439.421 175.072 212.474 198.991 109.765 164.291 163.776 274.375 138.914 108.964 210.101 248.069 125.998 345.435 342.874 464.220 231.186 207.790 288.564 285.968 157.103 203.413 58.052 280.971 238.924 86.835 158.186 139.848 241.275 160.570 114.013 120.877 91.605 106.498 223.796 260.197 256.924 327.675 221.964 0.000 139.705 187.836 162.998 225.457 87.920 150.096 131.683 225.997 211.770 224.385 288.077 204.348 235.017 111.355 161.024 125.143 89.391 90.558 112.312 250.798 113.806 186.357
100.156 137.834 198.162 96.274 97.164 306.628 148.338 186.155 269.216 340.299 266.459 183.137 195.637 285.677 250.073 252.357 202.036 224.345 160.367 204.214 192.387 268.321 149.616 124.815 264.307 238.385 116.608 139.850 175.713 183.871 275.048 265.623 154.180 19.159 164.451 315.498 114.963 188.495 177.578 455.370 191.061 228.423 189.647 135.880 180.280 179.765 290.324 165.029 154.216 226.050 296.212 152.112 362.697 345.325 481.482 247.135 223.739 304.553 301.957 165.840 194.069 67.846 298.233 254.873 129.725 174.135 130.504 257.225 151.226 110.396 141.342 130.242 172.811 239.745 276.146 272.874 343.624 261.097 167.795 0.000 196.573 178.947 241.406 136.063 39.099 176.935 241.986 259.913 250.500 304.027 220.298 250.967 159.498 177.013 188.081 78.512 113.019 138.427 276.913 134.271 193.318
82.210 195.928 100.204 186.379 121.155 287.409 129.720 262.338 185.153 316.407 260.301 119.458 253.730 340.834 132.228 158.867 260.130 196.668 62.409 125.301 211.673 316.517 108.988 125.408 159.579 194.827 67.554 197.944 132.155 66.025 274.405 156.204 47.256 156.530 32.121 297.398 122.458 56.164 171.420 371.307 112.148 110.577 96.067 193.974 109.082 102.465 172.479 183.230 229.737 141.987 287.382 210.206 278.633 240.978 378.534 129.289 139.675 265.773 263.178 58.916 96.111 157.951 180.526 137.028 135.538 56.290 68.148 139.379 132.608 159.571 199.436 130.835 248.995 121.899 158.301 155.028 259.560 241.878 243.978 137.371 0.000 61.101 123.560 170.937 176.470 252.457 187.431 253.130 308.593 219.963 102.452 133.121 208.322 112.350 278.186 163.628 113.612 196.520 315.995 192.365 84.461
85.923 199.641 99.927 190.092 124.868 282.047 133.433 266.051 179.791 320.120 254.939 114.096 257.443 335.472 126.866 153.505 263.843 200.380 66.122 119.939 215.386 311.155 122.866 129.121 154.217 198.540 81.432 201.657 135.868 60.663 278.118 150.842 61.134 160.243 52.483 297.191 126.171 76.526 166.058 365.945 106.786 105.215 99.779 197.687 103.721 97.103 167.117 186.943 233.450 136.625 282.020 213.919 273.272 235.616 373.173 123.928 134.314 260.412 257.816 72.794 99.823 161.664 175.164 131.666 139.250 50.928 71.861 134.017 136.321 163.284 203.148 134.548 252.708 116.538 152.939 149.666 254.198 236.516 247.691 141.084 84.604 0.000 118.199 167.608 180.183 256.170 182.069 247.768 312.306 214.601 97.090 127.759 202.960 106.988 281.899 167.341 117.325 200.233 319.708 196.078 79.099
141.890 255.608 112.408 246.059 180.835 338.014 189.400 322.018 235.758 376.087 310.906 120.802 313.410 391.439 133.572 160.212 319.810 256.347 108.100 175.906 271.353 367.122 178.833 185.088 176.268 206.191 137.399 257.624 191.835 115.582 334.085 172.893 117.101 216.210 108.450 303.898 182.138 132.493 222.025 421.912 162.753 153.649 141.757 253.654 159.688 153.070 173.823 242.910 289.417 192.592 337.987 269.886 304.019 257.667 395.223 86.032 190.281 316.379 313.783 128.761 132.317 217.631 197.214 138.372 195.217 72.979 127.828 140.723 192.288 219.251 259.115 190.515 308.675 138.588 159.645 156.372 310.165 292.483 303.658 197.051 140.571 68.221 0.000 223.575 236.150 312.137 238.036 303.735 368.273 270.568 95.274 9.560 258.927 162.955 337.866 223.308 173.292 256.200 375.675 252.045 91.580
108.251 205.564 206.152 154.903 133.505 208.832 157.048 163.392 213.890 372.106 165.138 191.847 263.366 233.801 233.091 259.731 269.766 252.367 169.078 145.832 260.117 215.055 132.634 92.900 260.442 250.527 99.626 207.580 187.855 166.888 330.105 257.067 144.410 168.881 154.681 353.098 151.305 178.724 76.257 397.653 132.679 211.441 198.357 203.610 121.898 121.383 273.342 232.758 202.808 209.068 194.891 219.842 303.042 341.841 421.827 230.153 206.757 246.171 243.575 156.070 202.779 126.475 238.578 237.891 96.852 157.153 139.214 240.242 159.937 171.922 211.786 78.479 150.049 222.763 259.164 255.891 285.906 168.786 145.032 149.722 186.803 161.965 224.424 0.000 188.821 225.528 183.603 158.591 318.229 246.309 203.315 233.984 106.232 118.631 227.229 99.408 86.176 206.156 344.643 204.715 185.324
95.554 133.232 193.560 91.672 92.562 302.026 143.736 181.553 264.614 335.697 261.857 178.535 191.035 281.075 245.471 247.755 197.434 219.743 155.765 199.612 187.785 263.719 145.014 120.213 259.705 233.783 112.006 135.248 171.111 179.269 270.446 261.021 149.578 93.835 159.849 310.896 110.361 183.893 172.976 450.769 186.459 223.821 185.045 131.278 175.678 175.163 285.722 160.427 149.614 221.448 291.610 147.510 358.095 340.723 476.880 242.533 219.137 299.951 297.355 161.239 189.467 63.244 293.631 250.271 125.123 169.533 125.902 252.623 146.624 105.794 136.740 125.640 168.209 235.143 271.544 268.272 339.022 256.495 163.193 74.676 191.971 174.345 236.804 131.461 0.000 172.333 237.384 255.311 245.898 299.425 215.696 246.365 154.896 172.411 183.479 73.910 108.417 133.825 272.311 129.669 188.716
229.098 198.216 327.399 164.021 243.702 387.477 277.895 201.469 373.481 400.681 343.783 312.694 185.826 333.157 354.338 354.837 181.510 318.460 289.925 308.439 252.770 345.644 253.881 206.392 381.689 340.865 220.872 199.868 278.193 288.135 335.430 378.314 265.657 227.885 275.928 375.880 256.200 299.971 254.902 559.635 295.286 332.687 319.204 207.494 284.505 283.990 394.589 225.411 104.921 330.315 373.536 212.130 465.649 463.088 584.434 351.399 328.003 408.778 406.182 277.317 323.626 155.780 401.184 359.138 207.048 278.400 260.062 361.489 280.784 211.741 147.613 211.819 188.126 344.009 380.411 377.138 447.888 347.431 181.970 245.156 308.049 283.211 345.671 213.387 247.825 0.000 346.210 337.236 284.084 408.291 324.562 355.231 236.822 281.237 88.163 209.605 210.772 198.445 310.497 140.542 306.571
198.886 342.262 250.084 314.959 267.489 206.608 247.683 313.322 60.131 462.741 196.455 264.253 400.065 359.796 277.023 303.662 406.464 343.002 232.416 173.842 358.008 335.479 223.269 214.183 287.679 341.162 190.261 344.278 278.490 210.820 420.740 265.646 227.428 302.865 218.777 443.733 268.793 242.820 190.382 387.528 160.689 255.372 266.073 340.308 176.484 151.006 317.274 329.564 360.143 212.101 206.581 356.540 306.629 385.773 425.414 274.085 224.462 180.146 177.550 239.088 266.117 286.531 242.164 281.823 224.312 201.085 229.849 284.174 250.572 305.905 345.770 219.610 332.323 266.695 303.096 299.823 287.556 161.078 308.069 283.706 250.898 205.897 268.356 191.932 322.805 382.863 0.000 172.330 454.928 247.958 247.247 277.916 227.284 179.751 382.022 259.464 202.387 342.855 462.330 338.699 229.256
204.778 298.987 302.680 252.736 231.339 56.244 253.575 249.410 223.886 468.633 24.125 288.374 356.789 295.884 329.618 356.258 363.189 348.894 265.605 227.658 353.540 193.159 229.161 189.427 343.816 347.054 196.153 301.003 284.382 263.416 426.632 321.783 240.937 266.714 251.209 449.625 249.138 275.252 126.471 369.914 214.505 307.968 294.884 297.033 218.425 191.332 369.869 326.181 296.231 270.175 36.300 313.265 362.766 438.368 481.551 326.680 282.536 162.532 159.936 252.598 299.306 224.308 298.302 334.418 194.685 253.680 235.741 336.769 256.464 269.755 308.145 176.312 268.411 319.290 355.691 352.418 345.630 48.593 244.157 247.555 283.330 258.492 320.951 128.728 286.654 318.951 193.600 0.000 411.653 306.033 299.842 330.511 163.372 215.158 318.111 197.241 182.704 299.580 438.066 301.074 281.852
263.216 122.643 315.478 239.531 218.292 469.688 311.398 345.259 432.276 266.178 430.269 269.090 150.593 449.487 339.502 289.418 156.992 160.880 277.683 367.274 172.108 432.130 312.677 287.876 318.758 275.446 279.668 124.295 212.774 326.139 138.314 320.075 308.762 190.624 300.111 241.377 191.329 324.154 341.388 618.431 354.121 370.691 306.962 147.965 343.340 342.826 357.918 149.837 239.537 389.110 460.022 127.787 446.509 349.024 537.714 354.354 386.799 467.613 465.018 320.422 311.384 231.290 353.752 330.919 293.534 316.404 247.820 346.653 314.287 174.480 200.807 293.302 331.916 324.309 362.739 359.516 506.684 424.157 308.093 211.076 332.232 307.200 348.625 299.873 210.564 262.257 405.046 423.723 0.000 467.087 327.516 358.185 323.308 340.073 292.038 242.322 276.079 122.872 85.550 193.736 310.634
242.305 383.744 267.894 355.009 308.971 345.439 291.102 352.390 244.597 504.223 318.331 282.063 441.547 398.864 294.833 321.472 447.946 384.484 250.226 212.910 399.489 374.547 266.688 257.602 228.763 367.452 233.680 385.760 319.972 228.630 462.222 206.730 245.237 344.347 236.586 447.269 310.275 260.630 229.450 188.048 199.757 273.182 283.883 381.790 215.552 190.074 335.084 371.046 399.211 229.911 345.412 398.022 215.165 352.388 400.967 291.895 242.272 265.923 294.212 256.898 283.927 326.581 183.249 299.633 267.731 218.895 255.964 301.984 293.991 347.387 387.252 263.029 371.391 238.058 320.906 317.633 76.302 299.908 347.137 325.188 268.708 223.706 286.166 231.001 364.286 421.931 245.461 311.160 496.410 0.000 265.057 295.726 266.352 218.819 421.090 299.514 245.806 384.337 503.812 380.181 247.066
162.998 276.716 133.517 267.167 201.943 359.122 210.508 343.127 256.866 397.195 332.015 128.445 334.519 412.547 141.215 167.854 340.918 277.456 129.209 197.014 292.461 388.231 199.942 206.197 197.376 213.834 158.508 278.732 212.944 136.690 355.194 194.001 138.209 237.319 129.559 311.540 203.247 153.602 243.134 443.021 183.861 174.758 162.866 274.762 180.796 174.178 181.465 264.018 310.525 213.700 359.095 290.994 325.127 278.775 416.332 107.141 211.389 337.487 334.891 149.870 153.426 238.739 218.323 146.015 216.326 94.087 148.936 148.366 213.397 240.359 280.224 211.624 329.784 159.697 167.288 164.015 331.274 313.592 324.767 218.160 161.680 89.329 21.109 244.684 257.259 333.245 259.145 324.844 389.382 291.677 0.000 30.669 280.035 184.064 358.974 244.417 194.400 277.309 396.784 273.153 112.689
132.329 246.047 102.848 236.498 171.274 328.453 179.839 312.458 226.197 366.526 301.346 111.242 303.850 381.878 124.012 150.651 310.249 246.787 98.540 166.345 261.793 357.562 169.273 175.528 166.707 196.631 127.839 248.063 182.275 106.021 324.525 163.332 107.540 206.650 98.890 294.337 172.578 122.933 212.465 412.352 153.192 144.089 132.197 244.093 150.127 143.510 164.263 233.349 279.856 183.031 328.426 260.325 294.458 248.106 385.663 76.472 180.720 306.818 304.222 119.201 122.757 208.071 187.654 128.812 185.657 63.418 118.267 131.163 182.728 209.690 249.555 180.955 299.115 129.028 150.085 146.812 300.605 282.923 294.098 187.491 131.011 58.660 106.823 214.015 226.590 302.576 228.476 294.175 358.713 261.008 85.714 0.000 249.367 153.395 328.305 213.748 163.732 246.640 366.115 242.484 82.020
123.028 165.777 220.930 120.350 149.589 221.069 171.825 116.200 228.667 368.242 177.374 206.624 223.580 162.674 247.869 274.508 229.979 267.144 183.855 160.609 220.330 158.232 147.411 107.677 275.220 265.304 114.403 167.793 202.632 181.666 302.991 271.845 159.188 184.214 169.459 343.441 167.388 193.502 88.493 412.430 147.456 226.218 213.134 163.823 136.675 136.161 288.119 192.971 163.021 223.845 207.127 180.055 317.820 356.619 436.605 244.930 221.534 260.948 258.353 170.848 217.556 112.110 253.355 252.668 112.935 171.930 153.992 255.020 174.714 168.071 174.935 94.562 140.192 237.540 273.941 270.669 300.683 181.022 110.948 165.806 201.580 176.742 239.201 46.978 204.154 185.741 198.381 170.828 278.443 261.086 218.093 248.762 0.000 133.408 184.901 115.491 100.954 166.370 304.856 167.864 200.102
105.209 248.585 188.482 221.282 173.812 242.047 154.006 248.997 159.852 369.064 214.939 188.805 306.387 295.471 215.421 242.060 312.787 249.325 166.035 62.903 264.330 271.155 129.592 120.506 234.383 247.485 96.584 250.601 184.813 149.218 327.063 212.350 141.368 209.187 151.639 350.056 175.116 175.682 126.058 346.006 49.750 193.770 195.315 246.631 3.267 40.067 255.672 235.887 279.223 158.804 242.020 262.863 253.333 324.171 372.118 212.482 171.166 216.918 214.322 153.028 199.737 192.854 188.868 220.221 130.635 139.483 136.172 222.572 156.894 212.228 252.093 125.933 244.092 205.092 241.494 238.221 234.259 196.516 239.076 190.029 183.761 144.294 206.753 127.608 229.127 301.943 154.350 207.768 361.250 194.662 185.645 216.314 162.960 0.000 313.089 165.787 108.709 249.178 368.653 245.022 167.654
205.644 185.994 303.945 140.567 220.248 364.023 254.441 113.306 350.026 388.459 320.329 289.240 164.138 244.994 330.884 331.383 157.738 303.371 266.471 284.984 240.547 269.078 230.427 182.938 358.235 317.411 197.418 188.010 254.739 264.681 323.208 354.860 242.203 204.431 252.474 363.657 232.746 276.517 231.448 536.181 271.831 309.233 295.750 184.040 261.051 260.536 371.135 213.188 102.107 306.861 350.082 200.272 442.195 439.634 560.980 327.945 304.549 385.324 382.728 253.863 300.172 132.326 377.730 335.684 183.594 254.946 236.608 338.035 257.330 188.287 160.287 188.365 99.963 320.555 356.957 353.684 424.434 323.977 109.229 221.702 284.595 259.757 322.216 189.933 224.371 129.549 322.756 313.782 287.445 384.837 301.108 331.777 213.368 257.783 0.000 186.150 187.318 186.586 313.858 153.216 283.117
98.663 116.192 196.670 55.495 95.672 269.375 146.845 145.376 255.378 318.657 225.680 181.644 173.995 244.898 236.235 250.865 180.394 222.853 158.875 190.336 170.746 227.541 135.778 88.289 262.815 236.892 102.770 118.208 174.220 170.032 253.406 260.211 147.554 96.944 157.825 293.856 113.471 181.868 136.799 441.532 177.183 214.584 188.154 114.238 166.402 165.887 276.486 143.387 113.436 212.212 255.433 130.470 347.546 343.833 466.331 233.297 209.901 290.675 288.079 159.214 192.576 27.067 283.082 241.035 88.946 160.297 129.012 243.386 149.734 108.904 125.350 93.716 132.032 225.906 262.308 259.035 329.785 229.328 127.016 77.785 189.947 165.109 227.568 95.284 116.884 136.156 228.107 219.134 228.858 290.188 206.459 237.128 118.719 163.135 147.302 0.000 92.669 116.785 255.271 118.279 188.468
60.086 203.462 157.987 176.159 128.689 193.609 108.883 199.815 165.725 323.941 165.757 143.682 261.265 246.289 184.926 211.566 267.664 204.202 120.913 97.667 219.207 221.972 84.469 46.203 212.277 202.362 51.461 205.478 139.690 118.723 281.940 208.902 96.245 164.065 106.516 304.933 129.993 130.559 76.875 349.487 84.514 163.275 150.192 201.508 73.733 73.218 225.177 190.764 234.100 160.903 193.582 217.740 254.877 293.676 373.662 181.988 158.592 198.006 195.410 107.905 154.614 147.731 190.413 189.726 85.512 108.988 91.049 192.077 111.772 167.105 206.970 44.306 198.945 174.598 210.999 207.726 237.741 148.078 193.928 144.906 138.638 113.800 176.259 78.426 184.004 256.820 135.438 159.210 316.128 198.144 155.150 185.819 113.777 70.466 267.966 120.664 0.000 204.055 323.530 199.899 137.159
148.231 7.658 200.493 124.545 103.307 354.703 196.413 230.274 317.291 210.123 315.284 154.105 84.751 334.502 224.517 174.981 91.151 127.901 162.698 252.289 62.211 317.145 197.691 172.890 203.773 161.009 164.683 1.423 98.337 211.154 144.872 205.089 193.776 75.638 185.125 185.321 76.344 209.169 226.403 503.445 239.136 255.706 191.977 32.980 228.355 227.840 243.481 34.852 124.552 274.125 345.037 41.227 331.524 284.791 422.728 239.369 271.814 352.628 350.032 205.437 196.399 116.305 238.766 216.482 178.549 201.418 132.834 231.668 199.301 59.495 85.822 178.317 216.931 209.323 248.303 245.079 391.699 309.172 193.108 96.091 217.247 192.214 233.640 184.888 95.578 147.272 290.060 308.737 129.630 352.101 212.531 243.200 208.323 225.088 178.391 127.337 161.094 0.000 156.043 78.751 195.649
280.029 139.456 332.291 256.344 235.106 486.501 328.211 362.072 449.090 269.592 447.082 285.904 167.406 466.300 356.316 297.418 173.805 168.880 294.496 384.087 168.174 448.943 329.490 304.689 334.041 283.446 296.481 141.108 220.774 342.952 146.314 335.357 325.575 207.437 316.924 244.791 208.142 340.967 358.201 635.244 370.934 387.505 323.776 164.778 360.154 359.639 365.918 154.877 256.351 405.924 476.835 144.600 461.792 352.438 552.997 371.167 403.612 484.427 481.831 337.235 328.198 248.103 369.034 338.919 310.348 333.217 264.633 363.467 331.100 191.293 217.620 310.116 348.729 339.591 370.739 367.516 523.497 440.970 324.906 227.890 349.045 324.013 365.438 316.686 227.377 279.071 421.859 440.536 87.103 483.900 344.330 374.998 340.121 356.886 308.851 259.135 292.892 139.685 0.000 210.550 327.447
223.285 106.232 294.751 147.637 181.189 401.374 271.467 240.371 387.377 308.697 357.680 248.364 101.641 374.304 318.776 269.240 97.325 226.476 256.957 322.335 160.785 359.541 267.777 220.289 298.032 255.268 234.769 107.884 192.596 302.032 243.446 299.348 277.309 142.288 279.384 283.895 170.603 303.427 268.799 573.531 309.182 346.584 286.236 121.897 298.401 297.886 337.740 133.426 98.929 344.211 387.433 111.710 425.783 379.050 516.987 333.627 341.900 422.674 420.078 288.969 290.658 139.396 333.025 310.741 220.945 292.296 227.093 325.927 274.355 126.144 7.071 225.716 227.028 303.582 342.561 339.338 461.785 361.327 216.199 173.973 311.506 286.473 327.898 227.283 162.228 102.382 360.107 351.133 192.231 422.187 306.790 337.459 250.718 295.134 130.218 196.640 224.668 106.461 218.644 0.000 289.908
113.407 212.300 83.925 217.576 152.351 309.531 160.917 293.535 207.275 323.787 282.423 54.404 270.102 362.956 67.173 93.813 276.502 204.048 79.617 147.423 219.053 338.639 150.350 156.605 147.785 139.792 108.916 209.784 139.536 87.099 281.786 144.410 88.618 187.727 79.967 237.499 137.198 104.010 193.542 393.429 134.270 125.166 113.274 212.006 131.205 124.587 107.424 190.610 260.934 164.109 309.504 226.578 275.536 229.184 366.740 71.319 161.798 287.896 285.300 100.278 103.834 189.148 168.731 71.973 166.734 44.496 99.345 74.324 163.805 190.768 230.632 162.032 280.192 110.105 93.246 89.973 281.682 264.000 275.175 168.568 112.088 39.738 65.590 195.092 207.667 283.654 209.553 275.252 316.344 242.085 44.481 75.150 230.444 134.472 309.383 194.825 144.809 211.207 323.376 223.562 0.000
NODE_COORD_SECTION
1 135.757630 21.597263
2 1973.412920 1380.877369
3 -231.997549 830.581082
4 1734.483753 -285.438272
5 841.044327 685.153662
6 237.100614 -3460.512592
7 67.151967 147.591932
8 2563.748142 -1524.267905
9 -1513.703071 -1614.218021
10 1352.713566 3794.758334
11 -362.969805 -3120.010774
12 -23.012282 1355.723092
13 3587.583354 1267.039794
14 3745.571850 -3245.612173
15 -730.713229 1336.293041
16 -597.841554 2482.314721
17 3742.205228 1225.973214
18 1678.844761 3090.675987
19 -56.314718 994.540691
20 -802.875335 -789.444148
21 2033.800202 1748.892971
22 1481.098484 -3260.066983
23 -48.331814 230.218155
24 495.888218 -281.192157
25 -2188.727359 1860.070231
26 -132.682461 2670.348180
27 -213.392964 67.747507
28 2070.644627 1466.592072
29 451.117476 2324.351345
30 -527.941275 753.574475
31 2655.784386 2796.910090
32 -2310.289416 1703.030273
33 -41.881027 432.093759
34 1628.400340 358.905458
35 -172.350195 471.908741
36 965.224053 4640.039173
37 798.122945 1137.104024
38 -213.505224 423.827969
39 886.277008 -1531.134865
40 -4833.956564 -2385.591606
41 -677.721238 -826.115134
42 -588.252048 678.722575
43 50.441857 976.868306
44 1695.431695 1064.238187
45 -476.612694 -540.887495
46 -536.583566 -686.373353
47 -110.328335 2010.223537
48 1827.749001 1430.837828
49 2378.501341 -106.401732
50 -750.275983 174.356451
51 69.322490 -3341.168175
52 2125.486656 1450.338670
53 -4846.838953 690.063500
54 -1652.603525 3458.065868
55 -4201.675663 3722.162219
56 -354.743839 1083.023377
57 -740.998451 207.643752
58 -1926.453652 -4498.854984
59 -1340.273111 -4224.767608
60 -54.591358 591.489306
61 -193.902578 616.900222
62 1593.886524 -83.089107
63 -2255.755386 1153.644762
64 -463.557086 1854.089522
65 549.657665 -446.551437
66 -593.593842 949.721038
67 93.686860 813.683159
68 -731.480955 1356.143953
69 -6.920181 161.373754
70 1553.680396 844.508492
71 2775.347660 656.184148
72 435.284815 -589.150328
73 2686.891166 -1671.384794
74 -1954.720397 1706.398392
75 -33.829315 1846.325402
76 -964.959485 1736.275808
77 -3964.588222 -1477.018472
78 -397.461906 -3019.777174
79 2063.137953 -994.797078
80 1654.272696 515.051121
81 -187.400817 559.770624
82 -270.222232 863.104159
83 -443.154985 1214.482352
84 704.010047 -1001.612421
85 1669.636384 372.542966
86 2760.498409 4.469128
87 -1185.509450 -1817.664656
88 -258.290116 -3282.755985
89 3326.687993 2730.866837
90 -2716.863800 -1126.865821
91 -384.978980 1219.613462
92 -467.891463 1204.814392
93 1226.581033 -1760.138503
94 -467.968508 -543.655698
95 3235.459425 -617.522632
96 1218.816766 -103.602618
97 211.989932 -540.001849
98 2068.939970 1446.896284
99 2798.294865 2561.140746
100 2638.285703 655.190885
101 -186.768757 1142.290645
DEMAND_SECTION
1 0
2 83
3 9
4 6
5 7
6 10
7 1
8 58
9 9
10 1
11 10
12 2
13 6
14 9
15 10
16 2
17 8
18 74
19 7
20 3
21 10
22 9
23 9
24 4
25 5
26 9
27 2
28 10
29 9
30 7
31 3
32 8
33 63
34 9
35 2
36 9
37 4
38 2
39 7
40 5
41 1
42 2
43 6
44 3
45 5
46 2
47 85
48 2
49 4
50 3
51 99
52 3
53 8
54 5
55 6
56 8
57 4
58 8
59 3
60 83
61 3
62 8
63 10
64 2
65 7
66 1
67 9
68 10
69 7
70 9
71 9
72 2
73 4
74 5
75 90
76 4
77 5
78 2
79 7
80 3
81 8
82 97
83 1
84 8
85 9
86 9
87 61
88 8
89 5
90 2
91 2
92 4
93 7
94 97
95 8
96 8
97 1
98 3
99 1
100 8
101 9
DEPOT_SECTION
1
-1
EOF
