NAME : mamut-hong_kong-n100-poi
COMMENT : Mamut2026 fastest metric; city hong_kong; 3-decimal seconds/meters; ENU ref in mamut-hong_kong-n100-poi.vrp.json
TYPE : CVRP
DIMENSION : 101
EDGE_WEIGHT_TYPE : EXPLICIT
EDGE_WEIGHT_FORMAT : FULL_MATRIX
CAPACITY : 178
EDGE_WEIGHT_SECTION
0.000 504.195 622.631 498.441 449.801 269.455 183.916 402.291 472.326 547.615 280.422 320.432 267.941 461.049 402.149 492.060 199.391 291.815 383.056 361.375 607.505 532.123 504.816 203.407 402.835 384.618 664.311 718.267 443.457 182.418 249.017 217.703 423.185 434.716 576.789 585.276 536.128 174.196 387.200 438.617 405.147 468.994 299.333 519.718 790.826 389.006 223.927 252.729 760.177 289.858 257.451 322.706 288.936 585.392 407.761 425.127 567.106 419.316 496.321 276.391 441.614 271.336 221.968 423.882 557.942 833.721 235.965 385.465 192.888 526.606 265.138 281.265 275.985 927.685 280.983 228.910 291.260 216.500 259.812 243.049 457.010 387.979 415.508 405.356 282.058 159.165 401.719 397.836 802.506 623.834 309.749 194.465 428.149 290.725 431.617 494.386 385.736 417.702 187.359 417.953 478.109
509.397 0.000 680.095 331.539 736.029 350.105 426.325 184.431 281.738 357.028 374.923 405.424 351.195 435.806 194.350 357.295 366.611 386.316 777.979 494.755 985.093 341.536 314.229 370.627 359.394 176.818 473.724 416.928 354.999 490.820 372.376 387.684 209.140 771.224 971.712 394.689 345.540 461.727 169.339 772.474 361.706 336.100 399.466 832.413 1185.749 218.864 393.908 376.143 1155.101 570.661 455.172 417.206 375.637 962.980 143.556 224.599 355.407 636.852 329.420 380.136 775.470 389.832 344.742 223.440 367.354 1108.766 564.193 470.297 435.298 336.019 383.635 543.138 670.908 1225.758 384.728 495.049 372.705 523.138 363.557 349.164 431.767 217.837 210.687 210.109 385.803 454.972 137.514 586.175 1077.552 1001.422 458.080 433.021 823.072 565.771 382.347 341.917 167.875 812.625 479.995 473.255 311.207
569.852 639.265 0.000 652.087 868.211 520.156 547.265 544.533 409.517 410.146 500.865 575.475 521.245 743.122 515.058 677.843 535.575 512.258 649.276 250.536 855.030 444.418 442.007 539.591 666.739 497.527 526.842 871.913 675.547 611.761 547.041 442.664 575.774 897.682 903.178 447.807 398.658 582.668 522.538 901.583 669.050 656.648 574.131 964.594 1061.656 546.670 448.888 459.791 1031.007 695.454 588.181 543.149 550.302 832.917 532.255 443.346 719.695 584.306 649.968 554.801 904.579 564.497 519.407 576.639 420.472 626.719 485.522 226.078 556.238 438.901 558.300 382.144 684.139 1357.940 554.857 452.947 542.756 644.078 538.222 523.829 739.083 545.643 563.886 563.020 555.933 476.139 526.213 516.055 595.505 871.359 473.411 557.814 836.303 402.381 689.692 662.465 520.298 738.449 577.828 249.556 631.755
490.665 368.519 718.403 0.000 597.413 364.767 371.613 206.480 320.046 395.336 394.094 360.756 364.709 199.488 257.046 68.422 311.898 405.486 759.247 533.063 983.696 379.844 352.537 315.915 123.076 230.474 512.032 375.178 94.603 406.554 288.042 406.854 187.498 632.607 951.930 432.997 383.848 406.205 245.361 633.857 120.165 71.035 356.145 693.796 1165.967 187.909 413.078 395.313 1135.318 472.815 352.216 436.377 353.308 961.583 271.639 299.443 419.429 656.023 74.794 333.204 636.854 305.379 312.493 194.527 405.662 1113.805 568.491 508.605 363.327 374.327 299.182 548.177 646.594 1087.141 337.795 490.410 354.009 438.872 316.625 282.074 195.449 196.298 214.513 208.610 338.870 444.353 265.597 605.345 1082.591 1000.025 477.250 356.470 798.758 570.810 143.994 40.759 219.756 775.434 433.957 511.563 85.981
444.430 746.727 908.729 663.293 0.000 480.379 370.360 644.823 714.858 790.147 516.890 476.369 480.321 578.882 644.681 609.893 399.420 528.283 595.529 647.472 819.977 774.655 747.348 403.436 520.668 627.150 906.843 898.400 561.290 335.393 403.654 511.188 665.717 224.322 777.110 827.808 778.660 383.505 629.732 225.573 522.980 586.827 471.757 286.029 991.147 631.538 517.412 518.110 960.498 274.998 352.075 559.174 468.920 797.864 650.293 667.659 809.638 712.801 647.892 448.816 228.569 420.991 420.944 666.414 800.474 1157.839 562.388 671.562 363.091 769.138 414.794 592.211 471.774 649.117 453.407 534.445 469.621 325.797 432.237 397.686 574.843 630.511 658.040 647.888 454.483 478.111 644.251 691.321 1126.625 836.307 600.047 353.347 623.938 614.844 549.450 612.219 628.268 600.614 434.930 685.920 634.612
266.816 342.264 569.415 336.509 484.769 0.000 182.685 240.360 310.394 385.684 79.738 81.446 31.388 359.643 240.217 362.266 122.971 91.131 535.398 308.159 742.511 370.192 342.884 126.987 301.430 222.686 502.380 556.335 342.052 247.180 125.371 145.102 261.254 519.964 729.131 423.344 374.196 218.088 225.269 521.214 303.741 341.070 93.343 581.152 943.168 227.075 151.326 116.651 912.519 327.021 212.591 122.022 71.948 720.399 245.829 263.195 405.175 394.270 334.390 92.762 524.210 90.062 101.102 261.950 396.010 866.185 321.611 332.248 191.658 364.675 83.864 300.556 428.326 974.498 60.829 252.467 47.153 279.498 84.922 97.904 355.605 226.048 253.577 243.425 61.904 212.391 239.787 343.593 834.970 758.841 215.498 189.381 580.490 323.189 330.212 346.887 223.804 570.043 237.413 346.607 316.178
167.317 432.101 577.761 422.452 376.893 197.361 0.000 330.197 400.231 475.521 202.264 199.822 187.286 338.041 330.055 369.052 78.781 213.657 435.899 316.504 660.348 460.029 432.722 82.797 279.827 312.523 592.217 646.172 320.449 79.038 128.407 155.371 351.091 377.383 629.632 513.182 464.033 52.172 315.106 381.284 282.139 345.986 178.723 452.585 843.669 316.912 161.595 190.397 813.021 170.407 114.340 244.547 175.885 638.235 335.666 353.032 495.012 356.984 407.051 155.781 384.280 149.859 101.358 351.788 485.847 802.022 256.708 340.594 36.496 454.512 143.662 236.394 328.828 848.706 160.373 178.628 196.620 111.356 139.202 122.439 334.002 315.885 343.414 333.262 161.448 122.294 329.624 335.504 770.808 676.677 247.417 51.739 480.992 259.027 308.609 371.378 313.641 470.545 79.113 365.866 393.771
397.118 189.625 612.364 167.585 623.750 237.826 314.046 0.000 214.007 289.297 262.644 293.145 238.915 278.882 80.797 193.341 254.331 274.037 665.700 427.024 872.814 273.805 246.498 258.348 202.470 54.226 405.993 386.547 198.076 378.541 260.097 275.405 52.678 658.945 859.433 326.958 277.809 349.448 38.880 660.195 204.782 179.176 287.187 720.133 1073.470 50.187 281.629 263.863 1042.821 458.382 342.893 304.927 263.358 850.701 94.001 166.808 254.078 524.573 164.602 267.857 663.191 277.553 232.463 40.140 299.623 996.487 451.914 402.566 323.018 268.288 271.356 430.859 558.629 1113.479 272.448 382.770 260.426 410.859 251.278 236.885 274.843 49.160 27.387 41.433 273.524 342.693 87.959 473.895 965.273 889.143 345.801 320.742 710.792 453.492 225.423 177.963 37.416 700.346 367.716 405.524 146.390
496.931 290.592 486.895 307.734 723.563 337.639 413.858 200.180 0.000 125.062 362.457 392.957 338.728 398.770 170.706 333.491 354.144 373.849 700.295 301.555 906.049 104.535 32.490 358.160 322.386 153.175 248.500 527.560 331.195 478.354 359.910 375.217 231.422 758.757 954.197 158.631 113.574 449.261 178.186 760.008 324.698 312.296 387.000 819.946 1112.675 202.318 381.441 363.676 1082.026 558.195 442.706 404.740 363.171 883.936 178.760 89.852 375.342 624.386 305.615 367.669 763.004 377.366 332.275 232.287 135.388 957.876 536.541 277.097 422.831 99.018 371.168 433.163 658.441 1213.292 372.261 482.583 360.239 510.672 351.090 336.697 394.731 201.291 219.534 218.668 373.336 442.506 172.718 568.334 926.662 922.378 445.613 420.554 810.605 483.956 345.339 318.112 175.946 789.467 467.528 280.055 287.403
631.340 429.322 519.025 442.143 857.972 472.048 548.267 334.589 186.515 0.000 496.865 527.366 473.137 533.179 305.115 467.900 488.553 508.258 732.425 333.686 938.179 136.724 184.905 492.569 456.795 287.583 242.614 661.969 465.604 612.763 494.319 509.626 365.830 893.166 986.328 152.746 67.504 583.670 312.595 894.417 459.107 446.704 521.409 954.355 1144.805 336.727 515.850 498.085 1114.156 692.604 577.115 539.149 497.580 916.067 322.311 233.403 509.751 668.716 440.024 502.078 897.413 511.775 466.684 366.696 10.327 990.007 568.672 309.228 557.240 131.207 505.577 465.293 767.288 1347.701 506.670 536.097 494.648 645.081 485.499 471.106 529.140 335.700 353.943 353.076 507.745 560.549 316.269 600.465 958.792 954.509 557.821 554.963 919.452 516.086 479.748 452.521 310.355 821.598 601.937 312.185 421.812
289.356 366.297 588.833 360.542 522.095 95.026 212.390 264.393 334.427 409.717 0.000 150.345 114.908 396.969 264.250 386.299 152.676 57.429 516.986 327.577 722.740 394.225 366.917 156.692 338.755 246.719 526.413 580.368 379.378 276.886 158.442 125.331 285.287 557.289 751.671 447.377 398.229 247.793 249.302 558.540 341.067 365.103 162.242 618.478 929.366 251.108 131.555 73.036 898.717 356.727 241.238 64.562 161.703 700.627 269.862 287.228 429.208 380.852 358.423 166.201 561.536 158.961 130.807 285.984 420.043 846.413 301.840 351.666 221.363 388.708 152.763 280.785 450.866 1011.824 129.728 232.696 117.626 309.204 149.622 135.229 392.930 250.081 277.610 267.458 130.803 192.619 263.820 312.601 815.199 739.069 184.506 219.086 603.030 303.418 367.537 370.920 247.837 592.583 259.953 366.025 340.211
295.469 389.830 608.681 384.076 496.745 53.576 203.128 287.926 357.961 433.250 130.401 0.000 84.761 370.752 287.784 401.764 143.413 141.794 564.051 347.424 781.777 417.758 390.451 147.429 312.539 270.253 549.946 603.902 353.161 267.623 137.346 184.367 308.820 531.939 757.784 470.911 421.763 238.530 272.835 533.190 314.850 378.698 26.721 593.128 971.821 274.641 190.592 167.314 941.172 347.464 235.792 172.685 78.125 759.664 293.396 310.762 452.741 433.536 381.957 98.940 536.186 98.015 121.545 309.517 443.577 905.450 360.876 371.514 212.100 412.241 91.818 339.822 456.980 986.474 57.388 291.733 55.106 299.941 91.099 118.347 366.714 273.614 301.143 290.991 58.464 249.157 287.354 382.858 874.235 798.106 254.763 209.823 609.143 362.455 341.321 394.454 271.371 598.696 265.471 385.872 363.744
263.896 339.344 566.495 333.589 474.711 31.388 172.627 237.440 307.474 382.764 111.126 112.834 0.000 349.585 237.297 359.346 112.913 122.519 532.478 305.238 739.591 367.271 339.964 116.929 291.372 219.766 499.460 553.415 331.994 237.123 115.313 142.182 258.334 509.906 726.211 420.424 371.276 208.030 222.348 511.156 293.684 338.150 105.588 571.095 940.247 224.155 148.406 130.641 909.599 316.963 207.217 153.410 81.759 717.478 242.909 260.275 402.255 391.350 331.470 95.007 514.153 104.703 91.044 259.030 393.090 863.265 318.691 329.328 181.600 361.755 98.506 297.636 425.406 964.440 92.217 249.547 78.541 269.440 78.427 87.846 345.547 223.128 250.657 240.505 93.292 209.471 236.867 340.673 832.050 755.921 212.578 179.323 577.570 320.269 320.154 343.967 220.884 567.123 234.493 343.686 313.258
458.401 435.854 784.637 251.676 565.148 332.503 339.349 278.065 386.280 461.570 369.014 328.492 332.445 0.000 322.821 198.276 279.634 380.407 726.983 539.588 951.431 446.078 418.771 283.650 96.022 296.250 578.266 473.755 149.673 374.290 255.778 381.775 266.319 600.343 919.665 499.231 450.082 373.941 316.945 601.593 98.334 175.210 323.881 661.531 1133.702 266.730 387.999 370.234 1103.054 440.551 319.952 411.297 321.044 929.319 338.974 366.778 362.503 630.943 236.274 300.939 604.589 273.115 280.229 273.348 471.897 1081.541 536.227 563.677 331.063 440.561 266.918 515.913 614.330 1054.877 305.531 458.146 321.745 406.607 284.360 249.810 26.088 275.118 286.097 275.945 306.606 412.089 332.932 580.266 1050.326 967.761 452.171 324.206 766.493 538.546 124.804 200.602 291.340 743.169 401.692 577.797 220.135
389.670 154.335 594.701 196.268 616.302 230.378 306.598 59.602 196.345 271.634 255.196 285.697 231.467 300.535 0.000 222.025 246.883 266.589 658.252 409.362 865.366 256.142 228.835 250.900 224.123 12.597 388.330 416.094 219.729 371.093 252.649 267.957 104.170 651.497 851.985 309.295 260.146 342.000 37.608 652.747 226.435 200.829 279.739 712.685 1066.022 86.834 274.181 256.415 1035.373 450.934 335.445 297.479 255.910 843.253 57.455 139.206 250.437 517.125 194.149 260.409 655.743 270.105 225.015 91.709 281.961 989.039 444.466 384.904 315.570 250.625 263.908 423.411 551.181 1106.031 265.000 375.322 252.978 403.411 243.830 229.437 296.496 85.807 78.956 78.378 266.076 335.245 51.413 466.447 957.825 881.695 338.353 313.294 703.344 446.044 247.076 206.646 35.368 692.898 360.268 387.861 175.937
499.970 377.824 727.708 124.010 606.718 374.072 380.918 217.423 329.351 404.641 403.399 370.062 374.014 208.793 266.351 0.000 321.204 414.791 768.552 542.369 993.001 389.149 361.842 325.220 132.381 239.780 521.337 386.121 103.908 415.859 297.347 416.159 198.441 641.912 961.235 442.302 393.153 415.510 256.303 643.162 129.470 80.340 365.450 703.101 1175.272 198.852 422.384 404.618 1144.623 482.120 361.521 445.682 362.613 970.888 280.944 308.748 430.372 665.328 85.737 342.509 646.159 314.684 321.798 205.470 414.968 1123.110 577.796 517.911 372.632 383.632 308.487 557.482 655.899 1096.447 347.100 499.716 363.314 448.177 325.930 291.379 204.754 207.240 225.456 217.915 348.176 453.658 274.902 614.650 1091.896 1009.330 486.555 365.775 808.063 580.115 153.299 50.064 230.699 784.739 443.262 520.868 96.924
205.081 353.320 560.557 347.565 421.843 118.579 86.029 251.416 321.450 396.740 123.483 121.041 108.505 286.332 251.273 317.343 0.000 134.876 473.663 299.300 698.111 381.248 353.940 4.016 228.118 233.742 513.436 567.391 268.740 150.524 50.211 136.244 272.310 446.714 667.396 434.400 385.252 121.431 236.325 450.615 230.430 294.277 99.941 512.815 881.433 238.131 142.468 124.702 850.784 230.365 120.618 165.766 97.104 675.999 256.885 274.251 416.231 380.239 345.446 77.000 453.611 85.306 22.577 273.006 407.066 828.221 282.907 323.390 95.001 375.731 79.108 262.593 366.591 908.935 81.591 204.826 117.839 182.842 60.421 44.243 282.293 237.104 264.633 254.481 82.667 158.769 250.843 334.734 797.006 714.441 206.640 92.724 518.755 285.226 256.900 319.669 234.860 508.308 148.372 337.748 327.234
284.378 395.911 598.250 390.157 511.158 67.864 201.453 294.007 364.042 439.331 46.549 123.183 87.746 386.032 293.865 415.913 141.739 0.000 552.960 336.993 769.289 423.839 396.532 145.755 327.818 276.334 556.027 609.983 368.441 265.949 147.504 171.880 314.901 546.352 746.693 476.992 427.844 236.856 278.916 547.603 330.130 393.977 135.080 607.541 960.730 280.722 178.104 119.585 930.081 345.790 230.301 88.832 135.420 747.176 299.477 316.843 458.822 423.105 388.038 155.264 550.599 131.799 119.870 315.598 449.658 892.962 348.389 361.083 210.426 418.322 125.601 327.334 445.888 1000.887 102.566 279.245 90.464 298.267 138.685 124.292 381.993 279.695 307.224 297.072 103.641 238.066 293.435 359.150 861.748 785.618 231.055 208.149 598.052 349.967 356.600 400.535 277.452 587.605 254.975 375.441 369.825
383.222 769.749 682.556 763.994 604.108 535.008 449.469 667.845 666.196 666.825 517.417 585.986 533.495 726.602 667.702 757.614 464.945 528.810 0.000 421.300 280.148 701.097 698.686 468.961 668.388 650.171 783.521 983.820 709.011 474.003 514.571 419.697 688.739 489.327 290.781 704.486 655.338 466.107 652.753 499.037 670.700 734.547 564.886 546.994 486.773 654.560 425.921 454.723 456.125 505.678 499.395 559.700 554.489 258.035 673.314 690.680 832.660 625.599 761.875 541.944 468.889 536.889 487.522 689.435 677.152 895.981 358.926 445.390 458.442 695.581 530.692 341.190 197.791 976.988 546.536 369.019 556.813 496.932 525.365 508.603 722.563 653.533 681.062 670.910 547.611 424.494 667.272 564.885 864.766 296.477 516.032 460.018 316.708 352.985 697.170 759.939 651.289 119.543 480.032 469.468 743.662
350.726 496.243 282.855 509.065 650.346 302.291 328.139 401.510 266.495 267.124 283.000 357.609 303.380 531.914 372.036 534.821 317.710 294.393 430.150 0.000 635.904 301.396 298.985 321.726 473.701 354.505 383.820 728.891 514.323 392.635 329.176 224.799 432.752 678.556 684.052 304.785 255.636 363.542 379.516 682.457 476.012 513.626 356.266 746.729 842.530 403.648 231.023 241.926 811.881 476.328 370.316 325.283 332.437 613.791 389.233 300.324 576.673 366.440 506.945 336.936 685.453 346.632 301.542 433.617 277.450 672.818 266.396 40.355 337.112 295.879 340.435 157.468 465.013 1140.075 336.992 233.821 324.891 424.952 320.357 305.964 527.876 402.621 420.864 419.998 338.067 258.274 383.191 298.189 641.603 652.233 255.546 338.688 617.177 213.811 502.483 519.442 377.276 519.322 358.702 78.176 488.733
610.313 978.845 889.954 973.091 832.011 744.105 676.560 876.941 873.594 874.223 724.814 799.424 745.194 953.693 876.799 984.704 692.035 736.207 279.004 628.697 0.000 908.495 906.084 696.052 895.479 859.268 990.919 1192.917 936.101 701.093 741.661 627.094 897.835 717.231 453.363 911.884 862.735 693.198 861.850 726.941 897.791 961.638 791.977 774.897 535.699 863.656 633.318 662.120 505.051 733.581 727.299 767.098 774.251 98.629 882.411 899.777 1041.756 832.997 970.972 769.035 696.793 763.980 714.613 898.532 884.549 1103.378 566.324 652.787 685.533 902.978 757.783 548.587 425.695 1106.758 773.627 576.417 766.705 724.835 752.456 735.693 949.654 862.629 890.158 880.006 774.702 631.891 876.369 772.283 1072.163 120.005 723.430 687.109 544.612 560.383 924.261 983.469 860.386 347.446 707.123 676.866 952.759
550.011 347.993 518.644 360.814 776.643 390.719 466.938 253.260 105.177 102.070 415.537 446.037 391.808 451.850 223.786 386.571 407.224 426.929 732.044 333.304 937.798 0.000 88.400 411.240 375.466 206.255 218.766 580.640 384.275 531.434 412.990 428.297 284.501 811.837 985.946 139.731 90.583 502.341 231.266 813.088 377.778 365.376 440.080 873.026 1144.424 255.398 434.521 416.756 1113.775 611.275 495.786 457.820 416.251 915.685 240.982 152.074 428.422 668.334 358.695 420.749 816.084 430.446 385.355 285.367 112.397 989.625 568.290 308.846 475.911 62.855 424.248 464.912 711.521 1266.372 425.341 535.662 413.319 563.752 404.170 389.777 447.811 254.371 272.614 271.747 426.416 495.586 234.940 600.083 958.411 954.127 498.693 473.634 863.685 515.705 398.419 371.192 229.026 821.216 520.608 311.804 340.483
525.760 319.421 515.724 336.563 752.392 366.468 442.687 229.009 31.501 128.664 391.285 421.786 367.557 427.599 199.535 362.320 382.973 402.678 729.124 330.384 934.878 108.137 0.000 386.989 351.215 182.003 252.103 556.389 360.024 507.183 388.738 404.046 260.250 787.586 983.026 162.234 117.177 478.090 207.014 788.837 353.527 341.124 415.829 848.775 1141.504 231.147 410.270 392.505 1110.855 587.023 471.535 433.569 392.000 912.765 207.589 118.680 404.171 653.214 334.444 396.498 791.833 406.195 361.104 261.116 138.991 986.705 565.370 305.926 451.660 102.621 399.997 461.992 687.270 1242.121 401.090 511.411 389.068 539.501 379.919 365.526 423.560 230.120 248.363 247.496 402.165 471.335 201.547 597.163 955.491 951.207 474.442 449.383 839.434 512.785 374.168 346.941 204.775 818.296 496.357 308.884 316.232
219.196 349.304 556.541 343.549 425.958 114.563 100.144 247.400 317.434 392.723 119.467 117.025 104.489 291.075 247.257 322.086 40.430 130.859 487.778 295.284 712.227 377.231 349.924 0.000 232.861 229.726 509.419 563.375 273.483 164.639 46.195 132.227 268.294 460.829 681.511 430.384 381.236 135.547 232.308 462.403 235.173 299.020 95.925 522.341 895.548 234.115 138.452 120.686 864.899 244.480 134.734 161.750 93.088 690.114 252.869 270.235 412.215 381.396 341.430 72.984 465.399 81.290 18.561 268.990 403.050 842.336 297.022 319.374 109.117 371.715 75.092 276.708 380.707 915.687 77.575 218.942 113.822 196.957 56.405 40.227 287.036 233.088 260.617 250.465 78.651 172.884 246.827 330.718 811.122 728.556 202.623 106.840 532.870 299.341 261.643 324.412 230.844 522.424 162.488 333.732 323.217
417.545 369.183 718.569 185.004 524.292 291.647 298.492 211.394 320.212 395.502 328.158 287.636 291.588 109.339 256.753 118.122 238.778 339.550 686.127 498.731 910.575 380.010 352.703 242.794 0.000 230.182 512.198 397.080 69.519 333.433 214.921 340.919 199.648 559.486 878.809 433.163 384.014 333.085 250.274 560.737 21.660 100.830 283.025 620.675 1092.846 200.059 347.143 329.377 1062.197 399.695 279.096 370.441 280.187 888.462 272.302 300.107 388.954 590.087 156.120 260.083 563.733 232.259 239.373 206.677 405.828 1040.685 495.371 508.771 290.206 374.493 226.061 475.056 573.473 1014.021 264.675 417.290 280.888 365.751 243.504 208.953 105.300 208.447 219.426 209.274 265.750 371.233 266.260 539.409 1009.470 926.905 411.314 283.350 725.637 497.689 43.890 120.448 224.669 702.313 360.836 511.729 142.841
386.113 150.778 591.144 190.604 612.745 226.821 303.041 54.649 192.787 268.077 251.639 282.140 227.910 294.871 26.571 216.360 243.326 263.031 654.695 405.804 861.809 252.585 225.278 247.342 218.459 0.000 384.773 410.430 214.065 367.536 249.092 264.400 99.294 647.940 848.428 305.738 256.589 338.443 32.655 649.190 220.771 195.165 276.182 709.128 1062.465 81.170 270.624 252.858 1031.816 447.377 331.888 293.922 252.353 839.696 53.897 135.649 246.880 513.568 188.485 256.852 652.186 266.548 221.458 86.756 278.404 985.482 440.909 381.347 312.013 247.068 260.351 419.854 547.624 1102.474 261.443 371.765 249.421 399.854 240.273 225.880 290.832 80.143 74.003 73.425 262.519 331.688 47.855 462.890 954.268 878.138 334.796 309.737 699.787 442.487 241.412 200.982 30.415 689.341 356.711 384.304 170.272
680.769 478.751 568.455 491.573 907.401 521.477 597.697 384.018 242.983 186.199 546.295 576.796 522.566 582.608 354.544 517.329 537.982 557.687 781.855 383.115 987.609 193.192 241.373 541.998 506.224 337.013 0.000 711.399 515.033 662.192 543.748 559.056 415.260 942.595 1035.757 118.673 174.712 633.099 362.024 943.846 508.536 496.134 570.838 1003.784 1194.235 386.156 565.280 547.514 1163.586 742.033 626.544 588.578 547.009 965.496 371.741 282.832 559.181 718.145 489.453 551.508 946.842 561.204 516.114 416.125 196.526 1039.436 618.101 358.657 606.669 187.675 555.007 514.723 816.718 1397.130 556.099 585.526 544.077 694.510 534.929 520.536 578.569 385.129 403.372 402.506 557.175 609.979 365.699 649.894 1008.222 1003.938 607.251 604.392 968.881 565.516 529.177 501.950 359.784 871.027 651.366 361.615 471.241
719.661 411.734 930.430 349.325 896.958 560.369 636.589 386.980 532.073 607.362 585.187 615.688 561.458 488.077 443.637 348.190 576.874 596.579 988.243 745.090 1195.357 591.870 564.563 580.890 419.257 417.066 724.058 0.000 395.414 701.084 582.640 597.948 367.998 932.152 1181.976 645.023 595.875 671.991 425.861 933.403 411.426 371.745 609.730 993.341 1396.013 368.409 604.172 586.406 1365.364 772.360 651.761 627.470 585.901 1173.244 458.181 490.537 581.830 847.116 311.052 590.400 936.399 600.096 555.006 375.027 617.689 1319.030 774.456 720.632 645.561 586.353 593.899 753.402 881.172 1386.687 594.991 705.313 582.969 733.402 573.821 559.428 454.276 376.797 395.013 390.022 596.067 665.236 452.139 796.438 1287.816 1211.686 668.343 643.285 1033.335 776.035 437.782 350.516 400.256 1022.889 690.258 723.589 292.840
475.070 371.112 720.996 132.834 581.818 349.172 356.018 213.323 322.639 397.929 385.683 345.161 349.114 183.892 259.638 56.563 296.303 397.076 743.652 535.656 968.101 382.436 355.129 300.320 101.042 233.067 514.625 394.945 0.000 390.959 272.447 398.444 201.577 617.012 936.335 435.589 386.441 390.610 252.203 618.262 95.738 64.706 340.550 678.201 1150.371 201.988 404.668 386.903 1119.723 457.220 336.621 427.967 337.713 945.988 274.231 302.036 433.507 647.612 94.561 317.609 621.259 289.784 296.898 208.606 408.255 1098.210 552.896 511.198 347.732 376.920 283.587 532.582 630.999 1071.546 322.200 474.815 338.414 423.277 301.029 266.479 179.854 210.376 221.355 211.203 323.275 428.758 268.189 596.935 1066.996 984.430 468.840 340.875 783.163 555.215 119.567 58.888 226.598 759.839 418.362 514.156 105.748
164.962 487.340 632.898 470.094 366.972 252.599 96.043 385.436 455.470 530.759 257.503 255.061 242.525 385.682 385.293 416.694 134.020 268.895 447.871 371.642 672.320 515.267 487.960 138.036 327.469 367.762 647.455 701.411 368.091 0.000 183.646 210.508 406.330 366.702 629.882 568.420 519.272 57.551 370.344 370.603 329.780 393.628 233.961 441.905 843.919 372.151 216.732 245.534 813.270 159.727 137.737 299.786 231.124 650.207 390.905 408.271 550.250 412.121 454.692 211.020 373.599 205.098 156.597 407.026 541.086 857.160 289.992 395.732 90.878 509.751 198.900 291.532 331.657 838.026 215.611 233.765 251.858 81.608 194.440 177.678 381.644 371.124 398.653 388.500 216.686 177.431 384.863 390.642 825.945 688.649 302.554 81.134 492.963 314.165 356.251 419.020 368.880 453.386 127.857 421.004 441.413
231.919 368.768 576.005 363.013 428.778 134.027 112.867 266.864 336.898 412.188 138.931 131.725 119.189 303.652 266.721 334.663 53.152 150.324 500.501 314.748 724.950 396.696 369.388 57.168 245.438 249.190 528.884 582.839 286.060 177.362 0.000 151.692 287.758 463.972 694.234 449.848 400.700 148.269 251.773 465.223 247.750 311.597 110.626 525.161 908.271 253.579 157.916 140.150 877.622 257.203 147.456 181.214 107.788 702.837 272.333 289.699 431.679 400.860 360.894 87.684 468.219 83.083 31.284 288.454 422.514 855.059 309.745 338.838 121.839 391.179 76.886 289.431 393.429 918.507 92.276 231.664 128.523 209.680 71.105 41.912 299.613 252.552 280.081 269.929 93.351 185.607 266.291 350.182 823.844 741.279 222.088 119.563 545.593 312.064 274.220 336.989 250.308 535.146 175.211 353.196 342.682
243.053 392.214 527.941 386.459 525.650 157.473 179.229 290.310 360.344 435.633 138.183 212.792 158.563 422.886 290.167 412.216 166.140 149.575 432.285 266.684 638.039 420.141 392.834 170.156 364.672 272.636 552.329 606.285 405.294 243.724 184.358 0.000 311.204 542.069 686.187 473.294 424.146 214.631 275.218 545.970 366.984 391.020 211.449 609.868 844.664 277.025 6.224 75.489 814.016 327.418 218.746 180.466 187.620 615.926 295.779 313.145 455.125 304.045 384.340 192.118 548.966 201.815 156.724 311.900 445.960 761.712 217.138 290.774 188.201 414.625 195.617 196.084 395.219 1005.989 192.175 147.995 180.073 276.042 175.539 161.146 418.847 275.998 303.527 293.375 193.250 107.918 289.737 250.218 730.497 654.368 131.736 189.778 547.382 218.717 393.454 396.837 273.754 521.457 209.792 305.132 366.127
421.291 208.331 636.537 148.032 647.923 261.999 338.219 57.580 238.180 313.470 286.817 317.318 263.088 278.537 124.067 173.788 278.504 298.210 689.873 451.197 896.987 297.978 270.671 282.521 202.125 97.496 430.166 366.994 185.436 402.714 284.270 299.578 0.000 683.118 883.606 351.131 301.982 373.621 82.151 684.368 204.437 161.768 311.360 744.306 1097.643 52.435 305.802 288.036 1066.994 482.555 367.066 329.100 287.531 874.874 112.706 190.981 250.353 548.746 145.049 292.030 687.364 301.726 256.636 41.205 323.796 1020.660 476.087 426.739 347.191 292.461 295.529 455.032 582.802 1137.652 296.621 406.943 284.599 435.032 275.451 261.058 274.499 60.823 56.513 74.047 297.697 366.866 106.664 498.068 989.446 913.316 369.974 344.915 734.966 477.665 225.078 158.410 80.686 724.519 391.889 429.697 126.837
440.166 785.496 944.791 702.061 256.310 519.148 385.107 683.592 753.626 828.915 555.659 515.137 519.089 617.650 683.449 648.661 438.188 567.051 483.971 683.534 708.419 813.423 786.116 442.205 559.436 665.918 945.611 937.168 600.059 338.181 442.422 525.570 704.486 0.000 641.433 866.576 817.428 387.093 668.500 34.155 561.748 625.595 510.526 115.256 855.470 670.307 531.794 556.878 824.822 289.890 390.843 597.942 507.688 686.306 689.061 706.427 848.407 727.183 686.660 487.584 37.152 459.760 459.712 705.182 839.242 1155.880 558.124 707.624 377.838 807.907 453.562 603.424 368.193 562.420 492.176 548.827 508.389 319.023 471.005 436.454 613.611 669.280 696.809 686.657 493.251 492.493 683.019 705.704 1124.665 724.749 617.616 368.094 555.592 612.885 588.218 650.987 667.036 464.938 449.312 724.688 673.381
578.760 965.286 951.628 959.532 787.931 730.546 645.007 863.382 933.417 935.897 741.513 781.523 729.032 922.139 863.240 953.151 660.482 752.906 289.632 690.372 514.081 970.169 965.907 664.498 863.926 845.708 1052.593 1179.358 904.548 647.909 710.108 678.794 884.276 648.367 0.000 973.558 924.409 640.013 848.291 658.077 866.237 930.085 760.424 706.033 421.335 850.097 685.018 713.820 399.867 689.501 683.219 783.797 750.027 491.968 868.851 886.218 1028.197 880.407 957.412 737.482 627.929 732.427 683.059 884.973 946.224 1165.052 621.584 714.461 653.979 964.652 726.229 610.261 404.682 987.075 742.074 616.758 752.351 680.755 720.903 704.140 918.101 849.070 876.599 866.447 743.149 620.408 862.810 833.957 1133.838 530.410 770.840 655.556 524.172 622.057 892.708 955.477 846.827 295.119 675.570 738.540 939.200
607.713 405.694 495.398 418.516 834.344 448.420 524.640 310.962 161.602 89.046 473.238 503.739 449.510 509.551 281.487 444.272 464.926 484.631 708.798 310.058 914.552 111.811 159.992 468.942 433.168 263.956 144.416 638.342 441.977 589.135 470.691 485.999 342.203 869.539 962.700 0.000 77.558 560.043 288.967 870.789 435.480 423.077 497.781 930.728 1121.178 313.099 492.223 474.458 1090.529 668.976 553.487 515.521 473.953 892.439 298.684 209.776 486.124 645.088 416.397 478.451 873.786 488.147 443.057 343.068 99.372 966.380 545.044 285.600 533.613 106.294 481.950 441.666 743.661 1324.073 483.043 512.469 471.020 621.453 461.872 447.479 505.512 312.072 330.315 329.449 484.118 536.922 292.642 576.838 935.165 930.881 534.194 531.336 895.825 492.459 456.121 428.894 286.728 797.971 578.310 288.558 398.184
575.447 373.428 463.132 386.250 802.079 416.154 492.374 278.696 130.622 11.488 440.972 471.473 417.244 477.285 249.222 412.007 432.660 452.365 676.532 277.793 882.286 80.831 129.012 436.676 400.902 231.690 186.721 606.076 409.711 556.870 438.425 453.733 309.937 837.273 930.435 96.853 0.000 527.777 256.701 838.523 403.214 390.811 465.515 898.462 1088.912 280.833 459.957 442.192 1058.263 636.710 521.221 483.256 441.687 860.173 266.418 177.510 453.858 612.823 384.131 446.185 841.520 455.882 410.791 310.802 21.814 934.114 512.778 253.335 501.347 75.314 449.684 409.400 711.395 1291.807 450.777 480.204 438.755 589.187 429.606 415.213 473.247 279.806 298.049 297.183 451.852 504.656 260.376 544.572 902.899 898.616 501.928 499.070 863.559 460.193 423.855 396.628 254.462 765.705 546.044 256.292 365.919
164.904 429.789 575.347 420.140 385.299 195.048 38.492 327.885 397.919 473.209 199.952 197.510 184.974 335.728 327.742 366.740 76.469 211.344 433.486 314.091 657.935 457.716 430.409 80.485 277.515 310.211 589.905 643.860 318.137 102.988 126.095 152.957 348.779 401.332 627.219 510.869 461.721 0.000 312.793 405.233 279.826 343.674 176.410 469.517 841.256 314.600 159.181 187.984 810.607 187.068 112.028 242.235 173.573 635.822 333.354 350.720 492.700 354.571 404.738 153.469 408.230 147.547 99.046 349.475 483.535 799.609 254.295 338.181 47.465 452.200 141.349 233.981 326.414 865.638 158.060 176.214 194.308 135.305 136.890 120.127 331.690 313.573 341.102 330.950 159.136 119.880 327.312 333.091 768.394 674.264 245.003 49.427 478.578 256.614 306.297 369.066 311.329 468.131 76.700 363.453 391.459
386.293 170.722 593.281 165.263 612.925 227.001 303.221 21.995 194.924 270.214 251.819 282.320 228.090 269.530 59.297 191.019 243.506 263.211 654.875 407.941 861.989 254.722 227.415 247.522 193.118 32.726 386.910 385.089 188.723 367.716 249.272 264.579 66.639 648.119 848.608 307.875 258.726 338.623 0.000 649.370 195.430 169.824 276.362 709.308 1062.645 49.524 270.804 253.038 1031.996 447.557 332.068 294.102 252.533 839.876 73.841 147.725 260.231 513.748 163.143 257.032 652.366 266.728 221.638 54.101 280.540 985.662 441.088 383.483 312.193 249.205 260.531 420.034 547.803 1102.654 261.623 371.945 249.601 400.034 240.453 226.060 265.491 48.497 41.348 40.770 262.698 331.868 67.799 463.070 954.447 878.318 334.975 309.916 699.967 442.667 216.071 175.641 15.916 689.520 356.890 386.441 144.931
451.591 762.915 924.917 679.481 233.729 496.567 376.193 661.011 731.046 806.335 533.078 492.557 496.509 595.070 660.869 626.081 415.608 544.471 482.122 663.660 706.571 790.843 763.536 419.624 536.856 643.338 923.031 914.588 577.478 331.502 419.842 517.021 681.905 52.862 639.585 843.996 794.848 380.414 645.920 0.000 539.168 603.015 487.945 81.101 853.622 647.726 523.245 534.298 822.973 267.310 368.263 575.362 485.108 684.458 666.481 683.847 825.826 718.635 664.080 465.004 2.996 437.179 437.132 682.602 816.662 1163.673 569.550 687.750 368.925 785.326 430.982 598.045 366.345 554.259 469.595 540.278 485.809 318.108 448.425 413.874 591.031 646.699 674.228 664.076 470.671 483.944 660.439 697.155 1132.458 722.900 609.067 359.181 553.743 620.678 565.638 628.407 644.456 463.089 440.764 702.108 650.800
403.626 381.079 730.465 196.901 510.374 277.728 284.574 223.290 332.109 407.398 314.239 273.717 277.670 94.560 268.649 134.977 224.859 325.632 672.208 484.813 896.657 391.906 364.599 228.876 31.963 242.078 524.094 409.695 86.374 319.515 201.003 327.000 211.544 545.568 864.891 445.059 395.911 319.166 262.170 546.818 0.000 117.684 269.106 606.757 1078.928 211.955 333.224 315.459 1048.279 385.776 265.177 356.523 266.269 874.544 284.199 312.004 401.569 576.168 172.975 246.165 549.815 218.340 225.454 218.573 417.725 1026.766 481.452 508.903 276.288 386.389 212.143 461.138 559.555 1000.102 250.756 403.371 266.970 351.833 229.586 195.035 90.521 220.343 231.323 221.170 251.831 357.314 278.157 525.491 995.552 912.986 397.396 269.431 711.719 483.771 60.745 137.302 236.566 688.395 346.918 523.261 156.075
444.932 322.786 672.670 133.100 551.680 319.034 325.880 164.997 274.314 349.603 348.361 315.024 318.976 153.755 211.313 91.865 266.166 359.753 713.514 487.331 937.963 334.111 306.804 270.182 77.343 184.742 466.299 391.632 56.905 360.821 242.309 361.121 153.251 586.874 906.197 387.264 338.115 360.472 203.877 588.125 79.655 0.000 310.412 648.063 1120.234 153.662 367.346 349.580 1089.585 427.082 306.483 390.644 307.575 915.850 225.906 253.711 385.182 610.290 129.864 287.471 591.121 259.646 266.760 160.280 359.930 1068.072 522.758 462.873 317.594 328.594 253.449 502.444 600.861 1041.409 292.062 444.678 308.276 393.139 270.892 236.341 149.716 162.050 173.030 162.877 293.138 398.620 219.864 559.612 1036.858 954.292 431.517 310.737 753.025 525.077 100.296 94.191 178.273 729.701 388.224 465.830 141.051
268.748 363.109 581.959 357.355 470.023 26.855 176.406 261.205 331.239 406.529 103.680 62.678 58.040 344.031 261.063 375.043 116.692 115.073 537.330 320.703 755.055 391.037 363.730 120.708 285.817 243.531 523.225 577.181 326.440 240.902 110.625 157.646 282.099 505.218 731.063 444.190 395.041 211.809 246.114 506.468 288.129 351.976 0.000 566.407 945.100 247.920 163.870 140.593 914.451 320.743 209.071 145.963 51.404 732.943 266.674 284.041 426.020 406.815 355.235 72.219 509.465 71.294 94.823 282.796 416.856 878.729 334.155 344.793 185.379 385.520 65.096 313.101 430.258 959.752 42.061 265.011 28.385 273.220 64.378 91.625 339.992 246.893 274.422 264.270 43.136 222.436 260.632 356.137 847.514 771.385 228.042 183.102 582.422 335.734 314.599 367.732 244.649 571.975 238.750 359.151 337.023
494.918 838.501 999.542 755.067 309.315 572.153 439.858 736.597 806.632 881.921 608.664 568.143 572.095 670.656 736.455 701.667 491.194 620.057 559.823 738.286 784.271 866.429 839.122 495.210 612.442 718.924 998.617 990.174 653.064 392.932 495.428 580.321 757.491 96.188 717.285 919.582 870.434 441.844 721.506 77.700 614.754 678.601 563.531 0.000 931.322 723.312 586.546 609.884 900.674 342.896 443.849 650.948 560.694 762.158 742.067 759.433 901.412 781.935 739.666 540.590 80.697 512.765 512.718 758.188 892.248 1210.631 612.876 762.376 432.590 860.912 506.568 658.175 444.045 608.017 545.181 603.578 561.395 373.775 524.011 489.460 666.617 722.285 749.814 739.662 546.257 547.244 736.025 760.455 1179.417 800.601 672.367 422.846 631.444 667.636 641.224 703.993 720.042 540.790 504.064 777.694 726.386
792.079 1178.606 1098.647 1172.851 1001.251 943.865 858.326 1076.702 1082.287 1082.916 933.508 994.843 942.352 1135.459 1076.559 1166.471 873.802 944.900 487.697 837.390 526.016 1117.188 1114.777 877.818 1077.245 1059.028 1199.612 1392.677 1117.868 861.228 923.427 835.787 1097.596 861.686 425.168 1120.577 1071.428 853.333 1061.610 871.396 1079.557 1143.404 973.743 919.353 0.000 1063.417 842.011 870.814 143.288 902.821 896.538 975.791 963.346 503.903 1082.171 1099.537 1241.517 1041.690 1170.732 950.801 841.248 945.746 896.379 1098.292 1093.243 1312.071 775.017 861.480 867.299 1111.671 939.549 757.280 618.002 733.003 955.393 785.110 965.670 894.075 934.222 917.459 1131.420 1062.390 1089.919 1079.767 956.468 833.727 1076.129 980.976 1280.857 542.345 932.123 868.875 737.491 769.076 1106.027 1168.796 1060.146 508.438 888.889 885.559 1152.519
390.644 200.487 607.075 161.460 617.276 231.352 307.572 32.406 208.719 284.008 256.170 286.671 232.441 265.727 89.063 187.216 247.857 267.562 659.226 421.736 866.340 268.516 241.209 251.873 189.315 62.492 400.704 381.286 184.920 372.067 253.623 268.931 65.730 652.471 852.959 321.669 272.520 342.974 71.286 653.721 191.626 166.021 280.713 713.659 1066.996 0.000 275.155 257.389 1036.347 451.908 336.419 298.453 256.884 844.227 103.607 161.520 273.710 518.099 159.340 261.383 656.717 271.079 225.989 53.192 294.335 990.013 445.440 397.278 316.544 262.999 264.882 424.385 552.155 1107.005 265.974 376.296 253.952 404.385 244.804 230.411 261.688 36.004 40.439 30.287 267.050 336.219 97.565 467.421 958.799 882.669 339.326 314.268 704.318 447.018 212.268 171.837 45.682 693.872 361.242 400.235 141.128
239.112 388.273 524.000 382.518 521.709 153.532 175.288 286.369 356.403 431.693 134.242 208.851 154.622 418.945 286.226 408.275 162.199 145.635 428.344 262.743 634.098 416.201 388.894 166.215 360.731 268.695 548.389 602.344 401.354 239.783 180.418 40.023 307.263 538.128 682.246 469.353 420.205 210.690 271.278 542.029 363.043 387.079 207.508 605.927 840.724 273.084 0.000 71.548 810.075 323.477 214.805 176.525 183.679 611.985 291.838 309.204 451.184 300.105 380.399 188.177 545.025 197.874 152.783 307.960 442.019 757.771 213.198 286.833 184.260 410.684 191.676 192.143 391.278 1002.048 188.234 144.054 176.133 272.101 171.598 157.205 414.906 272.057 299.586 289.434 189.309 103.977 285.796 246.278 726.557 650.427 127.795 185.837 543.442 214.776 389.513 392.896 269.813 517.516 205.851 301.191 362.187
290.286 365.992 526.203 360.238 521.790 131.252 212.086 264.088 334.123 409.412 96.489 186.571 132.341 396.665 263.946 385.994 152.372 107.882 482.150 264.946 687.904 393.920 366.613 156.388 338.451 246.415 526.108 580.064 379.073 276.581 158.137 89.662 284.982 556.985 736.053 447.073 397.925 247.489 248.997 558.235 340.763 364.799 185.227 618.174 894.530 250.803 95.886 0.000 863.881 356.422 240.933 138.773 161.399 665.792 269.558 286.924 428.903 311.109 358.119 165.897 561.232 175.593 130.503 285.679 419.739 811.578 267.004 289.036 221.059 388.403 169.396 245.949 445.084 1011.519 165.954 189.514 153.852 308.899 149.318 134.925 392.626 249.777 277.305 267.153 167.029 157.784 263.516 242.858 780.363 704.234 114.763 218.782 597.248 268.582 367.233 370.616 247.533 571.323 259.657 303.394 339.906
761.296 1147.822 1067.864 1142.068 970.467 913.082 827.543 1045.918 1051.503 1052.132 902.724 964.059 911.568 1104.675 1045.776 1135.687 843.018 914.117 456.913 806.607 495.232 1086.404 1083.994 847.034 1046.462 1028.244 1168.828 1361.893 1087.084 830.445 892.644 805.004 1066.812 830.903 404.204 1089.793 1040.645 822.549 1030.827 840.613 1048.773 1112.621 942.960 888.569 133.153 1032.633 811.228 840.030 0.000 872.037 865.755 945.007 932.562 473.119 1051.387 1068.754 1210.733 1010.907 1139.948 920.018 810.464 914.962 865.595 1067.509 1062.459 1281.288 744.233 830.697 836.515 1080.888 908.765 726.497 587.218 679.320 924.609 754.326 934.886 863.291 903.439 886.676 1100.637 1031.606 1059.135 1048.983 925.685 802.944 1045.345 950.193 1250.073 511.561 901.339 838.092 706.708 738.292 1075.244 1138.013 1029.362 477.655 858.106 854.775 1121.736
281.100 581.390 735.636 542.050 285.641 335.835 172.417 479.486 549.520 624.810 351.553 331.824 335.777 457.639 479.344 488.651 228.070 362.946 438.707 474.379 663.156 609.318 582.011 232.086 399.426 461.812 741.506 777.158 440.048 126.201 259.110 313.245 500.380 283.582 620.289 662.471 613.322 175.113 464.395 287.483 401.737 465.585 327.213 355.206 834.326 466.201 319.469 345.543 803.677 0.000 212.008 393.836 324.376 641.043 484.955 502.322 644.301 514.859 526.649 304.272 290.480 276.447 250.647 501.077 635.136 959.897 399.058 498.469 165.149 603.801 270.250 394.269 314.953 751.327 308.863 336.502 325.077 112.807 287.692 253.142 453.601 465.174 492.703 482.551 309.938 280.168 478.913 493.379 928.682 679.485 405.291 155.405 467.117 416.902 428.208 490.977 462.930 443.793 236.988 523.741 513.370
245.614 441.601 621.139 377.535 389.222 193.415 95.066 339.697 409.731 485.020 211.764 189.404 193.356 293.124 339.554 324.136 90.845 223.156 514.196 359.882 738.645 469.528 442.221 94.862 234.910 322.023 601.716 612.643 275.533 145.250 116.689 195.470 360.591 418.755 707.929 522.681 473.533 126.811 324.605 420.006 237.222 301.069 184.793 479.944 921.966 326.412 201.694 212.983 891.317 197.494 0.000 254.047 181.955 716.532 345.166 362.532 504.511 415.091 362.134 161.851 423.002 134.027 112.369 361.287 495.347 863.073 317.759 383.972 85.843 464.012 127.829 297.445 407.125 876.065 166.443 239.678 182.656 177.568 145.272 110.721 289.085 325.385 352.914 342.761 167.518 198.422 339.124 393.612 831.858 754.974 293.713 78.986 559.289 320.078 263.692 326.461 323.141 548.633 157.410 398.330 348.855
298.963 400.586 596.346 394.831 525.743 82.450 216.039 298.682 368.716 444.006 61.134 137.768 102.331 400.617 298.540 420.588 156.324 14.585 562.593 335.089 768.347 428.514 401.207 160.340 342.403 281.008 560.702 614.657 383.026 280.534 162.090 170.938 319.576 560.937 761.278 481.667 432.518 251.441 283.591 562.188 344.715 399.393 149.665 622.126 974.973 285.397 177.162 118.643 944.324 360.375 244.886 0.000 150.005 746.234 304.151 321.517 463.497 421.201 392.712 169.850 565.184 146.384 134.456 320.273 454.332 892.020 347.446 359.179 225.011 422.997 140.187 326.392 460.474 1015.472 117.151 278.303 105.050 312.852 153.271 138.878 396.578 284.370 311.899 301.747 118.226 238.226 298.109 358.651 860.806 784.676 230.556 222.734 612.637 349.025 371.185 405.209 282.126 602.191 269.561 373.537 374.500
286.869 381.230 600.080 375.475 460.985 82.920 167.960 279.326 349.360 424.650 156.034 82.956 81.862 335.859 279.183 366.871 108.246 167.427 555.451 338.823 773.176 409.157 381.850 112.262 277.645 261.652 541.346 595.301 318.268 232.456 101.587 175.767 300.220 496.179 749.184 462.310 413.162 203.363 264.235 497.430 279.957 343.804 61.857 557.368 963.220 266.041 181.991 164.226 932.572 312.297 200.032 198.317 0.000 751.063 284.795 302.161 444.141 424.935 373.356 38.915 500.426 90.977 86.377 300.916 434.976 896.850 352.276 362.913 176.933 403.641 84.779 331.221 448.379 950.714 43.507 283.132 79.754 264.774 31.075 74.120 331.820 265.014 292.543 282.391 44.582 240.557 278.753 374.258 865.635 789.506 246.163 174.656 600.543 353.854 306.427 369.196 262.770 590.096 230.304 377.271 355.144
617.839 986.371 897.479 980.616 839.537 751.630 684.086 884.467 881.119 881.748 732.340 806.949 752.720 961.218 884.325 992.230 699.561 743.733 286.529 636.223 53.899 916.020 913.609 703.577 903.005 866.793 998.444 1200.442 943.627 708.619 749.187 634.620 905.361 724.757 460.888 919.409 870.261 700.723 869.376 734.467 905.316 969.164 799.503 782.423 543.225 871.182 640.844 669.646 512.576 741.107 734.824 774.623 781.777 0.000 889.936 907.302 1049.282 840.522 978.497 776.561 704.318 771.505 722.138 906.058 892.075 1110.904 573.849 660.313 693.058 910.504 765.308 556.113 433.221 1114.283 781.152 583.942 774.231 732.361 759.982 743.219 957.180 870.155 897.684 887.532 782.228 639.417 883.894 779.808 1079.689 79.753 730.955 694.635 552.138 567.908 931.787 990.994 867.911 354.972 714.649 684.391 960.285
410.068 159.975 617.886 208.511 636.700 250.776 326.995 65.242 219.529 294.819 275.594 306.094 251.865 312.777 84.389 234.267 267.281 286.986 678.650 432.546 885.764 279.327 252.020 271.297 236.366 57.818 411.515 428.336 231.971 391.491 273.047 288.354 109.810 671.894 872.383 332.480 283.331 362.398 43.248 673.145 238.677 213.072 300.137 733.083 1086.420 92.772 294.578 276.813 1055.771 471.332 355.843 317.877 276.308 863.651 0.000 162.391 256.077 537.523 206.391 280.806 676.141 290.503 245.412 97.349 305.145 1009.437 464.863 408.088 335.968 273.810 284.305 443.809 571.578 1126.429 285.398 395.720 273.376 423.809 264.227 249.835 308.739 91.745 84.596 84.018 286.473 355.643 56.298 486.845 978.222 902.093 358.750 333.691 723.742 466.442 259.319 218.888 41.008 713.295 380.665 411.046 188.179
461.849 256.620 486.445 272.653 688.481 302.557 378.777 165.099 83.109 163.378 327.375 357.876 303.646 363.688 135.624 298.409 319.062 338.767 699.845 301.105 905.599 147.885 115.599 323.078 287.305 118.093 280.074 492.479 296.113 443.272 324.828 340.136 196.340 723.676 924.164 201.038 151.890 414.179 143.104 724.926 289.616 277.214 351.918 784.864 1112.225 167.236 346.360 328.594 1081.576 523.113 407.624 369.658 328.089 883.486 144.788 0.000 340.261 589.304 270.534 332.588 727.922 342.284 297.194 197.205 173.704 957.426 516.645 276.647 387.749 142.369 336.087 432.713 623.360 1178.210 337.179 447.501 325.157 475.590 316.009 301.616 359.649 166.209 184.452 183.586 338.255 407.424 138.746 538.626 926.212 921.928 410.532 385.473 775.523 483.506 310.258 283.031 140.864 765.077 432.447 279.605 252.321
590.100 380.587 805.345 400.439 812.579 430.807 507.027 269.498 406.989 482.278 455.625 486.126 431.897 321.424 296.323 418.656 447.313 467.018 858.682 620.006 1065.795 466.786 439.479 451.329 343.142 269.752 598.974 598.152 397.104 571.523 453.078 468.386 270.830 847.773 1052.415 519.939 470.790 542.430 254.407 849.024 320.495 414.176 480.168 908.962 1266.451 302.807 474.610 456.845 1235.803 651.363 535.874 497.909 456.340 1043.682 284.963 359.790 0.000 717.554 397.457 460.838 852.020 470.534 425.444 291.566 492.605 1189.469 644.895 595.548 516.000 461.269 464.337 623.840 751.610 1302.308 465.430 575.751 453.407 603.840 444.259 429.866 287.623 301.780 295.755 295.177 466.505 535.675 278.921 666.877 1158.254 1082.125 538.782 513.723 903.774 646.473 371.924 410.817 252.943 893.327 560.697 598.505 379.244
434.135 617.276 656.479 611.522 716.732 382.536 370.311 515.372 585.407 640.748 363.245 437.855 383.625 620.093 515.230 637.278 358.436 374.638 623.367 395.223 829.121 645.204 617.897 362.452 561.879 497.699 757.444 831.348 602.502 434.806 408.062 265.525 536.266 733.151 877.269 678.409 629.261 405.713 500.281 737.052 564.191 616.083 436.511 800.950 1035.746 502.087 271.749 300.551 1005.098 518.500 411.042 405.529 412.682 807.008 520.842 538.208 680.187 0.000 609.403 417.181 740.048 426.877 381.013 536.963 651.075 952.794 408.220 419.313 379.283 639.687 420.680 387.166 586.301 1197.071 417.237 330.730 405.136 467.124 400.602 386.209 616.054 501.060 528.589 518.437 418.313 299.000 514.800 80.600 921.579 845.450 328.250 380.860 738.464 409.799 590.661 621.900 498.817 712.539 400.874 433.671 591.190
494.705 369.886 722.443 40.565 601.452 368.807 375.652 201.805 324.086 399.375 398.133 364.796 368.748 203.527 258.462 66.321 315.938 409.526 763.287 537.103 987.735 383.883 356.576 319.954 127.115 231.890 516.071 370.503 98.642 410.593 292.081 410.894 182.823 636.646 955.969 437.036 387.888 410.245 240.685 637.897 124.205 75.074 360.185 697.835 1170.006 183.234 417.118 399.352 1139.357 476.854 356.256 440.416 357.347 965.622 273.006 303.483 414.754 660.062 0.000 337.243 640.893 309.419 316.532 189.852 409.702 1117.845 572.531 512.645 367.366 378.366 303.221 552.216 650.633 1091.181 341.835 494.450 358.048 442.911 320.664 286.113 199.488 191.622 209.837 204.847 342.910 448.393 266.964 609.384 1086.630 1004.065 481.290 360.510 802.797 574.849 148.034 50.943 215.081 779.473 437.996 515.602 81.306
283.893 378.254 597.104 372.499 462.989 70.788 169.964 276.350 346.384 421.674 147.613 65.032 78.886 337.863 276.207 368.874 110.250 159.006 552.475 335.847 770.200 406.181 378.874 114.266 279.649 258.676 538.370 592.325 320.271 234.459 103.590 172.791 297.244 498.183 746.208 459.334 410.186 205.367 261.259 499.433 281.961 345.808 43.933 559.372 960.244 263.065 179.015 161.250 929.596 314.300 202.036 189.896 20.104 748.087 281.819 299.185 441.165 421.959 370.380 0.000 502.430 87.863 88.381 297.940 432.000 893.874 349.300 359.937 178.937 400.665 81.665 328.245 445.403 952.717 35.544 280.156 71.792 266.777 33.078 76.123 333.824 262.038 289.567 279.415 36.620 237.581 275.777 371.282 862.659 786.530 243.187 176.660 597.567 350.878 308.431 371.200 259.794 587.120 232.308 374.295 352.168
448.595 759.919 921.920 676.485 230.733 493.571 373.197 658.015 728.049 803.339 530.082 489.560 493.513 592.073 657.873 623.085 412.612 541.475 479.126 660.664 703.574 787.847 760.540 416.628 533.860 640.341 920.035 911.592 574.482 328.506 416.846 514.025 678.909 49.866 636.589 841.000 791.851 377.418 642.924 31.378 536.171 600.019 484.949 78.105 850.626 644.730 520.249 531.302 819.977 264.314 365.267 572.365 482.112 681.462 663.484 680.851 822.830 715.638 661.083 462.008 0.000 434.183 434.136 679.606 813.666 1160.677 566.553 684.754 365.929 782.330 427.986 595.049 363.349 551.262 466.599 537.282 482.813 315.112 445.428 410.878 588.035 643.703 671.232 661.080 467.674 480.948 657.442 694.159 1129.462 719.904 606.071 356.185 550.747 617.681 562.642 625.411 641.459 460.093 437.767 699.112 647.804
293.686 400.528 618.909 394.773 448.305 72.481 174.633 298.624 368.658 443.948 138.002 68.470 92.362 322.313 298.481 353.324 114.919 149.395 562.268 357.653 786.716 428.456 401.148 118.935 264.099 280.950 560.644 614.599 304.722 237.399 88.907 194.596 319.518 483.500 756.000 481.608 432.460 210.036 283.533 484.750 266.411 330.258 54.414 544.688 970.037 285.339 200.820 174.915 939.389 306.091 187.352 180.286 57.329 764.603 304.093 321.459 463.439 443.764 391.323 78.143 487.746 0.000 93.050 320.214 454.274 915.679 371.105 381.743 176.081 422.939 43.378 350.051 455.196 938.034 36.064 293.431 61.722 269.717 70.303 79.772 318.274 284.312 311.841 301.689 37.139 247.374 298.051 393.087 884.464 803.045 264.992 169.224 607.360 372.683 292.881 355.650 282.068 596.913 236.977 396.101 374.442
218.448 355.297 562.534 349.543 417.610 120.557 99.396 253.393 323.427 398.717 125.460 118.254 105.718 290.327 253.251 321.338 39.682 136.853 487.030 301.277 711.479 383.225 355.918 43.698 232.113 235.719 515.413 569.368 272.735 163.891 33.061 138.221 274.287 452.805 680.763 436.378 387.229 134.799 238.302 454.055 234.425 298.272 97.155 513.994 894.800 240.108 144.445 126.680 864.151 243.732 133.986 167.743 94.317 689.366 258.862 276.229 418.208 387.389 347.423 74.213 457.052 71.916 0.000 274.984 409.044 841.588 296.274 325.367 108.369 377.708 65.719 275.960 379.959 907.339 78.805 218.194 115.052 196.209 57.634 30.745 286.288 239.081 266.610 256.458 79.880 172.136 252.820 336.712 810.374 727.808 208.617 106.092 532.122 298.593 260.895 323.664 236.837 521.676 161.740 339.725 329.211
419.465 206.504 634.711 142.278 646.097 260.173 336.393 50.666 236.354 311.643 284.991 315.491 261.262 266.909 116.033 168.035 276.678 296.383 688.047 449.371 895.161 296.151 268.844 280.694 190.497 89.462 428.339 361.241 179.683 400.888 282.444 297.751 16.596 681.291 881.780 349.304 300.156 371.795 80.324 682.542 192.809 156.014 309.534 742.480 1095.817 40.806 303.976 286.210 1065.168 480.729 365.240 327.274 285.705 873.048 110.880 189.155 248.527 546.920 139.296 290.204 685.538 299.900 254.809 0.000 321.970 1018.834 474.260 424.913 345.365 290.635 293.703 453.206 580.975 1135.826 294.795 405.117 282.773 433.206 273.624 259.232 262.870 49.194 49.599 62.419 295.870 365.040 104.838 496.242 987.619 911.490 368.147 343.088 733.139 475.839 213.450 152.656 72.653 722.692 390.062 427.871 121.083
621.013 418.995 508.699 431.817 847.645 461.721 537.941 324.262 176.188 68.665 486.539 517.040 462.810 522.852 294.788 457.573 478.226 497.931 722.099 323.359 927.853 126.397 174.579 482.242 446.468 277.257 232.288 651.643 455.277 602.436 483.992 499.300 355.504 882.840 976.001 142.419 57.178 573.343 302.268 884.090 448.780 436.378 511.082 944.028 1134.479 326.400 505.524 487.758 1103.830 682.277 566.788 528.822 487.253 905.740 311.985 223.076 499.425 658.389 429.697 491.752 887.086 501.448 456.358 356.369 0.000 979.680 558.345 298.901 546.913 120.881 495.251 454.967 756.962 1337.374 496.343 525.770 484.321 634.754 475.173 460.780 518.813 325.373 343.616 342.750 497.419 550.223 305.943 590.138 948.466 944.182 547.495 544.637 909.125 505.760 469.422 442.194 300.028 811.271 591.610 301.859 411.485
818.832 1090.201 657.225 1084.446 1155.051 855.460 808.630 988.297 926.825 927.454 836.170 910.779 856.550 1077.021 988.154 1108.032 815.363 847.562 901.489 681.725 1107.243 961.726 959.315 819.380 1018.807 970.623 1044.150 1304.272 1059.429 873.126 864.989 738.449 1009.191 1146.662 1155.392 965.115 915.966 844.033 973.205 1150.563 1021.119 1084.966 909.436 1231.664 1313.869 975.012 744.673 773.476 1283.220 956.820 867.970 878.453 885.607 1085.130 993.766 960.654 1153.111 944.352 1082.327 890.105 1153.559 887.308 837.941 1009.887 937.780 0.000 734.502 706.858 817.603 956.209 881.111 658.800 933.119 1635.390 890.162 704.307 878.060 905.444 873.526 859.021 1072.982 973.985 1001.514 991.362 891.237 743.247 987.724 882.495 60.030 1123.573 834.785 819.179 1085.282 593.620 1047.589 1094.824 971.741 990.662 839.193 744.979 1064.114
232.210 547.144 473.498 541.389 575.125 312.404 266.107 445.240 457.138 457.767 293.113 367.722 313.493 533.964 445.098 564.976 272.307 304.506 297.323 212.242 503.077 492.039 489.628 276.323 475.750 427.566 574.463 761.215 516.373 314.651 321.933 195.393 466.134 560.040 551.225 495.428 446.280 301.510 430.149 563.941 478.062 541.909 366.379 645.042 709.703 431.955 201.617 230.419 679.054 414.296 324.913 335.396 342.550 480.964 450.709 468.075 610.055 401.296 539.270 347.049 566.938 344.251 294.884 466.831 468.094 684.588 0.000 236.332 275.080 486.523 338.054 132.132 346.497 1053.009 347.105 115.473 335.004 348.733 330.469 315.965 529.925 430.928 458.457 448.305 348.180 185.077 444.667 355.713 653.373 519.406 291.728 276.656 498.661 141.592 504.532 551.767 428.684 386.495 296.670 268.820 521.058
343.774 530.079 318.602 524.324 643.394 295.338 321.187 428.175 302.241 302.870 276.048 350.657 296.428 524.962 407.783 550.081 310.757 287.440 423.198 57.345 628.952 337.142 334.732 314.773 466.748 390.251 419.566 744.150 507.371 385.682 322.223 217.846 449.069 671.604 677.100 340.531 291.383 356.589 413.083 675.505 469.060 528.885 349.314 739.777 835.577 414.890 224.071 234.974 804.929 469.376 363.364 318.331 325.485 606.839 424.979 336.071 592.990 359.488 522.205 329.983 678.501 339.680 294.589 449.765 313.197 723.578 259.444 0.000 330.159 331.626 333.482 156.066 458.060 1133.123 330.040 226.869 317.938 418.000 313.404 299.011 520.923 413.863 441.392 431.240 331.115 251.321 418.937 291.237 692.364 645.281 248.594 331.736 610.224 206.858 495.530 534.702 411.619 512.370 351.750 113.923 503.992
192.113 429.514 602.557 410.076 373.683 194.774 39.338 327.610 397.644 472.934 199.677 193.588 184.699 325.665 327.468 356.677 76.194 211.070 460.695 341.300 685.144 457.442 430.135 80.210 267.451 309.936 589.630 643.585 308.074 103.834 120.873 165.923 348.504 391.800 654.428 510.595 461.446 76.967 312.519 395.701 269.763 333.610 176.136 457.901 868.465 314.325 172.147 193.667 837.816 175.451 101.827 241.960 173.298 663.031 333.079 350.445 492.425 381.780 394.675 153.194 398.697 138.211 98.771 349.201 483.260 826.818 281.504 365.390 0.000 451.925 132.013 261.190 353.623 854.022 157.785 203.423 186.841 136.152 136.615 114.905 321.626 313.298 340.827 330.675 158.861 147.089 327.037 360.300 795.603 701.473 264.166 37.811 505.787 283.823 296.233 359.002 311.054 495.340 103.909 390.662 381.396
555.528 353.509 524.160 366.331 782.160 396.235 472.455 258.777 110.694 107.587 421.053 451.554 397.325 457.366 229.303 392.088 412.741 432.446 737.561 338.821 943.314 5.517 93.917 416.757 380.983 211.771 224.283 586.157 389.792 536.951 418.506 433.814 290.018 817.354 991.463 145.248 96.099 507.858 236.782 818.604 383.295 370.892 445.596 878.543 1149.940 260.914 440.038 422.273 1119.292 616.791 501.302 463.337 421.768 921.202 246.499 157.591 433.939 673.851 364.212 426.266 821.601 435.963 390.872 290.883 117.913 995.142 573.807 314.363 481.428 0.000 429.765 470.428 717.038 1271.888 430.858 541.179 418.835 569.268 409.687 395.294 453.328 259.887 278.130 277.264 431.933 501.103 240.457 605.600 963.927 959.644 504.210 479.151 869.202 521.221 403.936 376.709 234.543 826.733 526.125 317.320 345.999
299.883 406.725 625.107 400.971 454.503 78.678 180.831 304.821 374.856 450.145 144.200 74.667 98.560 328.510 304.679 359.522 121.116 155.592 568.465 363.850 792.913 434.653 407.346 125.132 270.297 287.147 566.841 620.797 310.919 243.596 95.104 200.794 325.715 489.697 762.198 487.806 438.657 216.233 289.730 490.947 272.608 336.456 60.612 550.886 976.235 291.536 207.018 181.113 945.586 312.288 193.550 186.483 63.526 770.801 310.290 327.657 469.636 449.962 397.520 84.341 493.944 6.197 99.248 326.412 460.472 921.876 377.302 387.940 182.279 429.136 0.000 356.248 461.393 944.231 42.261 299.628 67.920 275.914 76.500 85.969 324.471 290.509 318.038 307.886 43.337 253.571 304.248 399.284 890.662 809.243 271.189 175.422 613.557 378.881 299.078 361.848 288.266 603.110 243.174 402.298 380.639
297.823 521.659 360.315 515.905 621.657 286.919 275.236 419.755 343.955 344.584 267.628 342.238 288.008 512.763 419.613 541.661 281.969 279.021 377.247 99.058 583.001 378.856 376.445 285.985 454.549 402.081 461.280 735.731 495.172 339.731 313.804 205.055 440.649 625.653 631.149 382.245 333.096 310.639 404.664 629.554 456.861 520.466 340.894 705.875 789.627 406.470 211.279 224.616 758.978 423.425 334.575 309.912 317.065 560.888 425.224 377.784 584.570 345.974 513.785 321.564 632.550 331.260 286.170 441.346 354.910 703.903 213.493 123.148 284.209 373.339 325.063 0.000 412.110 1101.996 321.620 180.918 309.519 372.049 304.985 290.592 508.724 405.443 432.972 422.820 322.696 209.852 419.183 277.723 672.688 599.330 238.236 285.785 564.273 160.908 483.331 526.282 403.200 466.419 305.799 155.637 495.573
294.109 680.635 723.599 674.881 470.230 445.895 360.356 578.731 648.765 707.868 456.862 496.872 444.381 606.806 578.589 637.818 375.831 468.255 199.002 462.343 423.451 708.563 681.256 379.847 548.593 561.057 824.564 894.706 589.215 348.835 425.457 394.142 599.625 346.933 374.895 745.529 696.381 370.286 563.640 356.642 550.904 614.752 475.773 404.599 588.932 565.446 400.366 429.169 558.283 371.800 365.517 499.145 465.375 401.338 584.200 601.567 743.546 595.756 672.761 452.831 326.494 447.709 398.408 600.322 718.195 934.689 336.933 486.433 369.328 703.046 441.512 382.233 0.000 834.593 457.422 332.107 467.699 363.054 436.252 419.489 602.768 564.419 591.948 581.796 458.498 335.757 578.158 574.276 903.474 439.780 486.188 366.790 227.721 391.693 577.375 640.144 562.175 198.399 390.919 518.921 654.549
916.328 1225.867 1387.868 1142.432 647.435 959.519 839.145 1123.963 1193.997 1269.287 996.030 955.508 959.460 1058.021 1123.820 1089.033 878.560 1007.423 972.434 1126.612 1196.882 1253.795 1226.487 882.576 999.807 1106.289 1385.983 1377.540 1040.430 794.453 882.793 979.973 1144.857 554.463 1129.896 1306.947 1257.799 843.365 1108.872 543.158 1002.119 1065.966 950.897 606.616 1343.933 1110.678 986.197 997.249 1313.284 730.261 831.215 1038.313 948.059 1174.769 1129.432 1146.798 1288.778 1181.586 1127.031 927.955 546.154 900.131 900.084 1145.553 1279.613 1626.624 1034.287 1150.701 831.877 1248.278 893.933 1060.996 856.656 0.000 932.547 1003.230 948.761 781.060 911.376 876.825 1053.982 1109.651 1137.180 1127.028 933.622 946.896 1123.390 1160.107 1595.410 1213.212 1072.019 822.133 1044.055 1083.629 1028.589 1091.358 1107.407 953.400 903.715 1165.060 1113.752
280.624 375.053 602.204 369.298 451.048 47.006 161.571 273.149 343.183 418.472 112.527 42.995 66.887 325.055 273.006 356.067 101.857 123.920 549.206 340.947 773.654 402.980 375.673 105.873 266.842 255.475 535.168 589.124 307.464 226.067 91.650 177.891 294.043 486.242 742.939 456.133 406.985 196.974 258.057 487.493 269.153 333.001 41.352 547.431 956.976 259.864 184.115 149.440 926.327 305.908 190.095 154.810 44.267 751.542 278.618 295.984 437.963 427.059 367.179 65.082 490.489 52.318 79.988 294.739 428.799 898.973 354.400 365.037 170.544 397.464 46.121 333.345 442.134 940.777 0.000 280.369 36.247 258.385 57.241 67.731 321.017 258.837 286.366 276.214 1.075 234.312 272.576 376.382 867.759 789.984 248.287 168.267 594.298 355.978 295.624 358.393 256.593 583.851 223.915 379.395 348.966
211.446 468.851 480.121 463.096 534.235 234.110 187.814 366.947 436.981 464.390 214.820 289.429 235.200 455.671 366.804 486.682 194.013 226.212 345.905 218.865 551.659 496.778 469.471 198.030 397.457 349.273 581.086 682.922 438.079 252.309 243.639 117.099 387.841 543.934 599.808 502.051 452.903 223.216 351.855 547.835 399.769 463.616 288.086 618.453 758.285 353.662 123.323 152.126 727.636 336.003 246.620 257.103 264.257 529.546 372.416 389.782 531.762 323.002 460.977 268.755 550.831 265.958 216.591 388.537 474.717 704.383 130.759 242.955 196.786 491.262 259.761 138.754 330.391 1014.574 268.812 0.000 256.710 284.627 252.176 237.671 451.632 352.635 380.164 370.012 269.887 122.324 366.374 301.523 673.168 567.989 213.435 198.363 482.554 161.387 426.239 473.474 350.391 435.078 218.377 268.227 442.764
263.357 338.805 565.957 333.051 481.311 10.758 179.227 236.901 306.936 382.225 76.280 87.812 30.640 356.185 236.759 358.807 119.512 87.673 531.939 304.700 739.053 366.733 339.426 123.528 297.971 219.228 498.921 552.877 338.594 243.722 121.913 141.644 257.795 516.505 725.672 419.886 370.738 214.629 221.810 517.756 300.283 337.612 99.709 577.694 939.709 223.616 147.868 113.193 909.060 323.563 209.132 118.563 78.314 716.940 242.371 259.737 401.716 390.812 330.932 99.128 520.752 96.428 97.643 258.492 392.552 862.726 318.153 328.790 188.199 361.216 90.230 297.098 424.868 971.040 67.195 249.009 0.000 276.040 85.027 94.445 352.146 222.589 250.118 239.966 68.270 208.932 236.329 340.134 831.512 755.382 212.040 185.922 577.031 319.731 326.753 343.429 220.346 566.585 233.955 343.148 312.719
209.696 509.038 654.514 480.495 302.131 274.298 110.862 407.134 477.168 552.458 279.201 275.069 264.223 396.084 406.992 427.095 155.718 290.594 427.297 393.257 651.745 536.966 509.659 159.734 337.870 389.460 669.154 715.602 378.492 44.734 202.355 232.123 428.028 296.492 608.878 590.119 540.970 93.646 392.043 300.393 340.182 404.029 255.660 371.695 822.915 393.849 238.347 267.150 792.266 89.517 150.453 321.484 252.822 629.632 412.603 429.969 571.949 433.737 465.094 232.718 303.389 219.692 178.295 428.725 562.784 878.775 333.461 417.347 103.594 531.449 213.495 313.147 303.542 767.816 237.309 255.380 268.322 0.000 216.139 196.387 392.045 392.822 420.351 410.199 238.385 199.046 406.561 412.257 847.560 668.075 324.169 93.850 455.706 335.780 366.652 429.421 390.578 432.382 155.866 442.619 451.815
267.102 379.229 592.325 373.474 441.074 68.800 148.049 277.325 347.359 422.649 136.123 63.045 89.973 315.948 277.182 346.959 88.335 147.515 535.684 331.069 760.132 407.157 379.849 92.351 257.734 259.651 539.345 593.300 298.356 212.545 81.676 168.012 298.219 476.268 729.416 460.309 411.161 183.452 262.234 477.519 260.046 323.893 41.946 537.457 943.453 264.040 174.236 156.471 912.805 292.385 180.121 178.406 39.108 738.019 282.794 300.160 442.140 417.180 371.355 19.004 480.515 71.065 66.466 298.915 432.975 889.095 344.521 355.159 157.022 401.640 64.868 323.467 428.612 930.803 23.596 266.847 59.843 244.862 0.000 54.208 311.909 263.013 290.542 280.390 24.671 220.790 276.752 366.503 857.880 776.461 238.408 154.745 580.776 346.099 286.516 349.285 260.769 570.329 210.393 369.517 353.143
265.413 382.191 590.637 374.784 416.365 103.679 146.361 280.286 350.321 425.610 153.563 99.668 92.935 290.373 280.144 321.384 86.646 164.955 533.995 329.380 758.443 410.118 382.811 90.662 232.159 262.613 542.306 596.262 272.781 205.459 56.967 166.323 301.180 451.559 727.728 463.271 414.123 181.763 265.195 452.810 234.471 298.318 84.371 512.748 941.765 267.002 172.548 154.782 911.116 274.151 155.412 195.846 81.534 736.331 285.756 303.122 445.101 415.492 359.383 61.429 455.806 44.291 64.777 301.877 435.937 887.406 342.832 353.470 144.141 404.601 38.094 321.778 426.923 906.094 66.021 265.158 92.921 237.776 44.850 0.000 286.334 265.975 293.503 283.351 67.096 219.101 279.714 364.814 856.191 774.773 236.719 137.284 579.087 344.411 260.941 323.710 263.731 568.640 208.704 367.828 346.103
472.845 450.298 798.346 257.253 579.593 346.947 353.793 292.509 399.989 475.279 383.458 342.937 346.889 33.801 336.529 185.670 294.079 394.851 741.427 554.032 965.876 459.786 432.479 298.095 110.156 309.958 591.975 454.387 164.118 388.734 270.222 396.219 280.763 614.787 934.110 512.939 463.791 388.385 331.390 616.038 87.508 189.654 338.326 675.976 1148.147 281.174 402.443 384.678 1117.498 454.995 334.397 425.742 335.488 943.763 353.418 381.223 336.414 645.388 218.980 315.384 619.034 287.559 294.673 287.792 485.605 1095.985 550.671 578.122 345.507 454.270 281.362 530.357 628.774 1069.322 319.975 472.591 336.189 421.052 298.805 264.254 0.000 289.563 300.542 290.390 321.051 426.533 347.376 594.710 1064.771 982.205 466.615 338.650 780.938 552.990 138.938 187.995 305.785 757.614 416.137 591.506 200.768
423.877 217.968 638.089 157.661 650.509 264.585 340.805 65.639 239.733 315.022 289.403 319.904 265.674 261.928 104.106 183.418 281.090 300.795 692.459 452.750 899.573 299.530 272.223 285.106 185.516 77.535 431.718 377.487 181.122 405.300 286.856 302.164 89.341 685.704 886.192 352.683 303.534 376.207 89.120 686.954 187.828 162.222 313.946 746.892 1100.229 33.233 308.388 290.622 1069.580 485.141 369.652 331.686 290.117 877.460 121.088 192.534 306.943 551.332 155.542 294.616 689.950 304.312 259.222 79.523 325.349 1023.246 478.673 428.292 349.777 294.013 298.115 457.618 585.388 1140.238 299.207 409.529 287.185 437.618 278.037 263.644 257.889 0.000 73.672 63.520 300.283 369.452 115.046 500.654 992.032 915.902 372.559 347.501 737.551 480.251 208.469 168.039 63.163 727.105 394.475 431.249 137.330
404.210 191.249 619.455 154.901 630.842 244.917 321.137 60.362 221.099 296.388 269.735 300.236 246.007 285.406 106.985 180.657 261.423 281.128 672.792 434.116 879.905 280.896 253.589 265.439 208.994 80.414 413.084 373.863 192.305 385.633 267.188 282.496 25.291 666.036 866.525 334.049 284.901 356.540 65.069 667.287 211.306 168.637 294.279 727.225 1080.562 59.304 288.720 270.955 1049.913 465.473 349.985 312.019 270.450 857.793 95.625 173.900 233.271 531.664 151.918 274.948 670.283 284.645 239.554 46.028 306.715 1003.579 459.005 409.658 330.110 275.379 278.447 437.950 565.720 1120.571 279.540 389.861 267.518 417.950 258.369 243.976 281.367 67.692 0.000 78.694 280.615 349.785 89.583 480.987 972.364 896.235 352.892 327.833 717.884 460.583 231.947 165.279 63.605 707.437 374.807 412.615 133.706
407.007 216.850 623.438 138.199 633.639 247.715 323.935 48.769 225.082 300.371 272.533 303.034 248.804 242.466 105.426 163.955 264.220 283.925 675.589 438.099 882.703 284.879 257.572 268.236 166.054 78.855 417.067 358.025 161.659 388.430 269.986 285.294 56.888 668.834 869.322 338.032 288.883 359.337 87.649 670.084 168.365 142.760 297.076 730.022 1083.359 16.363 291.518 273.752 1052.710 468.271 352.782 314.816 273.247 860.590 119.970 177.883 288.818 534.462 136.079 277.746 673.080 287.442 242.352 47.070 310.698 1006.376 461.803 413.641 332.907 279.362 281.245 440.748 568.518 1123.368 282.337 392.659 270.315 420.748 261.167 246.774 238.427 24.751 56.802 0.000 283.413 352.582 113.928 483.784 975.162 899.032 355.689 330.631 720.681 463.381 189.007 148.576 62.045 710.235 377.605 416.598 117.867
288.212 373.977 601.129 368.223 449.972 45.930 169.160 272.073 342.108 417.397 111.452 41.919 65.812 323.980 271.931 354.992 109.446 122.844 556.794 339.872 774.225 401.905 374.598 113.462 265.766 254.400 534.093 588.049 306.389 233.656 90.574 176.816 292.967 485.167 750.527 455.058 405.910 204.563 256.982 486.417 268.078 331.925 48.941 546.356 964.564 258.788 183.040 148.365 933.915 307.758 189.020 153.735 51.856 752.112 277.543 294.909 436.888 425.984 366.104 72.670 489.414 51.243 87.577 293.664 427.724 897.898 353.324 363.962 177.748 396.388 45.045 332.270 449.723 939.701 14.296 284.181 35.172 265.973 64.830 75.319 319.941 257.761 285.290 275.138 0.000 241.900 271.501 375.306 866.684 790.554 247.211 170.892 601.887 354.903 294.548 357.317 255.518 591.440 231.504 378.320 347.891
160.905 445.977 518.623 440.222 483.293 211.236 136.872 344.072 414.107 489.396 191.946 266.555 212.325 413.029 343.930 444.040 151.372 203.338 390.789 257.366 596.543 473.904 446.597 155.388 354.815 326.399 606.092 660.048 395.438 201.367 200.997 94.225 364.967 499.712 613.875 527.057 477.909 172.275 328.981 503.613 357.127 420.974 251.313 567.511 803.169 330.788 100.449 129.252 772.520 285.061 208.099 234.229 240.916 574.430 349.542 366.908 508.887 295.838 438.103 228.371 506.609 223.316 173.949 365.663 499.723 742.884 175.642 281.456 145.845 468.387 217.119 177.256 313.071 963.632 232.963 117.399 233.836 233.685 211.792 195.029 408.990 329.761 357.289 347.137 234.038 0.000 343.500 274.359 711.670 612.872 186.271 147.421 465.235 199.889 383.597 446.366 327.517 454.788 167.435 306.728 419.890
416.110 166.017 623.928 214.553 642.742 256.818 333.037 71.284 225.571 300.861 281.636 312.136 257.907 318.819 90.431 240.309 273.323 293.028 684.692 438.588 891.806 285.369 258.062 277.339 242.408 63.860 417.557 434.378 238.013 397.533 279.089 294.396 115.852 677.936 878.425 338.522 289.373 368.440 49.290 679.187 244.719 219.114 306.179 739.125 1092.462 98.814 300.620 282.855 1061.813 477.374 361.885 323.919 282.350 869.693 6.042 168.433 262.119 543.565 212.433 286.848 682.183 296.545 251.454 103.391 311.187 1015.479 470.905 414.130 342.010 279.852 290.347 449.851 577.620 1132.471 291.440 401.762 279.418 429.851 270.269 255.876 314.781 97.787 90.638 90.060 292.515 361.685 0.000 492.887 984.264 908.135 364.792 339.733 729.784 472.484 265.361 224.930 47.050 719.337 386.707 417.088 194.221
406.040 572.853 588.229 567.098 688.637 338.112 342.216 470.949 540.983 572.497 307.765 393.431 339.202 591.999 470.806 592.855 330.341 319.158 571.236 326.972 776.990 600.780 573.473 334.358 533.785 453.275 689.193 786.924 574.407 406.712 364.997 237.431 491.843 705.056 825.138 610.158 561.010 377.619 455.857 708.957 536.097 571.659 392.088 772.855 983.615 457.664 243.655 251.469 952.967 490.405 382.948 350.048 368.259 754.877 476.418 493.784 635.764 80.600 564.979 372.757 711.953 382.454 337.363 492.539 582.824 897.892 380.126 351.062 351.189 595.264 376.256 337.651 558.206 1168.976 372.814 302.636 360.712 439.029 356.178 341.785 587.960 456.637 484.166 474.014 373.889 270.906 470.376 0.000 866.677 793.319 265.089 352.765 710.370 354.896 562.567 577.476 454.393 660.408 372.779 365.420 546.766
819.606 1090.975 657.999 1085.220 1155.825 856.234 809.404 989.071 927.599 928.228 836.944 911.553 857.324 1077.795 988.928 1108.806 816.137 848.336 902.263 682.499 1108.017 962.500 960.089 820.154 1019.581 971.397 1044.924 1305.046 1060.203 873.900 865.763 739.223 1009.965 1147.436 1156.166 965.889 916.740 844.807 973.979 1151.337 1021.893 1085.740 910.210 1232.438 1314.643 975.786 745.447 774.250 1283.994 957.594 868.744 879.227 886.381 1085.904 994.540 961.428 1153.885 945.126 1083.101 890.879 1154.333 888.082 838.715 1010.661 938.554 92.018 735.276 707.632 818.377 956.983 881.885 659.574 933.893 1636.164 890.936 705.081 878.834 906.218 874.300 859.795 1073.756 974.759 1002.288 992.136 892.011 744.021 988.498 883.269 0.000 1124.347 835.559 819.953 1086.056 594.394 1048.363 1095.598 972.515 991.436 839.967 745.753 1064.888
600.064 968.596 879.705 962.842 821.762 733.856 666.311 866.692 863.344 863.973 714.565 789.174 734.945 943.444 866.550 974.455 681.786 725.958 268.754 618.448 109.791 898.246 895.835 685.802 885.230 849.018 980.670 1182.668 925.852 690.844 731.412 616.845 887.586 706.982 443.114 901.634 852.486 682.949 851.601 716.692 887.542 951.389 781.728 764.648 525.450 853.407 623.069 651.871 494.801 723.332 717.050 756.849 764.002 82.705 872.161 889.528 1031.507 822.748 960.722 758.786 686.544 753.731 704.363 888.283 874.300 1093.129 556.074 642.538 675.283 892.729 747.533 538.338 415.446 1096.508 763.378 566.167 756.456 714.586 742.207 725.444 939.405 852.380 879.909 869.757 764.453 621.642 866.119 762.034 1061.914 0.000 713.180 676.860 534.363 550.134 914.012 973.219 850.137 337.197 696.874 666.617 942.510
330.294 457.407 563.579 451.653 612.891 222.667 266.471 355.503 425.537 500.827 192.320 277.985 223.756 488.079 355.361 477.409 243.786 203.712 519.527 302.322 725.281 485.335 458.028 247.802 429.866 337.829 617.523 671.479 470.488 330.966 249.552 149.148 376.397 629.311 773.429 538.488 489.339 301.873 340.412 633.212 432.177 456.214 276.642 697.110 931.906 342.218 155.372 136.024 901.258 414.660 307.202 234.603 252.813 703.168 360.972 378.339 520.318 348.485 449.533 257.312 636.208 267.008 221.918 377.094 511.154 848.954 304.380 326.412 275.443 479.818 260.811 283.326 482.461 1093.231 257.368 226.890 245.267 363.284 240.733 226.340 484.041 341.191 368.720 358.568 258.444 195.160 354.930 280.234 817.739 741.610 0.000 277.019 634.624 305.959 458.647 462.030 338.948 608.699 297.034 340.770 431.321
169.787 434.571 580.230 424.921 375.983 199.830 17.012 332.666 402.701 477.990 204.734 202.292 189.756 340.510 332.524 371.522 81.251 216.126 438.369 318.974 662.817 462.498 435.191 85.267 282.296 314.993 594.686 648.642 322.919 81.508 130.877 157.840 353.561 379.852 632.102 515.651 466.503 54.641 317.575 383.753 284.608 348.455 181.192 455.055 846.139 319.382 164.064 192.866 815.490 172.877 116.809 247.017 178.355 640.705 338.136 355.502 497.481 359.453 409.520 158.250 386.749 152.329 103.828 354.257 488.317 804.492 259.178 343.064 38.966 456.981 146.131 238.864 331.297 851.176 162.842 181.097 199.089 113.825 141.671 124.909 336.471 318.355 345.883 335.731 163.917 124.763 332.094 337.974 773.277 679.147 249.886 0.000 483.461 261.497 311.078 373.847 316.111 473.014 81.582 368.336 396.241
433.457 819.983 862.948 814.229 629.329 585.243 499.704 718.079 788.114 847.217 596.211 636.220 583.730 765.906 717.937 796.918 515.179 607.603 317.453 601.691 541.902 847.911 820.604 519.196 707.692 700.406 963.913 1034.055 748.315 507.934 564.805 533.491 738.973 561.283 523.337 884.878 835.729 516.342 702.988 570.993 710.004 773.851 615.121 618.949 737.374 704.794 539.715 568.517 706.725 530.899 524.617 638.494 604.724 519.789 723.549 740.915 882.894 735.104 812.110 592.179 540.844 587.124 537.757 739.670 857.543 1074.037 476.282 625.781 508.676 842.394 580.926 521.581 223.013 1048.943 596.771 471.456 607.048 522.153 575.600 558.837 761.867 703.768 731.296 721.144 597.846 475.105 717.507 713.625 1042.822 558.231 625.537 510.253 0.000 531.042 736.474 799.243 701.524 349.841 530.267 658.269 793.897
296.144 567.513 431.818 561.759 632.364 332.773 285.943 465.609 461.119 461.748 313.482 388.092 333.862 554.333 465.467 585.345 292.676 324.875 378.802 215.587 584.556 496.020 493.609 296.692 496.120 447.936 578.444 781.585 536.742 350.439 342.302 215.762 486.503 623.975 632.704 499.409 450.260 321.346 450.518 627.876 498.431 562.279 386.748 708.976 791.182 452.324 221.986 250.788 760.533 434.132 345.282 355.766 362.919 562.443 471.079 488.445 630.424 421.665 559.640 367.418 630.872 364.621 315.253 487.200 472.075 586.721 211.815 240.312 294.916 490.503 358.423 136.112 410.431 1112.703 367.474 181.620 355.373 382.756 350.839 336.334 550.295 451.297 478.826 468.674 368.550 220.559 465.037 359.808 555.506 600.885 312.098 296.492 562.595 0.000 524.902 572.137 449.054 467.974 316.506 272.801 541.427
439.696 391.334 740.720 207.155 546.443 313.798 320.643 233.545 342.363 417.653 350.309 309.787 313.739 134.664 278.904 140.273 260.929 361.701 708.278 520.882 932.726 402.161 374.854 264.945 41.382 252.333 534.349 424.890 91.670 355.584 237.072 363.070 221.799 581.638 900.960 455.314 406.165 355.236 272.425 582.888 49.469 122.981 305.176 642.826 1114.997 222.210 369.294 351.528 1084.348 421.846 301.247 392.592 302.338 910.614 294.454 322.258 416.763 612.238 178.271 282.234 585.884 254.410 261.524 228.828 427.979 1062.836 517.522 530.922 312.357 396.644 248.212 497.207 595.624 1036.172 286.826 439.441 303.039 387.902 265.655 231.104 130.625 230.598 241.577 231.425 287.901 393.384 288.412 561.560 1031.621 949.056 433.465 305.501 747.788 519.840 0.000 142.599 246.820 724.464 382.987 533.880 164.992
480.997 358.851 708.735 105.037 587.745 355.099 361.945 198.450 310.379 385.668 384.426 351.089 355.041 189.820 247.378 28.766 302.231 395.818 749.579 523.396 974.028 370.176 342.869 306.247 113.408 220.807 502.364 367.148 84.935 396.886 278.374 397.186 179.468 622.939 942.262 423.329 374.180 396.537 237.331 624.190 110.497 61.367 346.477 684.128 1156.299 179.879 403.411 385.645 1125.650 463.147 342.548 426.709 343.640 951.915 261.971 289.776 411.399 646.355 66.764 323.536 627.186 295.711 302.825 186.497 395.995 1104.137 558.823 498.938 353.659 364.659 289.514 538.509 636.926 1077.474 328.127 480.743 344.341 429.204 306.957 272.406 185.781 188.267 206.483 198.942 329.203 434.685 255.929 595.677 1072.923 990.357 467.582 346.802 789.090 561.142 134.327 0.000 211.726 765.766 424.289 501.895 77.951
391.994 154.805 595.172 191.002 618.626 232.702 308.922 47.952 196.815 272.104 257.520 288.021 233.791 295.269 64.999 216.759 249.207 268.913 660.576 409.832 867.690 256.612 229.305 253.223 218.857 38.427 388.800 410.828 214.463 373.417 254.973 270.281 92.597 653.821 854.309 309.765 260.617 344.324 25.958 655.071 221.169 195.563 282.063 715.009 1068.346 75.482 276.505 258.739 1037.697 453.258 337.769 299.803 258.234 845.577 57.925 139.676 250.908 519.449 188.883 262.733 658.067 272.429 227.339 80.059 282.431 991.363 446.790 385.374 317.894 251.096 266.232 425.735 553.505 1108.355 267.324 377.646 255.302 405.735 246.154 231.761 291.231 74.455 67.306 66.728 268.400 337.569 51.883 468.771 960.149 884.019 340.677 315.618 705.668 448.368 241.810 201.380 0.000 695.222 362.592 388.332 170.671
427.209 813.735 788.523 807.981 622.498 578.995 493.456 711.831 772.163 772.792 589.962 629.972 577.481 759.075 711.689 790.087 508.931 601.355 124.547 527.267 348.996 807.064 804.653 512.947 700.861 694.158 889.488 1027.807 741.484 482.476 558.557 525.663 732.725 482.934 298.319 810.453 761.305 474.580 696.740 492.644 703.173 767.020 608.873 540.600 512.356 698.546 531.888 560.690 481.707 524.068 517.786 632.246 598.476 326.883 717.301 734.667 876.646 728.856 805.861 585.931 462.496 580.876 531.508 733.422 783.119 1001.948 464.893 551.357 502.428 801.547 574.678 447.157 239.249 970.594 590.523 465.207 600.800 515.322 569.352 552.589 755.036 697.519 725.048 714.896 591.598 468.857 711.259 670.852 970.733 365.325 619.289 499.182 359.087 458.952 729.643 792.412 695.276 0.000 524.019 575.435 787.649
145.293 458.155 596.056 452.400 406.228 223.415 93.038 356.251 426.285 501.575 234.382 252.056 221.901 390.274 356.109 421.286 131.015 245.775 454.195 334.799 678.643 486.083 458.776 135.031 332.061 338.577 618.271 672.226 372.683 96.039 180.641 173.666 377.145 406.717 647.928 539.236 490.087 54.546 341.160 410.618 334.372 398.220 230.956 481.919 861.964 342.966 179.890 208.692 831.316 199.741 149.223 276.665 228.119 656.530 361.720 379.086 521.066 375.279 450.281 208.015 413.614 202.093 153.592 377.842 511.901 820.318 275.004 358.889 96.634 480.566 195.895 254.689 347.123 878.040 212.606 196.923 245.219 130.121 191.436 174.673 386.236 341.939 369.468 359.316 213.682 140.589 355.678 353.800 789.103 694.973 265.712 86.890 499.287 277.322 360.843 423.612 339.695 486.557 0.000 384.162 432.069
387.432 518.222 307.708 531.043 683.195 335.139 362.433 423.489 288.473 289.102 315.849 390.458 336.228 564.763 394.015 556.800 350.558 327.241 466.856 100.931 672.610 323.374 320.963 354.574 506.549 376.483 405.798 750.869 547.172 426.928 362.024 257.647 454.730 715.262 720.758 326.763 277.615 397.835 401.494 719.163 508.861 535.604 389.114 779.578 879.235 425.627 263.871 274.775 848.587 510.622 403.164 358.132 365.286 650.497 411.211 322.303 598.651 399.289 528.924 369.784 722.159 379.480 334.390 455.596 299.429 766.978 303.102 86.199 371.405 317.858 373.283 199.652 501.718 1172.923 369.841 270.527 357.739 459.246 353.205 338.812 560.724 424.600 442.843 441.976 370.916 291.122 405.169 331.038 735.763 688.939 288.394 372.982 653.882 250.516 535.331 541.421 399.255 556.028 392.996 0.000 510.712
481.670 319.622 687.443 56.485 604.118 322.377 378.318 151.541 289.087 364.376 347.195 367.462 323.467 206.193 208.198 82.241 318.603 358.588 750.252 502.104 957.365 348.884 321.577 322.620 129.781 181.627 481.072 330.672 102.574 413.259 294.747 359.956 132.560 639.312 943.985 402.037 352.889 412.910 190.422 640.562 128.136 78.905 362.850 700.501 1158.021 132.971 366.180 348.415 1127.373 479.520 358.921 389.479 347.910 935.252 222.742 252.545 364.490 609.124 18.212 339.909 643.559 312.084 317.014 139.588 374.703 1081.039 536.465 477.646 370.032 343.367 305.887 515.410 643.180 1093.846 344.500 467.321 344.977 445.577 323.330 288.779 202.154 141.359 159.574 154.583 345.576 427.245 216.700 558.447 1049.824 973.695 430.352 363.175 795.344 538.043 151.965 66.863 164.817 782.139 440.662 480.603 0.000
NODE_COORD_SECTION
1 1438.942575 -1211.855723
2 3278.208088 -9225.079611
3 9966.993990 -3246.685220
4 -664.563633 -7741.233693
5 -5562.690695 158.644981
6 1882.012250 -5979.995779
7 685.670733 -2858.832792
8 1701.729849 -8377.941472
9 5104.508006 -6897.246236
10 6649.977998 -7376.073488
11 3126.371279 -5274.317745
12 1390.069746 -6242.620690
13 1937.377083 -5806.091845
14 -3401.428209 -7688.597794
15 2359.628087 -7909.926907
16 -753.633820 -7713.058889
17 1158.113725 -4599.884550
18 2979.641186 -5375.602107
19 4612.696990 3790.152442
20 6647.541321 -4157.681407
21 7450.568068 7713.914141
22 6086.272206 -7346.395422
23 5332.300168 -7133.941396
24 1174.163829 -4698.935317
25 -1932.080781 -7218.330047
26 2266.436792 -8004.884116
27 7848.260937 -9920.666361
28 -1030.255247 -9088.823464
29 -1235.618147 -7468.992322
30 -56.870542 -1813.212673
31 1119.949307 -5171.199471
32 2971.776950 -3477.016506
33 1260.172315 -8569.387165
34 -4150.066202 2229.726464
35 4624.736212 7268.264846
36 7093.755903 -8184.346216
37 6587.226889 -7469.659462
38 768.002165 -2751.471642
39 1885.097125 -8224.443048
40 -4551.942348 2130.487420
41 -2057.780175 -7340.663993
42 -816.627861 -7437.338998
43 1566.751062 -6120.563652
44 -4552.330846 2280.544981
45 884.872373 10757.824113
46 1389.494526 -8226.189538
47 3025.447652 -3494.468987
48 2855.244261 -4387.232134
49 1113.921911 11014.492265
50 -2194.809285 -1491.793630
51 53.291686 -3602.264901
52 3113.725551 -5466.610504
53 1505.217621 -5856.468499
54 7536.755976 7956.323570
55 2603.170310 -8076.797326
56 3787.491580 -6821.825862
57 269.626302 -11621.577177
58 3689.195135 -3012.485751
59 -433.247861 -7898.473095
60 1354.091444 -5950.451530
61 -4602.879614 2102.508558
62 916.794717 -6005.396640
63 1125.105900 -4950.317188
64 1242.905609 -8521.008912
65 6567.851512 -7295.948038
66 11702.106575 3237.190405
67 4328.698959 -1338.243107
68 6663.625287 -4375.422869
69 573.863757 -2991.918276
70 6162.892412 -7345.944408
71 892.407550 -5887.388541
72 5675.466128 -2988.410804
73 1818.125250 2549.956478
74 -9602.034377 9665.036853
75 1280.456270 -6205.489853
76 3674.817495 -2030.360575
77 1865.117719 -6105.913752
78 -688.074612 -1540.623692
79 1267.560669 -5770.382733
80 956.968533 -5280.859555
81 -3154.229262 -8000.388369
82 1413.584964 -8172.503541
83 1457.445279 -8595.414514
84 1262.135303 -8247.217718
85 1281.828501 -6226.352071
86 2950.887162 -2414.620834
87 2659.333168 -8113.573634
88 3729.564917 -2859.972289
89 11637.408454 3146.482613
90 7339.340862 8096.088437
91 3383.859731 -3673.386402
92 546.095168 -2895.247898
93 2190.472556 1936.209709
94 5843.925895 -1958.182873
95 -1856.906343 -7240.120617
96 -832.802802 -7544.384754
97 2137.073368 -8118.770210
98 3440.475563 5052.754302
99 1043.244016 -2365.301411
100 6831.889757 -4632.718821
101 -467.447198 -8062.203379
DEMAND_SECTION
1 0
2 2
3 1
4 1
5 5
6 1
7 4
8 2
9 10
10 10
11 2
12 1
13 5
14 10
15 1
16 1
17 7
18 1
19 10
20 3
21 3
22 10
23 4
24 10
25 10
26 7
27 8
28 5
29 4
30 2
31 2
32 4
33 90
34 2
35 6
36 4
37 7
38 4
39 5
40 10
41 3
42 8
43 4
44 5
45 5
46 8
47 6
48 9
49 1
50 5
51 2
52 63
53 9
54 8
55 3
56 4
57 9
58 10
59 7
60 10
61 10
62 3
63 8
64 6
65 53
66 4
67 52
68 85
69 78
70 3
71 5
72 10
73 4
74 10
75 4
76 8
77 1
78 4
79 7
80 8
81 10
82 1
83 5
84 6
85 10
86 10
87 51
88 1
89 9
90 2
91 5
92 8
93 3
94 1
95 4
96 1
97 8
98 6
99 6
100 75
101 78
DEPOT_SECTION
1
-1
EOF
