NAME : poryos-paris-n100-hyb
COMMENT : Poryos2026 euclidean metric; city paris; 3-decimal seconds/meters; ENU ref in poryos-paris-n100-hyb.vrp.json
TYPE : CVRP
DIMENSION : 101
EDGE_WEIGHT_TYPE : EXPLICIT
EDGE_WEIGHT_FORMAT : FULL_MATRIX
CAPACITY : 184
EDGE_WEIGHT_SECTION
0.000 2767.114 5995.406 6000.779 4117.752 2465.309 1692.191 6161.597 2901.657 978.065 7879.831 919.524 1887.375 1377.731 3769.311 3589.653 1006.855 4650.309 1425.174 2575.604 4382.497 6660.366 3976.587 3523.112 2011.744 3288.602 2821.045 2261.584 6030.308 3106.110 2519.771 812.449 7492.947 3471.958 4345.387 2943.181 4666.747 7454.220 4046.779 3624.992 5594.948 1775.963 2972.976 4248.739 3423.326 884.282 879.049 5753.028 3862.731 8051.216 1263.850 5270.431 598.323 3974.448 8794.882 7238.048 5125.598 3271.416 3381.853 5215.697 3175.819 6657.674 4816.816 6626.202 1303.672 4323.864 5223.703 3191.776 3822.467 5487.821 434.699 8010.869 6835.427 5754.681 3395.612 4303.553 8432.587 3922.335 3851.107 3516.011 5116.450 6104.439 1878.795 8573.629 3316.180 6888.889 3387.478 4495.196 4820.807 5166.346 7689.974 3295.640 3489.622 4410.512 3167.914 7205.848 4104.505 3774.019 5583.057 4361.241 7981.676
2767.114 0.000 3713.963 3716.753 1492.791 1269.966 3655.368 3730.508 5638.075 2319.922 10633.802 2928.706 1142.793 3254.043 3822.705 1691.993 3731.414 6125.026 3011.788 4138.750 6709.703 7952.085 5423.805 4875.186 838.052 3205.782 3945.028 4287.743 6374.036 1231.084 5011.671 3037.451 5124.105 6127.689 4754.850 4814.846 4541.552 9259.463 6803.432 3136.108 7723.592 2676.425 4023.106 2622.385 6182.100 2308.848 2314.074 8401.415 5700.012 9696.041 3757.418 7295.755 2638.503 5122.669 11560.257 4473.977 7077.571 1702.440 4163.490 2449.456 5249.088 5752.545 2272.574 5059.392 1704.699 7090.964 6564.840 3607.816 2510.178 7058.685 3024.926 10777.805 8477.193 3071.115 2870.701 1542.491 6451.870 1335.587 6411.516 5606.092 2678.039 3380.330 2933.609 11332.058 2137.226 8520.564 4360.112 1945.519 6204.875 6844.525 4925.536 6059.519 1252.965 4869.828 3339.397 9948.634 1584.946 5453.894 2820.134 2942.060 10738.096
5995.406 3713.963 0.000 8.828 3660.064 3531.118 5987.241 500.905 8837.789 5145.784 13677.310 5665.156 4831.473 5715.448 7392.606 2407.340 6738.969 9838.738 5412.208 7835.607 10285.708 11642.792 9137.746 6110.483 4494.704 6802.440 5380.058 7913.988 5840.420 2896.785 8481.771 5846.722 1501.492 9461.381 4959.725 8486.696 7979.897 12970.407 9901.374 3429.076 11377.486 4828.410 5340.914 5544.334 9080.828 5203.817 5210.094 10794.115 9390.644 13409.113 6498.206 10970.470 5591.545 6033.778 14485.870 3001.938 10763.903 2754.613 5121.113 2728.371 8888.409 3660.126 1541.221 2160.300 5306.991 10056.124 10271.124 7273.521 2504.167 10772.595 6062.094 13632.830 12191.060 1634.979 3410.624 3006.447 2805.435 2402.174 9843.163 7450.809 1073.690 3493.948 4986.613 14336.533 5542.395 12234.292 5416.996 1825.324 9915.696 10556.376 3703.787 9005.228 4306.071 5078.201 4215.363 13055.577 2138.440 6858.375 2422.687 2146.551 13764.740
6000.779 3716.753 8.828 0.000 3659.308 3536.601 5994.358 492.636 8843.705 5151.748 13683.932 5671.500 4834.729 5722.281 7393.683 2412.914 6745.058 9841.445 5419.029 7838.968 10290.248 11644.790 9140.552 6118.845 4498.108 6803.758 5388.093 7918.067 5849.147 2901.794 8486.733 5852.989 1495.587 9466.940 4968.487 8490.409 7980.195 12973.474 9907.655 3437.386 11381.475 4835.346 5349.051 5543.491 9087.492 5209.671 5215.949 10801.778 9394.147 13411.740 6504.781 10974.224 5597.436 6042.346 14492.790 2993.975 10767.500 2760.726 5129.498 2724.950 8892.443 3667.704 1541.608 2166.577 5310.894 10062.731 10273.474 7275.342 2511.864 10775.343 6067.952 13639.866 12193.794 1629.775 3418.668 3005.643 2805.189 2404.257 9848.387 7458.821 1074.567 3488.584 4993.769 14343.271 5543.072 12236.997 5425.369 1826.584 9918.206 10559.386 3695.797 9011.785 4306.463 5086.972 4223.531 13062.015 2140.719 6866.710 2418.146 2154.884 13771.405
4117.752 1492.791 3660.064 3659.308 0.000 2657.481 5144.170 3475.529 6885.812 3794.820 11874.608 4396.664 2260.451 4740.562 3886.681 2554.795 5115.321 6619.121 4503.212 4882.744 7629.904 8241.178 5962.415 6333.689 2108.365 3355.290 5403.196 5210.932 7591.083 2328.287 6098.713 4491.494 4809.702 7286.270 6059.104 5615.063 4368.389 9787.073 8071.961 4331.387 8490.008 4162.290 5470.950 1884.748 7534.451 3774.848 3779.715 9836.724 6409.440 10117.818 5202.441 8018.334 4080.484 6551.042 12839.031 3353.391 7768.482 2772.636 5569.614 1354.635 6108.371 6518.909 2140.542 5489.356 2885.295 8405.725 6958.545 3917.272 3478.471 7543.862 4428.928 12086.767 8937.181 2416.220 4092.448 653.889 6454.731 1579.153 7490.634 7098.816 2611.495 2007.672 4418.595 12582.766 2020.006 8973.266 5786.574 1926.543 6646.375 7398.808 3674.876 7399.540 827.686 6179.940 4687.135 11168.411 1801.128 6933.050 1825.976 3756.844 11984.943
2465.309 1269.966 3531.118 3536.601 2657.481 0.000 2746.196 3716.700 5318.986 1643.439 10221.708 2214.046 1771.656 2388.580 4747.939 1124.386 3238.692 6647.597 2098.866 4546.420 6799.361 8583.401 5938.222 3686.433 1454.164 4129.239 2758.854 4495.528 5116.770 669.690 4966.639 2378.435 5030.335 5930.645 3485.386 5119.849 5550.649 9674.686 6410.947 1915.992 7948.546 1616.368 2818.613 3870.418 5648.397 1689.325 1695.625 7631.238 6048.899 10192.908 3077.334 7575.619 2078.086 3893.613 11078.461 5116.385 7394.271 830.547 2916.048 3261.802 5467.336 4745.002 2457.099 4340.817 1998.204 6608.706 7152.571 4403.529 1541.447 7558.598 2544.129 10252.031 8964.167 3474.601 1642.445 2479.050 6019.441 1684.976 6315.676 4585.395 2693.129 4316.435 1856.442 10897.387 3276.404 9012.675 3129.126 2160.520 6767.050 7292.286 5670.918 5554.853 2522.610 3600.014 2069.982 9577.020 1786.461 4314.601 3509.345 2065.947 10315.428
1692.191 3655.368 5987.241 5994.358 5144.170 2746.196 0.000 6276.720 3209.830 1374.529 7732.357 854.476 3191.036 409.747 5460.224 3708.093 1348.775 6096.690 653.642 4136.444 5298.214 8099.531 5469.921 1853.208 3153.879 4966.714 1316.824 3668.185 4528.970 3388.294 3473.019 888.252 7464.224 3971.326 2941.154 4342.803 6357.953 8625.210 4071.932 2871.850 6614.323 1173.095 1474.419 5710.858 3152.165 1421.063 1417.702 4892.887 5194.389 9296.270 793.398 6388.030 1260.003 2329.967 8505.466 7862.546 6302.364 3308.288 1941.423 5975.876 4430.226 5679.713 5166.654 6041.419 2764.619 4130.709 6693.262 4883.422 3514.436 6854.778 1277.712 7646.821 8117.316 6204.782 2742.942 5133.068 8024.684 4430.828 4503.668 1980.888 5332.387 6993.649 1001.471 8373.771 4830.022 8174.171 1853.948 4888.134 6292.432 6497.679 8412.080 3106.695 4699.604 2976.713 2152.759 7147.761 4525.136 2090.848 6249.685 3983.969 7812.787
6161.597 3730.508 500.905 492.636 3475.529 3716.700 6276.720 0.000 9035.214 5354.649 13921.436 5898.748 4868.369 5984.300 7293.222 2611.733 6951.997 9829.698 5680.997 7869.253 10389.574 11590.108 9135.592 6507.169 4542.506 6718.146 5746.264 7991.901 6331.860 3058.214 8615.397 6074.402 1395.420 9633.537 5409.587 8540.788 7836.031 12979.940 10123.324 3826.016 11445.140 5107.504 5716.512 5344.962 9331.494 5404.993 5411.296 11121.957 9430.419 13391.940 6746.336 11023.867 5793.929 6453.835 14752.111 2503.523 10807.764 2989.353 5521.551 2413.162 8961.853 4153.548 1466.231 2624.513 5381.342 10301.622 10240.398 7216.906 2853.871 10764.892 6260.811 13908.385 12181.158 1247.851 3783.213 2826.033 3003.266 2395.222 9992.308 7812.095 1062.064 3081.655 5281.701 14589.055 5425.931 12222.653 5815.796 1787.310 9894.853 10564.659 3204.928 9248.081 4179.910 5529.764 4596.324 13286.492 2149.274 7251.511 2055.294 2552.343 14012.086
2901.657 5638.075 8837.789 8843.705 6885.812 5318.986 3209.830 9035.214 0.000 3692.313 4998.828 3208.058 4630.187 3300.788 5081.928 6434.934 2108.889 4038.625 3576.157 3018.644 2347.536 5801.489 3679.212 4603.123 4835.673 4911.044 4451.571 2312.985 7447.444 5978.326 1241.967 3016.914 10339.280 790.473 6039.795 2614.817 5828.578 5778.394 1190.873 6037.400 3673.958 4158.728 4598.188 6537.508 1111.532 3634.556 3628.267 3650.560 3010.580 6533.775 2473.174 3595.844 3246.361 5107.422 5953.616 10109.301 3613.018 6084.948 5069.683 8070.018 2297.497 8887.281 7715.062 9196.794 4004.538 1608.211 4618.211 4458.259 6513.174 4486.231 2776.462 5219.078 5471.014 8655.484 5873.010 7152.058 11124.686 6823.975 1378.040 3534.779 8001.231 8893.356 4096.488 5701.954 5596.223 5530.849 4907.549 7395.002 4279.477 4087.904 10529.309 931.650 6162.386 6049.453 5356.598 4310.808 7004.458 4337.239 8457.410 7029.282 5105.660
978.065 2319.922 5145.784 5151.748 3794.820 1643.439 1374.529 5354.649 3692.313 0.000 8578.447 612.455 1833.077 964.783 4379.534 2746.348 1597.358 5588.696 792.375 3485.718 5343.593 7592.134 4902.353 2953.121 1779.441 3827.567 2115.882 3229.238 5214.498 2312.035 3469.868 748.264 6647.255 4335.990 3504.586 3905.875 5268.808 8430.601 4769.065 2649.471 6569.478 867.748 2250.589 4362.003 4011.476 104.017 107.233 6098.548 4831.114 9021.302 1468.008 6248.386 449.645 3339.849 9440.860 6669.359 6103.203 2392.696 2595.908 4712.836 4153.038 5685.501 4089.344 5660.501 1487.088 4967.315 6150.515 3865.659 2874.664 6443.664 920.652 8620.919 7802.646 5084.846 2417.769 3836.981 7497.663 3257.260 4759.979 3355.113 4336.530 5692.361 1042.019 9255.222 3509.560 7855.556 2662.747 3782.745 5749.149 6130.010 7179.277 3913.997 3325.554 3583.139 2235.985 7934.186 3398.571 3371.403 5026.891 3409.036 8672.505
7879.831 10633.802 13677.310 13683.932 11874.608 10221.708 7732.357 13921.436 4998.828 8578.447 0.000 8022.703 9625.098 7968.525 9514.157 11310.068 6988.700 7250.493 8270.483 7496.414 4974.642 7962.772 7365.777 8378.805 9834.496 9532.080 8673.177 6908.169 10897.114 10890.470 5855.843 7848.399 15170.174 4623.560 9986.733 6824.815 10048.855 6543.836 3833.053 10566.884 5237.206 8860.321 8780.919 11353.096 4597.185 8537.265 8530.999 3791.180 6547.315 7309.214 7179.508 5664.090 8151.104 8776.277 1096.836 15106.855 5926.638 10934.902 9192.702 13068.807 6302.776 13040.288 12660.133 13704.177 9000.096 3621.306 7574.939 8970.428 11240.495 7009.417 7696.830 1012.313 6967.581 13627.440 10464.773 12150.881 15728.329 11791.446 4571.771 6873.769 12914.320 13881.856 8727.352 717.342 10447.804 7011.730 8941.268 12346.676 7455.510 6718.400 15526.906 4673.722 11132.220 9946.417 9791.430 746.994 11957.998 7769.908 13453.890 11716.326 135.508
919.524 2928.706 5665.156 5671.500 4396.664 2214.046 854.476 5898.748 3208.058 612.455 8022.703 0.000 2355.782 478.085 4646.247 3287.431 1102.625 5525.615 516.738 3479.463 5030.501 7537.742 4865.177 2622.764 2348.159 4135.220 1901.743 3106.428 5118.141 2883.121 3152.855 195.036 7164.044 3896.989 3444.428 3792.413 5543.816 8233.254 4236.871 2908.102 6300.873 992.429 2054.201 4864.950 3437.511 621.825 616.951 5486.220 4691.583 8861.347 865.429 6017.907 406.911 3062.464 8866.507 7275.993 5897.768 2914.299 2469.791 5324.954 3965.965 5895.030 4670.468 6022.884 1910.620 4403.626 6108.061 4086.841 3305.165 6337.625 597.028 8038.011 7656.994 5677.672 2711.798 4449.204 7921.231 3856.731 4362.495 2813.293 4897.640 6303.834 1020.441 8692.321 3977.469 7711.902 2468.237 4369.466 5704.879 6001.646 7790.172 3349.722 3898.372 3504.750 2347.017 7391.661 3988.782 2935.754 5636.106 3823.532 8113.748
1887.375 1142.793 4831.473 4834.729 2260.451 1771.656 3191.036 4868.369 4630.187 1833.077 9625.098 2355.782 0.000 2784.419 2978.633 2636.338 2894.103 5027.649 2623.669 3005.241 5573.709 6902.087 4321.090 4741.588 347.201 2362.189 3852.540 3147.424 6698.159 2109.467 3910.584 2399.395 6259.889 5062.402 4999.884 3673.270 3797.411 8140.860 5813.942 3635.565 6581.118 2513.236 3966.779 2529.349 5282.319 1773.290 1776.168 7639.451 4563.896 8598.885 3064.034 6155.578 1978.147 5084.533 10581.516 5509.650 5940.309 2506.126 4226.673 3460.722 4106.629 6515.936 3414.311 6018.728 625.770 6145.647 5492.392 2640.581 3289.314 5957.253 2242.743 9826.365 7375.157 4195.905 3359.956 2544.603 7530.128 2475.929 5312.015 5166.963 3811.673 4265.781 2754.290 10330.955 1706.624 7420.086 4357.464 3086.424 5121.363 5728.721 5902.874 5144.073 1602.468 5100.224 3586.000 8924.989 2719.440 5200.349 3873.807 3790.394 9733.847
1377.731 3254.043 5715.448 5722.281 4740.562 2388.580 409.747 5984.300 3300.788 964.783 7968.525 478.085 2784.419 0.000 5122.877 3392.327 1280.659 5915.733 303.482 3902.674 5273.618 7926.014 5268.976 2148.779 2744.143 4613.305 1469.177 3486.039 4702.581 3042.894 3413.858 569.787 7203.606 4033.940 3056.537 4169.401 6020.594 8543.748 4244.575 2736.883 6570.154 892.346 1625.676 5307.238 3372.144 1012.515 1009.299 5243.197 5049.040 9192.886 829.246 6314.689 882.396 2596.800 8771.603 7500.759 6211.114 2999.473 2064.503 5594.175 4302.968 5647.363 4830.233 5897.783 2372.214 4350.924 6505.134 4559.966 3277.496 6704.664 1000.939 7924.200 7999.342 5860.058 2575.294 4742.342 7846.868 4068.238 4537.412 2390.526 5017.380 6602.884 795.973 8622.402 4432.744 8055.215 2033.139 4543.736 6102.474 6358.502 8040.126 3307.753 4289.989 3107.426 2085.992 7363.474 4174.232 2462.322 5878.519 3770.285 8053.487
3769.311 3822.705 7392.606 7393.683 3886.681 4747.939 5460.224 7293.222 5081.928 4379.534 9514.157 4646.247 2978.633 5122.877 0.000 5503.929 4481.480 2930.705 5097.988 2084.393 4633.990 4362.930 2403.083 7267.885 3296.068 621.677 6487.044 2773.482 9558.748 5005.958 3880.066 4574.103 8663.715 5058.074 7844.166 2693.227 897.908 6023.660 6156.356 6604.295 5088.365 5224.100 6626.468 2314.883 6113.195 4283.216 4282.480 8697.508 3103.458 6277.320 4952.576 4570.810 4251.654 7693.567 10585.847 7037.564 4284.881 5442.510 6972.107 5206.786 3211.394 9486.402 5857.708 8882.097 2953.804 6660.268 3151.320 638.013 6243.517 3798.064 4194.777 10005.791 5134.477 6301.300 6329.623 4500.680 10189.390 5013.744 4960.842 7218.389 6319.347 5475.442 5420.347 10226.158 1873.284 5164.769 7040.527 5567.725 2895.809 3738.191 7161.748 5934.105 3117.963 7932.570 6474.678 8767.530 5282.479 7542.481 5683.398 6723.141 9642.404
3589.653 1691.993 2407.340 2412.914 2554.795 1124.386 3708.093 2611.733 6434.934 2746.348 11310.068 3287.431 2636.338 3392.327 5503.929 0.000 4343.223 7644.764 3090.667 5573.204 7909.950 9537.835 6935.476 4271.009 2289.472 4884.053 3398.134 5576.654 5068.603 532.892 6086.683 3462.670 3907.531 7054.043 3632.317 6181.507 6233.520 10718.941 7513.011 1852.036 9039.170 2535.518 3410.835 4186.450 6722.339 2800.516 2806.809 8592.767 7103.217 11209.235 4138.189 8653.271 3189.105 4358.111 12147.092 4264.682 8462.212 406.199 3356.745 2657.746 6551.711 4084.900 1490.760 3390.398 3008.355 7690.877 8123.702 5248.971 923.678 8567.878 3658.473 11309.043 9981.956 2544.104 1655.738 2118.633 4939.500 1062.575 7439.647 5393.876 1625.479 3753.530 2734.412 11979.106 3818.394 10028.624 3623.465 1262.585 7748.130 8319.905 4879.021 6637.093 2772.981 3757.520 2397.146 10675.071 989.232 4973.275 2774.431 1265.502 11401.151
1006.855 3731.414 6738.969 6745.058 5115.321 3238.692 1348.775 6951.997 2108.889 1597.358 6988.700 1102.625 2894.103 1280.659 4481.480 4343.223 0.000 4772.369 1517.185 2893.071 3993.055 6766.791 4166.490 3135.785 3006.975 4075.864 2663.506 2358.281 5874.618 3905.421 2138.959 909.580 8240.055 2795.954 4285.296 3019.167 5363.012 7283.771 3172.268 3984.277 5292.996 2076.259 2821.587 5218.677 2455.627 1550.109 1543.821 4746.348 3851.499 7948.945 576.543 5049.157 1162.686 3633.781 7869.083 8182.567 4956.986 3984.379 3285.072 6178.752 3083.061 6926.523 5671.551 7119.186 2306.143 3389.668 5373.254 3862.683 4406.475 5511.881 714.066 7064.812 6768.548 6647.844 3800.514 5273.678 9023.856 4812.135 3273.729 2747.510 5931.287 7092.398 2050.821 7670.562 4274.444 6825.396 3202.216 5359.146 4975.034 5151.672 8655.636 2342.487 4496.443 4323.860 3364.232 6338.616 4971.276 3196.221 6528.995 4926.087 7084.811
4650.309 6125.026 9838.738 9841.445 6619.121 6647.597 6096.690 9829.698 4038.625 5588.696 7250.493 5525.615 5027.649 5915.733 2930.705 7644.764 4772.369 0.000 6042.198 2119.390 2337.964 2012.128 709.856 7907.635 5372.951 3312.336 7380.376 2431.056 10614.934 7112.256 2929.672 5367.300 11224.456 3565.756 8966.429 1754.328 3079.694 3169.524 4692.719 8210.481 2264.597 6424.358 7538.123 5232.929 5133.973 5486.096 5482.153 7510.477 1029.261 3572.028 5348.891 1742.656 5248.631 8406.052 8347.327 9893.822 1445.891 7459.217 7979.750 7972.163 1793.595 11246.143 8363.551 10987.395 4652.658 5254.593 605.934 2711.888 8180.235 935.206 4932.719 7930.350 2352.582 8977.630 7960.037 7172.279 12557.774 7445.466 3151.641 7276.780 8792.941 8359.344 6525.358 7927.891 4633.028 2395.555 7938.183 8045.818 243.294 807.487 10062.016 4960.295 5799.266 9021.635 7815.196 6519.186 7704.001 7903.906 8445.053 8712.010 7385.246
1425.174 3011.788 5412.208 5419.029 4503.212 2098.866 653.642 5680.997 3576.157 792.375 8270.483 516.738 2623.669 303.482 5097.988 3090.667 1517.185 6042.198 0.000 3993.935 5497.787 8054.317 5381.774 2182.410 2551.802 4567.252 1403.945 3621.620 4605.650 2748.268 3626.998 683.269 6900.899 4297.980 2928.015 4307.511 5993.357 8732.289 4538.642 2470.413 6781.976 593.291 1552.635 5153.008 3673.665 864.221 862.657 5533.122 5203.489 9367.506 1115.186 6510.955 857.182 2595.583 9075.060 7214.513 6397.142 2696.871 1956.986 5322.262 4472.152 5417.695 4533.321 5620.981 2264.983 4652.013 6624.797 4555.040 2978.896 6851.778 1111.174 8227.589 8166.002 5566.008 2297.188 4480.649 7558.622 3781.964 4789.309 2599.944 4715.981 6341.063 534.083 8925.235 4301.259 8221.173 1968.643 4249.308 6221.614 6513.796 7760.263 3607.231 4085.892 2989.276 1857.742 7663.262 3882.227 2579.034 5597.964 3475.842 8355.813
2575.604 4138.750 7835.607 7838.968 4882.744 4546.420 4136.444 7869.253 3018.644 3485.718 7496.414 3479.463 3005.241 3902.674 2084.393 5573.204 2893.071 2119.390 3993.935 0.000 2794.098 4109.506 1420.409 5985.188 3341.028 2035.863 5370.503 709.893 8597.135 5040.614 1799.100 3337.940 9262.633 2977.503 6919.926 741.611 2810.746 5147.347 4072.456 6093.586 3618.244 4334.599 5525.831 3915.757 4081.826 3382.281 3378.639 6659.929 1562.323 5646.515 3451.696 3167.299 3170.244 6466.398 8553.638 8233.447 2940.514 5366.066 5949.190 6223.659 1264.605 9127.708 6409.035 8886.671 2565.354 4580.715 2666.560 1489.109 6071.419 3014.601 2902.551 7944.866 4417.780 7121.680 5841.739 5357.840 10507.291 5474.148 2924.692 5590.993 6815.308 6788.608 4453.022 8212.386 3084.043 4466.262 5935.568 6083.404 2266.748 2748.139 8502.186 3900.219 4058.685 6983.094 5720.044 6752.928 5722.289 6089.278 6680.485 6606.017 7621.764
4382.497 6709.703 10285.708 10290.248 7629.904 6799.361 5298.214 10389.574 2347.536 5343.593 4974.642 5030.501 5573.709 5273.618 4633.990 7909.950 3993.055 2337.964 5497.787 2794.098 0.000 3660.259 2391.481 6880.079 5874.049 4761.686 6604.515 2432.944 9718.820 7396.715 1879.723 4838.615 11762.325 1615.734 8225.645 2054.300 5092.884 3432.096 2559.266 7936.412 1337.380 6022.337 6759.135 6693.392 3264.708 5257.624 5251.971 5350.118 1576.800 4187.637 4507.157 1272.228 4910.132 7389.585 6067.753 10982.133 1355.275 7624.403 7231.490 8950.252 1532.270 10915.355 8962.648 11004.076 5016.005 3103.691 2775.440 4156.496 8204.875 2400.184 4468.938 5606.290 3158.422 9768.389 7730.079 8059.422 12807.112 8025.504 1035.042 5881.576 9327.710 9568.390 6030.946 5670.543 5878.100 3218.254 7107.031 8632.980 2564.916 2018.873 11278.180 3121.559 6815.423 8250.121 7353.729 4232.518 8252.248 6668.875 9394.216 8743.728 5107.630
6660.366 7952.085 11642.792 11644.790 8241.178 8583.401 8099.531 11590.108 5801.489 7592.134 7962.772 7537.742 6902.087 7926.014 4362.930 9537.835 6766.791 2012.128 8054.317 4109.506 3660.259 0.000 2690.025 9897.285 7249.246 4890.750 9388.949 4440.063 12622.666 9008.766 4821.727 7379.068 12975.924 5193.128 10978.097 3758.570 4114.450 2043.677 6217.146 10200.686 2773.882 8432.798 9546.888 6627.601 6841.327 7489.077 7485.282 9007.017 2931.557 1992.576 7342.954 2472.485 7258.632 10398.942 9030.442 11377.991 2311.958 9380.184 9990.387 9569.087 3718.053 13230.796 10132.459 12909.650 6586.002 6763.911 1443.249 4373.447 10123.465 1315.819 6944.693 8797.331 1166.747 10649.100 9946.435 8840.534 14403.759 9240.724 4666.246 9192.697 10579.457 9800.674 8536.660 8564.591 6221.262 1154.310 9945.177 9825.680 1843.137 1713.614 11455.104 6680.564 7451.861 11032.680 9822.548 7294.852 9505.628 9860.961 10045.768 10648.669 8096.943
3976.587 5423.805 9137.746 9140.552 5962.415 5938.222 5469.921 9135.592 3679.212 4902.353 7365.777 4865.177 4321.090 5268.976 2403.083 6935.476 4166.490 709.856 5381.774 1420.409 2391.481 2690.025 0.000 7299.100 4665.868 2706.709 6737.434 1808.226 9971.554 6402.892 2487.486 4713.052 10530.832 3325.015 8309.537 1171.247 2724.348 3847.916 4478.586 7513.866 2685.284 5745.580 6894.419 4658.053 4790.254 4799.220 4795.451 7261.280 823.626 4277.840 4740.889 2168.555 4574.259 7791.931 8458.051 9262.380 1885.350 6749.398 7329.011 7316.990 1382.648 10547.227 7669.391 10277.754 3942.887 5034.934 1248.365 2089.547 7471.646 1636.290 4276.982 7973.390 3054.664 8302.226 7261.492 6501.785 11850.979 6747.797 3010.632 6749.383 8095.352 7745.060 5855.049 8061.901 4000.519 3099.144 7298.874 7350.091 846.888 1438.942 9454.895 4610.857 5138.271 8368.293 7134.090 6622.822 7004.996 7334.333 7787.534 8002.945 7498.567
3523.112 4875.186 6110.483 6118.845 6333.689 3686.433 1853.208 6507.169 4603.123 2953.121 8378.805 2622.764 4741.588 2148.779 7267.885 4271.009 3135.785 7907.635 2182.410 5985.188 6880.079 9897.285 7299.100 0.000 4609.889 6746.924 930.802 5491.471 2844.820 4168.572 5158.782 2710.749 7457.516 5393.506 1607.946 6154.915 8165.047 10283.620 5154.345 2682.656 8216.577 2244.573 872.620 7253.500 4136.766 3036.341 3035.570 4938.777 6972.527 10990.806 2559.614 8048.871 3016.659 510.408 8971.654 8521.922 7995.083 3882.215 990.426 6870.681 6193.486 4663.972 5739.466 5497.181 4439.568 5020.705 8508.976 6708.694 3678.663 8629.439 3123.985 8071.810 9841.228 6784.354 2736.932 6152.843 7560.596 5238.174 5975.881 1521.350 5754.463 7954.648 1993.504 8939.058 6443.389 9899.347 693.888 5533.228 8110.801 8260.197 9148.296 4169.445 6070.009 1570.925 1921.845 7910.219 5240.304 750.258 7037.679 3964.114 8434.010
2011.744 838.052 4494.704 4498.108 2108.365 1454.164 3153.879 4542.506 4835.673 1779.441 9834.496 2348.159 347.201 2744.143 3296.068 2289.472 3006.975 5372.951 2551.802 3341.028 5874.049 7249.246 4665.868 4609.889 0.000 2676.302 3702.575 3456.428 6455.718 1763.428 4175.969 2418.958 5931.436 5302.778 4769.831 3999.131 4097.470 8481.341 6010.779 3344.517 6902.795 2366.080 3807.537 2645.697 5433.513 1737.153 1741.073 7734.060 4896.635 8943.701 3114.367 6483.098 1999.635 4927.447 10775.665 5276.650 6271.475 2166.225 4037.085 3234.399 4422.048 6191.019 3095.438 5673.346 867.267 6320.190 5839.402 2978.464 2955.457 6301.817 2323.473 10006.670 7719.404 3908.695 3068.674 2316.385 7185.113 2156.337 5576.583 5134.553 3483.233 4093.497 2616.516 10536.551 1900.668 7764.565 4186.343 2766.361 5467.900 6070.462 5697.399 5302.503 1550.270 4874.083 3346.269 9142.294 2393.530 5107.324 3629.291 3451.219 9940.905
3288.602 3205.782 6802.440 6803.758 3355.290 4129.239 4966.714 6718.146 4911.044 3827.567 9532.080 4135.220 2362.189 4613.305 621.677 4884.053 4075.864 3312.336 4567.252 2035.863 4761.686 4890.750 2706.709 6746.924 2676.302 0.000 5942.440 2657.471 8977.455 4384.729 3763.934 4078.508 8096.343 4983.321 7264.300 2734.033 1454.730 6461.194 6035.185 5993.212 5361.881 4658.526 6078.156 1961.648 5891.715 3734.297 3734.020 8466.775 3307.773 6765.081 4510.966 4856.842 3733.714 7159.328 10587.267 6584.068 4582.514 4820.834 6409.625 4695.474 3267.306 8865.701 5272.856 8264.672 2373.419 6513.000 3610.084 622.908 5622.019 4218.757 3721.148 9966.339 5594.184 5758.577 5718.114 3949.810 9593.626 4414.322 4960.309 6783.022 5730.590 5047.487 4863.352 10248.167 1338.088 5628.384 6489.867 4977.204 3314.588 4111.819 6752.904 5716.952 2561.191 7355.360 5883.142 8788.767 4682.785 7056.711 5171.613 6101.551 9657.221
2821.045 3945.028 5380.058 5388.093 5403.196 2758.854 1316.824 5746.264 4451.571 2115.882 8673.177 1901.743 3852.540 1469.177 6487.044 3398.134 2663.506 7380.376 1403.945 5370.503 6604.515 9388.949 6737.434 930.802 3702.575 5942.440 0.000 4949.442 3234.866 3259.405 4789.207 2032.794 6784.274 5230.345 1624.847 5630.565 7379.554 9941.878 5194.348 1983.109 7925.527 1339.967 158.440 6348.272 4210.511 2208.154 2208.420 5459.785 6497.828 10612.330 2108.993 7704.413 2261.029 1233.234 9353.604 7662.034 7619.043 3000.650 626.990 5964.070 5739.741 4468.558 4881.903 5037.635 3595.942 5160.996 7971.769 5954.143 2892.830 8156.946 2467.962 8466.999 9430.846 5933.172 1969.458 5230.522 7080.304 4334.955 5781.457 2071.106 4932.391 7042.964 1100.381 9275.139 5558.847 9487.495 566.516 4659.198 7569.387 7804.337 8275.049 4202.708 5145.012 1660.363 1178.469 8144.648 4351.178 1579.215 6147.578 3247.990 8740.815
2261.584 4287.743 7913.988 7918.067 5210.932 4495.528 3668.185 7991.901 2312.985 3229.238 6908.169 3106.428 3147.424 3486.039 2773.482 5576.654 2358.281 2431.056 3621.620 709.893 2432.944 4440.063 1808.226 5491.471 3456.428 2657.471 4949.442 0.000 8183.894 5051.228 1111.531 2942.505 9374.520 2326.489 6539.816 686.002 3519.543 5213.037 3390.027 5877.678 3465.155 4033.969 5107.254 4447.861 3371.937 3130.071 3125.461 5950.597 1601.946 5792.068 2932.754 3080.096 2855.184 5985.578 7949.472 8558.905 2904.030 5325.941 5550.508 6521.803 975.574 8914.729 6551.484 8800.846 2611.082 3887.282 3025.272 2158.578 5976.243 3232.477 2510.448 7311.969 4574.243 7338.279 5640.531 5627.625 10510.936 5612.545 2354.821 4980.975 6930.279 7171.841 4116.853 7625.481 3561.065 4627.526 5507.166 6222.169 2624.247 2905.082 8873.884 3190.352 4404.858 6593.111 5424.985 6170.230 5846.107 5533.813 6963.054 6516.846 7030.532
6030.308 6374.036 5840.420 5849.147 7591.083 5116.770 4528.970 6331.860 7447.444 5214.498 10897.114 5118.141 6698.159 4702.581 9558.748 5068.603 5874.618 10614.934 4605.650 8597.135 9718.820 12622.666 9971.554 2844.820 6455.718 8977.455 3234.866 8183.894 0.000 5270.609 7965.266 5261.142 6783.870 8237.685 1714.861 8864.096 10431.926 13109.547 7946.021 3263.534 11053.910 4350.177 3077.453 8987.157 6926.619 5316.266 5318.151 7206.958 9723.350 13803.151 5304.966 10871.529 5448.238 2340.435 11348.079 8756.927 10805.324 4818.449 2648.684 7632.161 8957.678 2814.389 6203.003 4287.075 6606.172 7755.714 11206.634 9073.001 4165.793 11383.697 5697.375 10445.133 12636.843 7090.503 3514.762 7187.076 6162.628 6124.883 8820.700 4132.984 5997.518 8704.311 4181.631 11388.748 8351.328 12694.211 2677.729 6138.311 10804.235 11026.086 9451.087 6976.186 7622.296 1631.398 3112.301 10509.781 6000.768 3221.845 7620.735 4072.376 10934.510
3106.110 1231.084 2896.785 2901.794 2328.287 669.690 3388.294 3058.214 5978.326 2312.035 10890.470 2883.121 2109.467 3042.894 5005.958 532.892 3905.421 7112.256 2748.268 5040.614 7396.715 9008.766 6402.892 4168.572 1763.428 4384.729 3259.405 5051.228 5270.609 0.000 5585.055 3048.122 4389.553 6577.534 3734.717 5651.783 5754.827 10186.713 7077.274 2007.255 8515.269 2233.940 3296.351 3812.108 6318.072 2355.340 2361.631 8280.151 6572.273 10676.380 3745.590 8125.804 2743.490 4316.964 11748.119 4484.363 7932.871 477.850 3316.838 2704.667 6026.662 4522.890 1790.577 3910.244 2476.102 7278.213 7592.807 4732.702 1279.721 8035.079 3206.949 10921.097 9449.073 2817.747 1764.330 2012.329 5470.163 1079.332 6948.327 5174.723 2026.036 3786.077 2459.006 11566.764 3367.856 9495.758 3560.587 1501.051 7216.454 7787.115 5059.261 6224.414 2403.926 3856.572 2391.737 10244.034 1138.550 4836.174 2906.818 1720.948 10984.487
2519.771 5011.671 8481.771 8486.733 6098.713 4966.639 3473.019 8615.397 1241.967 3469.868 5855.843 3152.855 3910.584 3413.858 3880.066 6086.683 2138.959 2929.672 3626.998 1799.100 1879.723 4821.727 2487.486 5158.782 4175.969 3763.934 4789.207 1111.531 7965.266 5585.055 0.000 2961.904 9971.042 1237.347 6413.978 1379.569 4599.963 5153.346 2278.677 6057.150 3156.564 4143.926 4946.234 5505.996 2341.854 3386.204 3380.440 4891.770 1911.938 5837.962 2680.214 2915.258 3032.969 5668.203 6879.397 9412.432 2840.126 5783.835 5414.438 7363.339 1136.902 9043.624 7218.081 9129.318 3309.136 2781.621 3529.630 3269.458 6338.874 3518.633 2589.265 6219.342 4682.693 8081.900 5850.376 6451.192 10952.356 6290.856 1401.527 4371.277 7557.608 8092.510 4158.632 6572.484 4592.677 4740.929 5313.043 6889.635 3162.327 3133.847 9773.380 2159.588 5322.127 6447.168 5484.679 5126.489 6502.425 5054.978 7783.619 6876.047 5974.822
812.449 3037.451 5846.722 5852.989 4491.494 2378.435 888.252 6074.402 3016.914 748.264 7848.399 195.036 2399.395 569.787 4574.103 3462.670 909.580 5367.300 683.269 3337.940 4838.615 7379.068 4713.052 2710.749 2418.958 4078.508 2032.794 2942.505 5261.142 3048.122 2961.904 0.000 7346.481 3702.682 3599.144 3628.002 5471.979 8051.612 4054.695 3101.649 6112.127 1185.900 2187.900 4886.559 3269.997 734.571 728.894 5365.255 4520.886 8684.486 723.424 5833.246 421.784 3164.983 8700.097 7416.288 5716.218 3093.745 2616.028 5451.578 3789.035 6083.568 4831.682 6217.904 1916.214 4231.697 5953.012 4002.488 3497.015 6170.633 436.286 7876.244 7482.738 5831.880 2906.521 4567.744 8114.649 4005.430 4167.464 2795.105 5067.567 6417.192 1202.876 8520.784 3984.475 7537.919 2598.419 4527.492 5549.978 5831.235 7921.574 3177.607 3965.626 3655.652 2531.176 7213.039 4144.552 2978.518 5772.017 4016.685 7940.552
7492.947 5124.105 1501.492 1495.587 4809.702 5030.335 7464.224 1395.420 10339.280 6647.255 15170.174 7164.044 6259.889 7203.606 8663.715 3907.531 8240.055 11224.456 6900.899 9262.633 11762.325 12975.924 10530.832 7457.516 5931.436 8096.343 6784.274 9374.520 6783.870 4389.553 9971.042 7346.481 0.000 10960.978 6173.663 9930.561 9177.982 14375.357 11400.799 4805.472 12832.074 6313.694 6731.296 6649.335 10573.020 6705.244 6711.522 12230.195 10823.219 14785.382 7992.990 12414.374 7093.023 7327.612 15968.731 2948.882 12200.118 4255.701 6468.882 3627.888 10346.359 4217.608 2861.461 2573.022 6763.491 11549.652 11632.148 8604.026 3956.727 12159.661 7563.527 15110.710 13575.598 2432.905 4824.606 4171.563 1926.459 3789.519 11337.876 8851.898 2448.384 4044.621 6462.758 15825.985 6791.976 13616.909 6765.310 3182.520 11288.308 11960.078 3567.533 10500.052 5545.920 6283.780 5607.400 14552.544 3540.614 8207.706 3198.771 3538.808 15256.408
3471.958 6127.689 9461.381 9466.940 7286.270 5930.645 3971.326 9633.537 790.473 4335.990 4623.560 3896.989 5062.402 4033.940 5058.074 7054.043 2795.954 3565.756 4297.980 2977.503 1615.734 5193.128 3325.015 5393.506 5302.778 4983.321 5230.345 2326.489 8237.685 6577.534 1237.347 3702.682 10960.978 0.000 6825.180 2414.819 5724.390 5026.805 1155.120 6767.695 2917.108 4869.796 5378.514 6743.341 1657.637 4268.502 4262.310 3949.644 2567.811 5796.258 3214.219 2885.245 3886.352 5897.531 5642.302 10571.575 2936.841 6720.098 5850.891 8523.051 1977.522 9650.858 8276.282 9913.904 4445.191 1709.925 4111.711 4465.299 7192.870 3889.473 3415.738 4986.490 4771.203 9182.321 6592.446 7606.261 11815.437 7365.416 599.937 4298.989 8586.945 9288.461 4825.879 5339.453 5828.451 4831.089 5693.529 7951.398 3808.999 3491.485 10955.884 1508.272 6525.225 6836.440 6107.142 3898.959 7561.086 5117.660 8930.289 7717.248 4741.233
4345.387 4754.850 4959.725 4968.487 6059.104 3485.386 2941.154 5409.587 6039.795 3504.586 9986.733 3444.428 4999.884 3056.537 7844.166 3632.317 4285.296 8966.429 2928.015 6919.926 8225.645 10978.097 8309.537 1607.946 4769.831 7264.300 1624.847 6539.816 1714.861 3734.717 6413.978 3599.144 6173.663 6825.180 0.000 7224.349 8718.492 11566.344 6699.086 1783.078 9548.905 2638.321 1468.303 7342.613 5690.246 3606.972 3609.047 6510.914 8104.958 12233.764 3733.783 9329.126 3755.862 1262.082 10572.596 7662.239 9242.132 3319.844 1000.243 6280.716 7353.847 3057.587 4948.443 4000.893 4892.159 6600.692 9551.524 7358.974 2810.168 9761.187 4034.153 9671.312 11048.295 5932.303 1984.503 5723.089 6056.178 4690.862 7386.433 3122.938 4842.490 7374.238 2478.976 10545.520 6670.025 11104.640 1132.683 4818.783 9148.400 9413.844 8331.947 5706.426 6007.785 126.128 1427.925 9514.247 4612.360 2269.426 6344.841 2898.867 10041.893
2943.181 4814.846 8486.696 8490.409 5615.063 5119.849 4342.803 8540.788 2614.817 3905.875 6824.815 3792.413 3673.270 4169.401 2693.227 6181.507 3019.167 1754.328 4307.511 741.611 2054.300 3758.570 1171.247 6154.915 3999.131 2734.033 5630.565 686.002 8864.096 5651.783 1379.569 3628.002 9930.561 2414.819 7224.349 0.000 3312.274 4559.971 3554.211 6551.540 2910.933 4717.484 5788.572 4644.662 3720.368 3805.723 3801.263 6255.149 933.216 5119.206 3595.551 2484.286 3538.427 6652.378 7893.512 8967.531 2281.354 5948.176 6233.855 6951.391 533.532 9589.960 7087.302 9443.730 3183.631 4089.916 2354.092 2150.328 6619.293 2546.937 3196.339 7316.334 3897.583 7828.214 6311.299 6077.868 11120.919 6149.182 2268.214 5578.153 7482.290 7529.002 4802.549 7538.327 3824.296 3950.135 6186.642 6759.651 1956.338 2224.211 9242.064 3538.303 4792.999 7276.805 6108.982 6078.788 6391.516 6169.372 7405.096 7158.673 6952.304
4666.747 4541.552 7979.897 7980.195 4368.389 5550.649 6357.953 7836.031 5828.578 5268.808 10048.855 5543.816 3797.411 6020.594 897.908 6233.520 5363.012 3079.694 5993.357 2810.746 5092.884 4114.450 2724.348 8165.047 4097.470 1454.730 7379.554 3519.543 10431.926 5754.827 4599.963 5471.979 9177.982 5724.390 8718.492 3312.274 0.000 5957.782 6852.649 7432.975 5335.797 6107.621 7517.852 2583.583 6889.674 5173.515 5172.934 9470.076 3517.803 6094.858 5843.158 4811.692 5148.545 8588.845 11134.179 7312.996 4515.863 6206.553 7857.700 5620.660 3793.237 10265.865 6438.735 9581.188 3826.698 7375.287 3128.121 1500.373 7014.512 3825.271 5091.420 10600.777 5037.460 6769.844 7157.358 5011.508 10785.317 5647.934 5556.966 8105.169 6908.612 5725.797 6308.085 10752.789 2453.958 5058.279 7931.195 6168.240 2974.970 3859.187 7353.389 6708.544 3674.310 8809.031 7337.488 9302.633 5915.238 8439.342 6091.181 7475.612 10179.959
7454.220 9259.463 12970.407 12973.474 9787.073 9674.686 8625.210 12979.940 5778.394 8430.601 6543.836 8233.254 8140.860 8543.748 6023.660 10718.941 7283.771 3169.524 8732.289 5147.347 3432.096 2043.677 3847.916 10283.620 8481.341 6461.194 9941.878 5213.037 13109.547 10186.713 5153.346 8051.612 14375.357 5026.805 11566.344 4559.971 5957.782 0.000 5790.599 11079.211 2109.972 9202.374 10099.125 8338.018 6636.150 8333.651 8328.784 8362.443 3627.580 821.764 7833.081 2238.915 8034.805 10794.008 7546.361 13043.822 2335.488 10500.646 10566.386 11139.145 4279.012 14109.217 11514.075 14003.543 7710.623 6268.922 2873.793 5873.438 11179.244 2244.097 7641.968 7474.943 927.862 12146.114 10847.526 10341.637 15654.604 10588.758 4428.485 9313.114 11935.688 11494.510 9253.401 7060.661 7792.204 917.213 10465.894 11193.286 3146.681 2415.386 13185.345 6508.952 8968.381 11600.438 10579.924 5964.795 10843.583 10097.950 11612.732 11718.501 6671.478
4046.779 6803.432 9901.374 9907.655 8071.961 6410.947 4071.932 10123.324 1190.873 4769.065 3833.053 4236.871 5813.942 4244.575 6156.356 7513.011 3172.268 4692.719 4538.642 4072.456 2559.266 6217.146 4478.586 5154.345 6010.779 6035.185 5194.348 3390.027 7946.021 7077.274 2278.677 4054.695 11400.799 1155.120 6699.086 3554.211 6852.649 5790.599 0.000 6943.614 3716.973 5131.678 5326.788 7712.003 1019.807 4722.014 4715.719 2821.323 3711.283 6594.100 3425.404 3806.691 4333.805 5631.465 4767.588 11277.335 3914.277 7148.206 5782.579 9243.213 3131.296 9662.314 8836.570 10113.351 5188.188 561.874 5219.983 5548.113 7515.026 4938.468 3873.362 4028.357 5671.845 9796.335 6806.508 8326.123 12087.477 7960.875 1562.846 3841.290 9103.280 10079.046 5031.419 4528.656 6775.368 5730.962 5578.079 8520.739 4935.215 4546.338 11707.714 993.814 7352.656 6688.952 6212.560 3167.676 8131.262 4733.670 9623.457 8014.300 3935.376
3624.992 3136.108 3429.076 3437.386 4331.387 1915.992 2871.850 3826.016 6037.400 2649.471 10566.884 2908.102 3635.565 2736.883 6604.295 1852.036 3984.277 8210.481 2470.413 6093.586 7936.412 10200.686 7513.866 2682.656 3344.517 5993.212 1983.109 5877.678 3263.534 2007.255 6057.150 3101.649 4805.472 6767.695 1783.078 6551.540 7432.975 11079.211 6943.614 0.000 9193.923 1915.763 1925.830 5758.441 6015.106 2747.776 2752.456 7441.713 7479.118 11669.423 3564.418 8888.887 3049.647 2644.875 11290.445 5937.606 8749.747 1561.886 1695.554 4497.693 6800.643 3038.977 3187.161 3170.088 3710.583 6989.908 8757.520 6205.965 1047.472 9081.273 3470.642 10412.022 10449.122 4197.177 275.867 3957.113 5163.202 2913.373 7257.994 4046.713 3126.397 5591.501 1942.216 11189.735 5192.395 10501.622 1990.174 3041.363 8359.488 8774.527 6593.430 5976.496 4373.586 1908.797 804.737 10003.265 2829.356 3429.557 4569.988 1282.681 10641.452
5594.948 7723.592 11377.486 11381.475 8490.008 7948.546 6614.323 11445.140 3673.958 6569.478 5237.206 6300.873 6581.118 6570.154 5088.365 9039.170 5292.996 2264.597 6781.976 3618.244 1337.380 2773.882 2685.284 8216.577 6902.795 5361.881 7925.527 3465.155 11053.910 8515.269 3156.564 6112.127 12832.074 2917.108 9548.905 2910.933 5335.797 2109.972 3716.973 9193.923 0.000 7287.921 8081.058 7322.913 4531.108 6478.497 6473.129 6390.128 2083.731 2890.542 5821.350 524.172 6148.689 8726.254 6321.477 11832.382 820.110 8778.778 8552.380 9836.626 2489.723 12195.672 9995.328 12216.589 6071.123 4220.273 2420.040 4739.043 9400.131 1790.064 5724.539 6037.276 1986.300 10736.754 8977.743 8975.842 13967.890 9056.591 2318.531 7208.137 10384.971 10353.628 7312.332 5870.668 6606.143 2043.485 8434.389 9667.121 2409.416 1557.881 12068.949 4401.066 7663.115 9575.950 8639.642 4546.624 9296.325 8003.783 10296.160 9941.068 5372.460
1775.963 2676.425 4828.410 4835.346 4162.290 1616.368 1173.095 5107.504 4158.728 867.748 8860.321 992.429 2513.236 892.346 5224.100 2535.518 2076.259 6424.358 593.291 4334.599 6022.337 8432.798 5745.580 2244.573 2366.080 4658.526 1339.967 4033.969 4350.177 2233.940 4143.926 1185.900 6313.694 4869.796 2638.321 4717.484 6107.621 9202.374 5131.678 1915.763 7287.921 0.000 1454.268 5011.133 4264.343 970.990 973.427 6059.957 5632.375 9815.968 1707.157 6995.979 1179.080 2571.300 9657.486 6717.782 6867.926 2135.208 1751.324 4876.370 4926.228 4911.816 4000.404 5044.126 2289.807 5243.239 6993.772 4724.178 2385.778 7263.264 1564.913 8805.732 8604.317 5043.251 1724.366 4070.294 6969.530 3294.971 5347.975 2973.183 4159.377 5921.770 257.626 9512.619 4219.813 8658.313 1851.390 3728.070 6591.370 6938.863 7283.635 4199.767 3836.763 2718.922 1391.960 8255.657 3372.429 2780.218 5123.532 2883.272 8944.822
2972.976 4023.106 5340.914 5349.051 5470.950 2818.613 1474.419 5716.512 4598.188 2250.589 8780.919 2054.201 3966.779 1625.676 6626.468 3410.835 2821.587 7538.123 1552.635 5525.831 6759.135 9546.888 6894.419 872.620 3807.537 6078.156 158.440 5107.254 3077.453 3296.351 4946.234 2187.900 6731.296 5378.514 1468.303 5788.572 7517.852 10099.125 5326.788 1925.830 8081.058 1454.268 0.000 6452.430 4338.004 2344.566 2345.054 5530.218 6656.243 10770.302 2266.074 7861.482 2408.942 1119.942 9449.777 7670.168 7776.770 3017.956 473.431 5999.256 5898.159 4335.759 4887.896 4939.977 3725.480 5283.390 8129.240 6097.581 2867.098 8315.328 2623.451 8560.715 9589.137 5936.750 1933.566 5281.005 6988.458 4367.305 5931.855 2121.214 4923.181 7082.389 1223.299 9377.704 5673.389 9645.800 416.359 4673.363 7726.801 7962.776 8289.855 4334.102 5233.251 1502.395 1126.376 8259.470 4373.912 1564.361 6171.421 3201.152 8846.984
4248.739 2622.385 5544.334 5543.491 1884.748 3870.418 5710.858 5344.962 6537.508 4362.003 11353.096 4864.950 2529.349 5307.238 2314.883 4186.450 5218.677 5232.929 5153.008 3915.757 6693.392 6627.601 4658.053 7253.500 2645.697 1961.648 6348.272 4447.861 8987.157 3812.108 5505.996 4886.559 6649.335 6743.341 7342.613 4644.662 2583.583 8338.018 7712.003 5758.441 7322.913 5011.133 6452.430 0.000 7399.811 4299.673 4302.295 9902.785 5267.638 8572.617 5500.163 6816.235 4472.246 7572.146 12384.982 4751.088 6539.676 4289.871 6667.626 3050.924 5176.223 8260.322 4023.212 7337.265 2974.484 8140.232 5464.789 2584.501 5078.025 6112.062 4658.677 11716.407 7445.141 4222.157 5492.309 2537.933 8335.014 3366.701 6800.341 7677.033 4495.034 3173.888 5260.122 12070.411 954.165 7474.178 6827.435 3794.474 5208.582 6039.106 4848.532 7238.266 1414.025 7453.489 5916.024 10617.018 3617.145 7729.131 3516.524 5447.232 11474.283
3423.326 6182.100 9080.828 9087.492 7534.451 5648.397 3152.165 9331.494 1111.532 4011.476 4597.185 3437.511 5282.319 3372.144 6113.195 6722.339 2455.627 5133.973 3673.665 4081.826 3264.708 6841.327 4790.254 4136.766 5433.513 5891.715 4210.511 3371.937 6926.619 6318.072 2341.854 3269.997 10573.020 1657.637 5690.246 3720.368 6889.674 6636.150 1019.807 6015.106 4531.108 4264.343 4338.004 7399.811 0.000 3979.692 3973.529 2584.334 4109.192 7421.249 2585.293 4536.851 3601.147 4612.065 5430.108 10638.195 4594.455 6342.694 4787.288 8631.166 3408.042 8672.201 8100.581 9178.006 4666.065 979.724 5705.321 5480.680 6647.359 5531.810 3169.016 4612.372 6423.130 9092.261 5894.753 7722.870 11174.969 7259.011 2231.061 2830.430 8335.151 9526.997 4138.319 5257.792 6447.081 6482.962 4574.531 7793.989 5376.001 5132.876 11107.626 182.518 6868.659 5677.284 5263.618 3996.454 7408.900 3716.746 8984.541 7130.458 4683.913
884.282 2308.848 5203.817 5209.671 3774.848 1689.325 1421.063 5404.993 3634.556 104.017 8537.265 621.825 1773.290 1012.515 4283.216 2800.516 1550.109 5486.096 864.221 3382.281 5257.624 7489.077 4799.220 3036.341 1737.153 3734.297 2208.154 3130.071 5316.266 2355.340 3386.204 734.571 6705.244 4268.502 3606.972 3805.723 5173.515 8333.651 4722.014 2747.776 6478.497 970.990 2344.566 4299.673 3979.692 0.000 6.303 6098.028 4731.777 8922.077 1457.994 6154.324 388.940 3429.074 9406.947 6684.493 6007.353 2453.735 2694.884 4717.043 4056.916 5784.807 4125.029 5746.878 1403.598 4930.549 6047.323 3766.125 2954.183 6342.355 858.286 8591.258 7702.859 5112.847 2513.961 3834.703 7574.771 3281.416 4685.289 3401.316 4381.285 5686.505 1140.949 9216.570 3438.593 7755.663 2757.691 3815.512 5646.045 6029.716 7187.148 3878.395 3286.552 3684.981 2339.854 7888.702 3429.526 3440.816 5038.661 3490.212 8632.403
879.049 2314.074 5210.094 5215.949 3779.715 1695.625 1417.702 5411.296 3628.267 107.233 8530.999 616.951 1776.168 1009.299 4282.480 2806.809 1543.821 5482.153 862.657 3378.639 5251.971 7485.282 4795.451 3035.570 1741.073 3734.020 2208.420 3125.461 5318.151 2361.631 3380.440 728.894 6711.522 4262.310 3609.047 3801.263 5172.934 8328.784 4715.719 2752.456 6473.129 973.427 2345.054 4302.295 3973.529 6.303 0.000 6092.537 4727.197 8917.487 1452.317 6149.183 382.637 3428.938 9400.750 6690.401 6002.372 2459.980 2696.161 4722.697 4051.956 5789.369 4131.264 5752.482 1404.562 4924.325 6043.578 3764.810 2960.055 6338.107 852.007 8585.116 7698.349 5118.988 2518.869 3840.180 7580.734 3287.508 4679.239 3397.827 4387.579 5691.857 1142.279 9210.324 3440.589 7751.169 2758.305 3821.718 5642.267 6025.285 7192.886 3872.186 3290.575 3686.894 2343.217 7882.412 3435.712 3438.843 5044.501 3496.030 8626.146
5753.028 8401.415 10794.115 10801.778 9836.724 7631.238 4892.887 11121.957 3650.560 6098.548 3791.180 5486.220 7639.451 5243.197 8697.508 8592.767 4746.348 7510.477 5533.122 6659.929 5350.118 9007.017 7261.280 4938.777 7734.060 8466.775 5459.785 5950.597 7206.958 8280.151 4891.770 5365.255 12230.195 3949.644 6510.914 6255.149 9470.076 8362.443 2821.323 7441.713 6390.128 6059.957 5530.218 9902.785 2584.334 6098.028 6092.537 0.000 6517.363 9182.917 4644.017 6558.444 5764.120 5253.903 4141.785 12743.113 6695.372 8189.507 5866.658 10811.048 5888.434 9551.113 10059.142 10428.877 7050.582 2260.818 8041.297 8064.689 8290.037 7745.971 5410.766 3240.203 8375.496 11097.412 7405.870 9932.703 12490.304 9311.093 4381.488 3432.092 10211.949 11781.728 5859.451 4207.476 8948.924 8433.081 5584.160 9780.657 7753.358 7357.414 13272.839 2763.896 9241.903 6449.244 6637.116 3576.535 9415.315 4241.494 11114.379 8692.070 3805.252
3862.731 5700.012 9390.644 9394.147 6409.440 6048.899 5194.389 9430.419 3010.580 4831.114 6547.315 4691.583 4563.896 5049.040 3103.458 7103.217 3851.499 1029.261 5203.489 1562.323 1576.800 2931.557 823.626 6972.527 4896.635 3307.773 6497.828 1601.946 9723.350 6572.273 1911.938 4520.886 10823.219 2567.811 8104.958 933.216 3517.803 3627.580 3711.283 7479.118 2083.731 5632.375 6656.243 5267.638 4109.192 4731.777 4727.197 6517.363 0.000 4190.323 4425.624 1611.251 4454.558 7476.386 7638.362 9749.197 1378.194 6876.176 7109.267 7758.302 787.507 10516.552 7971.013 10375.982 4098.591 4271.769 1620.782 2686.699 7551.809 1660.505 4094.573 7149.765 2972.710 8678.651 7240.736 6905.124 12042.429 7035.569 2207.483 6276.413 8375.340 8271.215 5707.753 7245.784 4526.140 3026.300 7046.991 7645.103 1269.085 1310.354 9986.722 3934.431 5582.076 8152.656 7021.975 5803.391 7282.620 6930.134 8220.081 8090.952 6679.745
8051.216 9696.041 13409.113 13411.740 10117.818 10192.908 9296.270 13391.940 6533.775 9021.302 7309.214 8861.347 8598.885 9192.886 6277.320 11209.235 7948.945 3572.028 9367.506 5646.515 4187.637 1992.576 4277.840 10990.806 8943.701 6765.081 10612.330 5792.068 13803.151 10676.380 5837.962 8684.486 14785.382 5796.258 12233.764 5119.206 6094.858 821.764 6594.100 11669.423 2890.542 9815.968 10770.302 8572.617 7421.249 8922.077 8917.487 9182.917 4190.323 0.000 8507.821 2950.847 8640.465 11500.990 8291.347 13313.957 2997.841 11011.880 11233.688 11460.550 4895.541 14706.797 11926.599 14532.764 8207.311 7079.367 3161.469 6206.242 11714.655 2642.140 8265.961 8254.706 1228.742 12506.670 11430.384 10696.182 16128.814 11013.199 5201.324 10064.425 12360.142 11745.472 9881.173 7802.864 8103.166 1180.785 11145.405 11611.074 3497.097 2904.266 13414.575 7289.428 9311.215 12272.682 11202.200 6749.960 11272.983 10832.408 11936.684 12250.759 7434.770
1263.850 3757.418 6498.206 6504.781 5202.441 3077.334 793.398 6746.336 2473.174 1468.008 7179.508 865.429 3064.034 829.246 4952.576 4138.189 576.543 5348.891 1115.186 3451.696 4507.157 7342.954 4740.889 2559.614 3114.367 4510.966 2108.993 2932.754 5304.966 3745.590 2680.214 723.424 7992.990 3214.219 3733.783 3595.551 5843.158 7833.081 3425.404 3564.418 5821.350 1707.157 2266.074 5500.163 2585.293 1457.994 1452.317 4644.017 4425.624 8507.821 0.000 5595.432 1122.249 3057.238 8009.363 8137.340 5512.384 3757.404 2734.451 6174.986 3654.275 6445.043 5534.354 6726.964 2531.093 3558.202 5949.641 4346.856 4089.678 6085.678 841.738 7176.381 7333.363 6543.091 3404.503 5290.160 8673.318 4721.429 3730.723 2272.063 5754.612 7137.714 1625.091 7843.076 4574.889 7390.510 2637.765 5234.446 5551.229 5723.507 8644.848 2507.133 4651.400 3767.544 2893.385 6560.767 4854.139 2644.897 6494.433 4590.429 7268.036
5270.431 7295.755 10970.470 10974.224 8018.334 7575.619 6388.030 11023.867 3595.844 6248.386 5664.090 6017.907 6155.578 6314.689 4570.810 8653.271 5049.157 1742.656 6510.955 3167.299 1272.228 2472.485 2168.555 8048.871 6483.098 4856.842 7704.413 3080.096 10871.529 8125.804 2915.258 5833.246 12414.374 2885.245 9329.126 2484.286 4811.692 2238.915 3806.691 8888.887 524.172 6995.979 7861.482 6816.235 4536.851 6154.324 6149.183 6558.444 1611.251 2950.847 5595.432 0.000 5839.263 8559.270 6755.298 11353.712 296.785 8406.037 8329.427 9368.331 2110.880 11907.695 9568.253 11871.584 5665.205 4337.789 1932.009 4234.551 9048.971 1348.312 5431.544 6428.067 1886.375 10288.147 8664.826 8516.367 13589.991 8630.928 2307.026 7118.444 9966.014 9864.408 7036.122 6313.811 6114.540 1946.231 8227.138 9241.194 1894.283 1066.027 11578.949 4392.696 7190.737 9362.354 8364.328 4957.195 8874.704 7881.562 9830.805 9590.013 5799.595
598.323 2638.503 5591.545 5597.436 4080.484 2078.086 1260.003 5793.929 3246.361 449.645 8151.104 406.911 1978.147 882.396 4251.654 3189.105 1162.686 5248.631 857.182 3170.244 4910.132 7258.632 4574.259 3016.659 1999.635 3733.714 2261.029 2855.184 5448.238 2743.490 3032.969 421.784 7093.023 3886.352 3755.862 3538.427 5148.545 8034.805 4333.805 3049.647 6148.689 1179.080 2408.942 4472.246 3601.147 388.940 382.637 5764.120 4454.558 8640.465 1122.249 5839.263 0.000 3445.777 9025.418 7049.230 5702.633 2840.009 2802.534 5067.386 3756.062 6074.413 4509.635 6096.756 1508.788 4547.474 5821.643 3700.887 3320.610 6084.225 471.448 8213.504 7427.004 5491.762 2829.139 4175.515 7944.758 3657.875 4312.255 3205.256 4769.521 6018.500 1282.799 8831.765 3577.408 7480.796 2825.179 4198.432 5418.810 5760.229 7541.589 3496.554 3544.811 3823.879 2570.858 7500.814 3811.381 3342.544 5399.772 3853.269 8246.800
3974.448 5122.669 6033.778 6042.346 6551.042 3893.613 2329.967 6453.835 5107.422 3339.849 8776.277 3062.464 5084.533 2596.800 7693.567 4358.111 3633.781 8406.052 2595.583 6466.398 7389.585 10398.942 7791.931 510.408 4927.447 7159.328 1233.234 5985.578 2340.435 4316.964 5668.203 3164.983 7327.612 5897.531 1262.082 6652.378 8588.845 10794.008 5631.465 2644.875 8726.254 2571.300 1119.942 7572.146 4612.065 3429.074 3428.938 5253.903 7476.386 11500.990 3057.238 8559.270 3445.777 0.000 9333.200 8565.720 8505.062 3986.485 1003.235 6997.330 6698.696 4300.027 5793.020 5247.728 4824.408 5476.834 9006.349 7146.392 3680.327 9134.286 3587.153 8430.282 10350.379 6823.644 2749.013 6323.947 7307.914 5365.862 6481.672 1903.539 5766.239 8089.543 2333.615 9319.412 6791.084 10408.446 764.503 5610.550 8607.349 8766.287 9209.259 4651.934 6343.490 1195.418 1961.720 8329.336 5342.780 1016.100 7132.184 3901.786 8826.796
8794.882 11560.257 14485.870 14492.790 12839.031 11078.461 8505.466 14752.111 5953.616 9440.860 1096.836 8866.507 10581.516 8771.603 10585.847 12147.092 7869.083 8347.327 9075.060 8553.638 6067.753 9030.442 8458.051 8971.654 10775.665 10587.267 9353.604 7949.472 11348.079 11748.119 6879.397 8700.097 15968.731 5642.302 10572.596 7893.512 11134.179 7546.361 4767.588 11290.445 6321.477 9657.486 9449.777 12384.982 5430.108 9406.947 9400.750 4141.785 7638.362 8291.347 8009.363 6755.298 9025.418 9333.200 0.000 16032.902 7019.986 11763.006 9837.706 14005.100 7375.471 13629.000 13530.203 14389.665 9955.755 4479.516 8669.614 10033.698 12019.199 8098.857 8582.420 904.594 8013.678 14516.514 11207.825 13089.142 16433.251 12681.143 5631.212 7450.931 13763.506 14846.352 9506.659 491.016 11470.028 8055.987 9572.452 13222.401 8552.224 7811.818 16473.056 5528.875 12112.800 10521.609 10500.441 1835.266 12836.343 8317.480 14377.935 12477.023 962.174
7238.048 4473.977 3001.938 2993.975 3353.391 5116.385 7862.546 2503.523 10109.301 6669.359 15106.855 7275.993 5509.650 7500.759 7037.564 4264.682 8182.567 9893.822 7214.513 8233.447 10982.133 11377.991 9262.380 8521.922 5276.650 6584.068 7662.034 8558.905 8756.927 4484.363 9412.432 7416.288 2948.882 10571.575 7662.239 8967.531 7312.996 13043.822 11277.335 5937.606 11832.382 6717.782 7670.168 4751.088 10638.195 6684.493 6690.401 12743.113 9749.197 13313.957 8137.340 11353.712 7049.230 8565.720 16032.902 0.000 11097.685 4665.775 7578.360 2049.447 9461.734 6654.867 2782.664 5091.704 6126.919 11559.644 10181.461 7182.931 4891.348 10802.602 7469.459 15244.169 12167.405 1742.102 5816.710 2965.313 4867.666 3432.686 10811.615 9646.495 2819.971 1589.103 6942.789 15805.897 5263.039 12199.201 7857.478 3008.752 9897.966 10687.962 702.232 10521.809 4174.819 7787.117 6615.057 14418.250 3346.977 9234.316 1655.052 4770.134 15211.662
5125.598 7077.571 10763.903 10767.500 7768.482 7394.271 6302.364 10807.764 3613.018 6103.203 5926.638 5897.768 5940.309 6211.114 4284.881 8462.212 4956.986 1445.891 6397.142 2940.514 1355.275 2311.958 1885.350 7995.083 6271.475 4582.514 7619.043 2904.030 10805.324 7932.871 2840.126 5716.218 12200.118 2936.841 9242.132 2281.354 4515.863 2335.488 3914.277 8749.747 820.110 6867.926 7776.770 6539.676 4594.455 6007.353 6002.372 6695.372 1378.194 2997.841 5512.384 296.785 5702.633 8505.062 7019.986 11097.685 0.000 8223.886 8241.889 9120.357 1950.609 11776.583 9348.940 11704.752 5464.439 4456.406 1653.552 3961.153 8880.246 1110.297 5306.707 6673.937 1864.852 10053.713 8520.965 8275.080 13401.337 8413.158 2379.935 7112.399 9751.980 9600.917 6917.918 6582.772 5850.577 1924.353 8149.297 9022.851 1599.839 791.832 11314.542 4443.335 6940.815 9279.063 8244.482 5213.587 8659.524 7854.953 9584.769 9420.874 6062.124
3271.416 1702.440 2754.613 2760.726 2772.636 830.547 3308.288 2989.353 6084.948 2392.696 10934.902 2914.299 2506.126 2999.473 5442.510 406.199 3984.379 7459.217 2696.871 5366.066 7624.403 9380.184 6749.398 3882.215 2166.225 4820.834 3000.650 5325.941 4818.449 477.850 5783.835 3093.745 4255.701 6720.098 3319.844 5948.176 6206.553 10500.646 7148.206 1561.886 8778.778 2135.208 3017.956 4289.871 6342.694 2453.735 2459.980 8189.507 6876.176 11011.880 3757.404 8406.037 2840.009 3986.485 11763.006 4665.775 8223.886 0.000 2983.385 3012.247 6297.881 4061.448 1895.972 3530.465 2806.684 7314.140 7955.037 5144.684 810.351 8374.666 3311.255 10921.268 9783.275 2949.091 1335.859 2403.245 5189.534 1386.495 7121.175 4988.617 2024.285 4106.399 2330.323 11600.459 3835.966 9831.258 3243.818 1659.026 7573.001 8113.665 5274.401 6261.180 2880.995 3443.597 2031.685 10305.899 1359.332 4577.957 3155.810 1285.059 11024.592
3381.853 4163.490 5121.113 5129.498 5569.614 2916.048 1941.423 5521.551 5069.683 2595.908 9192.702 2469.791 4226.673 2064.503 6972.107 3356.745 3285.072 7979.750 1956.986 5949.190 7231.490 9990.387 7329.011 990.426 4037.085 6409.625 626.990 5550.508 2648.684 3316.838 5414.438 2616.028 6468.882 5850.891 1000.243 6233.855 7857.700 10566.386 5782.579 1695.554 8552.380 1751.324 473.431 6667.626 4787.288 2694.884 2696.161 5866.658 7109.267 11233.688 2734.451 8329.427 2802.534 1003.235 9837.706 7578.360 8241.889 2983.385 0.000 5994.101 6355.598 3885.928 4800.656 4566.575 4040.772 5723.893 8567.841 6460.959 2707.341 8766.820 3052.231 8944.053 10049.181 5837.078 1767.455 5326.321 6625.287 4362.788 6405.107 2435.284 4791.073 7086.436 1553.983 9778.876 5927.027 10105.618 296.661 4611.814 8164.957 8417.385 8216.382 4789.003 5399.208 1043.481 964.110 8684.952 4340.255 1740.309 6131.160 2975.205 9255.644
5215.697 2449.456 2728.371 2724.950 1354.635 3261.802 5975.876 2413.162 8070.018 4712.836 13068.807 5324.954 3460.722 5594.175 5206.786 2657.746 6178.752 7972.163 5322.262 6223.659 8950.252 9569.087 7316.990 6870.681 3234.399 4695.474 5964.070 6521.803 7632.161 2704.667 7363.339 5451.578 3627.888 8523.051 6280.716 6951.391 5620.660 11139.145 9243.213 4497.693 9836.626 4876.370 5999.256 3050.924 8631.166 4717.043 4722.697 10811.048 7758.302 11460.550 6174.986 9368.331 5067.386 6997.330 14005.100 2049.447 9120.357 3012.247 5994.101 0.000 7436.718 6078.992 1487.380 4797.287 4079.415 9539.358 8304.014 5266.975 3488.962 8895.441 5469.561 13226.540 10285.280 1198.643 4312.743 918.271 5407.060 1633.396 8762.925 7847.197 1855.041 1095.798 5118.235 13770.299 3357.387 10320.684 6249.618 1494.733 7996.487 8753.135 2476.899 8508.974 2180.854 6406.481 5043.747 12376.159 1670.000 7540.479 476.703 3575.033 13174.953
3175.819 5249.088 8888.409 8892.443 6108.371 5467.336 4430.226 8961.853 2297.497 4153.038 6302.776 3965.965 4106.629 4302.968 3211.394 6551.711 3083.061 1793.595 4472.152 1264.605 1532.270 3718.053 1382.648 6193.486 4422.048 3267.306 5739.741 975.574 8957.678 6026.662 1136.902 3789.035 10346.359 1977.522 7353.847 533.532 3793.237 4279.012 3131.296 6800.643 2489.723 4926.228 5898.159 5176.223 3408.042 4056.916 4051.956 5888.434 787.507 4895.541 3654.275 2110.880 3756.062 6698.696 7375.471 9461.734 1950.609 6297.881 6355.598 7436.718 0.000 9830.373 7517.311 9761.413 3583.293 3680.399 2395.375 2680.588 6938.309 2436.083 3371.089 6812.867 3696.423 8286.467 6570.712 6553.991 11484.630 6578.166 1764.425 5490.901 7900.717 8037.947 4986.040 7015.054 4347.872 3752.249 6284.160 7188.365 2025.462 2069.299 9748.927 3229.002 5290.369 7398.042 6308.849 5556.195 6814.443 6143.039 7885.738 7479.318 6431.022
6657.674 5752.545 3660.126 3667.704 6518.909 4745.002 5679.713 4153.548 8887.281 5685.501 13040.288 5895.030 6515.936 5647.363 9486.402 4084.900 6926.523 11246.143 5417.695 9127.708 10915.355 13230.796 10547.227 4663.972 6191.019 8865.701 4468.558 8914.729 2814.389 4522.890 9043.624 6083.568 4217.608 9650.858 3057.587 9589.960 10265.865 14109.217 9662.314 3038.977 12195.672 4911.816 4335.759 8260.322 8672.201 5784.807 5789.369 9551.113 10516.552 14706.797 6445.043 11907.695 6074.413 4300.027 13629.000 6654.867 11776.583 4061.448 3885.928 6078.992 9830.373 0.000 4600.292 1646.407 6689.069 9609.145 11788.271 9146.392 3251.907 12119.987 6476.622 12727.112 13487.452 5205.570 3286.109 5952.780 3353.405 4940.839 10175.766 6180.481 4233.619 7027.102 4885.115 13602.845 7889.715 13540.095 4113.897 4681.052 11391.706 11813.301 7354.639 8669.842 6850.944 3107.734 3562.362 12555.716 4721.910 5315.810 5909.010 2819.419 13096.964
4816.816 2272.574 1541.221 1541.608 2140.542 2457.099 5166.654 1466.231 7715.062 4089.344 12660.133 4670.468 3414.311 4830.233 5857.708 1490.760 5671.551 8363.551 4533.321 6409.035 8962.648 10132.459 7669.391 5739.466 3095.438 5272.856 4881.903 6551.484 6203.003 1790.577 7218.081 4831.682 2861.461 8276.282 4948.443 7087.302 6438.735 11514.075 8836.570 3187.161 9995.328 4000.404 4887.896 4023.212 8100.581 4125.029 4131.264 10059.142 7971.013 11926.599 5534.354 9568.253 4509.635 5793.020 13530.203 2782.664 9348.940 1895.972 4800.656 1487.380 7517.311 4600.292 0.000 3396.123 3946.791 9055.451 8776.685 5759.163 2141.911 9298.736 4964.036 12707.662 10715.153 1053.381 3046.739 1493.211 4346.588 939.144 8607.117 6884.534 472.747 2512.417 4210.788 13341.342 4002.470 10756.756 5077.375 329.670 8429.594 9098.876 3416.263 8002.785 2764.857 5074.462 3836.615 12004.043 716.124 6452.192 1417.845 2130.630 12756.324
6626.202 5059.392 2160.300 2166.577 5489.356 4340.817 6041.419 2624.513 9196.794 5660.501 13704.177 6022.884 6018.728 5897.783 8882.097 3390.398 7119.186 10987.395 5620.981 8886.671 11004.076 12909.650 10277.754 5497.181 5673.346 8264.672 5037.635 8800.846 4287.075 3910.244 9129.318 6217.904 2573.022 9913.904 4000.893 9443.730 9581.188 14003.543 10113.351 3170.088 12216.589 5044.126 4939.977 7337.265 9178.006 5746.878 5752.482 10428.877 10375.982 14532.764 6726.964 11871.584 6096.756 5247.728 14389.665 5091.704 11704.752 3530.465 4566.575 4797.287 9761.413 1646.407 3396.123 0.000 6335.103 10149.451 11485.499 8639.368 2824.878 11899.410 6548.965 13500.497 13304.050 3783.828 3323.827 4864.949 2063.587 3977.149 10384.833 6997.174 2959.326 5642.022 5101.874 14312.052 7135.200 13352.824 4845.279 3565.357 11103.192 11630.704 5784.301 9143.623 5977.090 4090.428 3917.496 13157.052 3721.287 6222.557 4548.029 2285.058 13774.286
1303.672 1704.699 5306.991 5310.894 2885.295 1998.204 2764.619 5381.342 4004.538 1487.088 9000.096 1910.620 625.770 2372.214 2953.804 3008.355 2306.143 4652.658 2264.983 2565.354 5016.005 6586.002 3942.887 4439.568 867.267 2373.419 3595.942 2611.082 6606.172 2476.102 3309.136 1916.214 6763.491 4445.191 4892.159 3183.631 3826.698 7710.623 5188.188 3710.583 6071.123 2289.807 3725.480 2974.484 4666.065 1403.598 1404.562 7050.582 4098.591 8207.311 2531.093 5665.205 1508.788 4824.408 9955.755 6126.919 5464.439 2806.684 4040.772 4079.415 3583.293 6689.069 3946.791 6335.103 0.000 5522.257 5154.368 2503.487 3537.465 5568.571 1692.493 9201.575 6979.040 4775.754 3441.316 3161.818 7945.340 3009.529 4710.082 4711.071 4319.514 4891.301 2503.609 9705.595 2068.942 7026.538 4132.770 3617.137 4769.219 5313.080 6527.176 4525.381 2204.399 4982.334 3523.188 8301.161 3237.801 4830.354 4485.548 4064.144 9108.600
4323.864 7090.964 10056.124 10062.731 8405.725 6608.706 4130.709 10301.622 1608.211 4967.315 3621.306 4403.626 6145.647 4350.924 6660.268 7690.877 3389.668 5254.593 4652.013 4580.715 3103.691 6763.911 5034.934 5020.705 6320.190 6513.000 5160.996 3887.282 7755.714 7278.213 2781.621 4231.697 11549.652 1709.925 6600.692 4089.916 7375.287 6268.922 561.874 6989.908 4220.273 5243.239 5283.390 8140.232 979.724 4930.549 4924.325 2260.818 4271.769 7079.367 3558.202 4337.789 4547.474 5476.834 4479.516 11559.644 4456.406 7314.140 5723.893 9539.358 3680.399 9609.145 9055.451 10149.451 5522.257 0.000 5780.968 6044.468 7626.836 5491.578 4102.905 3687.388 6189.851 10037.415 6872.623 8626.060 12151.404 8201.801 2120.927 3623.574 9299.263 10407.965 5118.018 4289.092 7195.734 6248.574 5499.185 8745.714 5497.087 5100.912 12012.497 1054.103 7710.567 6580.149 6232.876 3017.136 8358.856 4534.051 9904.650 8110.126 3710.506
5223.703 6564.840 10271.124 10273.474 6958.545 7152.571 6693.262 10240.398 4618.211 6150.515 7574.939 6108.061 5492.392 6505.134 3151.320 8123.702 5373.254 605.934 6624.797 2666.560 2775.440 1443.249 1248.365 8508.976 5839.402 3610.084 7971.769 3025.272 11206.634 7592.807 3529.630 5953.012 11632.148 4111.711 9551.524 2354.092 3128.121 2873.793 5219.983 8757.520 2420.040 6993.772 8129.240 5464.789 5705.321 6047.323 6043.578 8041.297 1620.782 3161.469 5949.641 1932.009 5821.643 9006.349 8669.614 10181.461 1653.552 7955.037 8567.841 8304.014 2395.375 11788.271 8776.685 11485.499 5154.368 5780.968 0.000 3044.831 8690.901 704.953 5517.499 8301.354 1986.064 9345.204 8503.542 7534.718 13013.475 7870.622 3663.624 7881.870 9215.419 8625.493 7101.647 8235.061 4947.452 2018.896 8531.103 8463.998 403.194 866.095 10312.828 5533.856 6150.078 9608.602 8382.450 6856.507 8132.816 8509.536 8779.675 9218.503 7710.353
3191.776 3607.816 7273.521 7275.342 3917.272 4403.529 4883.422 7216.906 4458.259 3865.659 8970.428 4086.841 2640.581 4559.966 638.013 5248.971 3862.683 2711.888 4555.040 1489.109 4156.496 4373.447 2089.547 6708.694 2978.464 622.908 5954.143 2158.578 9073.001 4732.702 3269.458 4002.488 8604.026 4465.299 7358.974 2150.328 1500.373 5873.438 5548.113 6205.965 4739.043 4724.178 6097.581 2584.501 5480.680 3766.125 3764.810 8064.689 2686.699 6206.242 4346.856 4234.551 3700.887 7146.392 10033.698 7182.931 3961.153 5144.684 6460.959 5266.975 2680.588 9146.392 5759.163 8639.368 2503.487 6044.468 3044.831 0.000 5929.699 3629.352 3609.780 9433.055 5020.052 6300.620 5934.210 4489.993 10047.005 4872.871 4402.495 6605.769 6207.674 5656.871 4907.073 9685.053 1921.140 5056.475 6513.408 5453.562 2729.518 3505.362 7365.626 5302.140 3105.499 7442.408 6017.378 8225.220 5139.170 6955.677 5741.454 6429.637 9097.028
3822.467 2510.178 2504.167 2511.864 3478.471 1541.447 3514.436 2853.871 6513.174 2874.664 11240.495 3305.165 3289.314 3277.496 6243.517 923.678 4406.475 8180.235 2978.896 6071.419 8204.875 10123.465 7471.646 3678.663 2955.457 5622.019 2892.830 5976.243 4165.793 1279.721 6338.874 3497.015 3956.727 7192.870 2810.168 6619.293 7014.512 11179.244 7515.026 1047.472 9400.131 2385.778 2867.098 5078.025 6647.359 2954.183 2960.055 8290.037 7551.809 11714.655 4089.678 9048.971 3320.610 3680.327 12019.199 4891.348 8880.246 810.351 2707.341 3488.962 6938.309 3251.907 2141.911 2824.878 3537.465 7626.836 8690.901 5929.699 0.000 9085.939 3785.291 11157.057 10486.227 3150.268 941.794 3028.497 4624.866 1962.172 7632.402 4958.433 2086.055 4576.771 2514.625 11886.916 4645.534 10535.592 2995.424 2011.375 8303.737 8811.152 5545.966 6585.248 3664.856 2936.291 1757.122 10640.812 1837.074 4415.169 3534.945 541.109 11323.121
5487.821 7058.685 10772.595 10775.343 7543.862 7558.598 6854.778 10764.892 4486.231 6443.664 7009.417 6337.625 5957.253 6704.664 3798.064 8567.878 5511.881 935.206 6851.778 3014.601 2400.184 1315.819 1636.290 8629.439 6301.817 4218.757 8156.946 3232.477 11383.697 8035.079 3518.633 6170.633 12159.661 3889.473 9761.187 2546.937 3825.271 2244.097 4938.468 9081.273 1790.064 7263.264 8315.328 6112.062 5531.810 6342.355 6338.107 7745.971 1660.505 2642.140 6085.678 1348.312 6084.225 9134.286 8098.857 10802.602 1110.297 8374.666 8766.820 8895.441 2436.083 12119.987 9298.736 11899.410 5568.571 5491.578 704.953 3629.352 9085.939 0.000 5740.951 7775.654 1418.596 9909.267 8835.574 8102.545 13486.889 8380.245 3378.601 7886.320 9727.765 9258.236 7349.330 7653.464 5548.323 1462.860 8707.068 8980.893 905.252 399.017 10954.358 5369.378 6726.407 9810.300 8655.070 6305.078 8638.480 8568.723 9369.277 9620.110 7144.897
434.699 3024.926 6062.094 6067.952 4428.928 2544.129 1277.712 6260.811 2776.462 920.652 7696.830 597.028 2242.743 1000.939 4194.777 3658.473 714.066 4932.719 1111.174 2902.551 4468.938 6944.693 4276.982 3123.985 2323.473 3721.148 2467.962 2510.448 5697.375 3206.949 2589.265 436.286 7563.527 3415.738 4034.153 3196.339 5091.420 7641.968 3873.362 3470.642 5724.539 1564.913 2623.451 4658.677 3169.016 858.286 852.007 5410.766 4094.573 8265.961 841.738 5431.544 471.448 3587.153 8582.420 7469.459 5306.707 3311.255 3052.231 5469.561 3371.089 6476.622 4964.036 6548.965 1692.493 4102.905 5517.499 3609.780 3785.291 5740.951 0.000 7778.855 7060.539 5935.332 3261.153 4567.361 8410.132 4099.303 3847.479 3082.022 5232.566 6394.361 1615.260 8381.028 3733.447 7115.364 3033.101 4649.849 5114.416 5404.620 7946.371 3056.525 3840.619 4091.451 2938.468 7041.033 4261.254 3347.963 5816.327 4315.666 7794.064
8010.869 10777.805 13632.830 13639.866 12086.767 10252.031 7646.821 13908.385 5219.078 8620.919 1012.313 8038.011 9826.365 7924.200 10005.791 11309.043 7064.812 7930.350 8227.589 7944.866 5606.290 8797.331 7973.390 8071.810 10006.670 9966.339 8466.999 7311.969 10445.133 10921.097 6219.342 7876.244 15110.710 4986.490 9671.312 7316.334 10600.777 7474.943 4028.357 10412.022 6037.276 8805.732 8560.715 11716.407 4612.372 8591.258 8585.116 3240.203 7149.765 8254.706 7176.381 6428.067 8213.504 8430.282 904.594 15244.169 6673.937 10921.268 8944.053 13226.540 6812.867 12727.112 12707.662 13500.497 9201.575 3687.388 8301.354 9433.055 11157.057 7775.654 7778.855 0.000 7846.127 13704.103 10334.945 12313.443 15547.294 11871.338 5049.670 6550.679 12929.577 14091.295 8648.245 1030.759 10788.612 7892.907 8676.902 12403.458 8147.080 7460.439 15699.886 4722.928 11378.104 9619.502 9619.096 1515.326 12019.423 7414.404 13589.441 11608.339 920.764
6835.427 8477.193 12191.060 12193.794 8937.181 8964.167 8117.316 12181.158 5471.014 7802.646 6967.581 7656.994 7375.157 7999.342 5134.477 9981.956 6768.548 2352.582 8166.002 4417.780 3158.422 1166.747 3054.664 9841.228 7719.404 5594.184 9430.846 4574.243 12636.843 9449.073 4682.693 7482.738 13575.598 4771.203 11048.295 3897.583 5037.460 927.862 5671.845 10449.122 1986.300 8604.317 9589.137 7445.141 6423.130 7702.859 7698.349 8375.496 2972.710 1228.742 7333.363 1886.375 7427.004 10350.379 8013.678 12167.405 1864.852 9783.275 10049.181 10285.280 3696.423 13487.452 10715.153 13304.050 6979.040 6189.851 1986.064 5020.052 10486.227 1418.596 7060.539 7846.127 0.000 11314.112 10208.385 9505.220 14904.222 9797.997 4192.767 8977.214 11145.438 10609.814 8675.461 7538.336 6930.451 59.903 9970.112 10397.962 2294.024 1677.339 12293.649 6278.958 8124.385 11090.589 9992.931 6332.103 10056.579 9716.686 10760.419 11022.176 7099.781
5754.681 3071.115 1634.979 1629.775 2416.220 3474.601 6204.782 1247.851 8655.484 5084.846 13627.440 5677.672 4195.905 5860.058 6301.300 2544.104 6647.844 8977.630 5566.008 7121.680 9768.389 10649.100 8302.226 6784.354 3908.695 5758.577 5933.172 7338.279 7090.503 2817.747 8081.900 5831.880 2432.905 9182.321 5932.303 7828.214 6769.844 12146.114 9796.335 4197.177 10736.754 5043.251 5936.750 4222.157 9092.261 5112.847 5118.988 11097.412 8678.651 12506.670 6543.091 10288.147 5491.762 6823.644 14516.514 1742.102 10053.713 2949.091 5837.078 1198.643 8286.467 5205.570 1053.381 3783.828 4775.754 10037.415 9345.204 6300.620 3150.268 9909.267 5935.332 13704.103 11314.112 0.000 4074.644 1810.801 4216.573 1836.277 9480.745 7937.707 1097.810 1859.682 5257.819 14315.163 4430.451 11352.198 6117.161 1316.793 9020.097 9740.937 2399.813 8987.980 3198.588 6057.662 4874.202 12959.721 1689.442 7501.075 808.105 3053.532 13726.577
3395.612 2870.701 3410.624 3418.668 4092.448 1642.445 2742.942 3783.213 5873.010 2417.769 10464.773 2711.798 3359.956 2575.294 6329.623 1655.738 3800.514 7960.037 2297.188 5841.739 7730.079 9946.435 7261.492 2736.932 3068.674 5718.114 1969.458 5640.531 3514.762 1764.330 5850.376 2906.521 4824.606 6592.446 1984.503 6311.299 7157.358 10847.526 6806.508 275.867 8977.743 1724.366 1933.566 5492.309 5894.753 2513.961 2518.869 7405.870 7240.736 11430.384 3404.503 8664.826 2829.139 2749.013 11207.825 5816.710 8520.965 1335.859 1767.455 4312.743 6570.712 3286.109 3046.739 3323.827 3441.316 6872.623 8503.542 5934.210 941.794 8835.574 3261.153 10334.945 10208.385 4074.644 0.000 3738.921 5282.477 2708.825 7072.103 4040.404 3023.618 5408.353 1780.068 11095.924 4918.605 10260.506 2054.114 2878.935 8106.373 8532.602 6462.077 5848.770 4112.365 2108.638 815.881 9889.162 2642.911 3474.609 4407.645 1286.240 10542.072
4303.553 1542.491 3006.447 3005.643 653.889 2479.050 5133.068 2826.033 7152.058 3836.981 12150.881 4449.204 2544.603 4742.342 4500.680 2118.633 5273.678 7172.279 4480.649 5357.840 8059.422 8840.534 6501.785 6152.843 2316.385 3949.810 5230.522 5627.625 7187.076 2012.329 6451.192 4567.744 4171.563 7606.261 5723.089 6077.868 5011.508 10341.637 8326.123 3957.113 8975.842 4070.294 5281.005 2537.933 7722.870 3834.703 3840.180 9932.703 6905.124 10696.182 5290.160 8516.367 4175.515 6323.947 13089.142 2965.313 8275.080 2403.245 5326.321 918.271 6553.991 5952.780 1493.211 4864.949 3161.818 8626.060 7534.718 4489.993 3028.497 8102.545 4567.361 12313.443 9505.220 1810.801 3738.921 0.000 5801.058 1067.764 7851.701 7041.477 1962.031 1860.667 4319.655 12852.723 2627.469 9542.952 5564.175 1301.131 7211.363 7940.698 3386.513 7598.561 1388.704 5846.796 4403.606 11457.897 1241.488 6793.046 1336.305 3243.809 12257.214
8432.587 6451.870 2805.435 2805.189 6454.731 6019.441 8024.684 3003.266 11124.686 7497.663 15728.329 7921.231 7530.128 7846.868 10189.390 4939.500 9023.856 12557.774 7558.622 10507.291 12807.112 14403.759 11850.979 7560.596 7185.113 9593.626 7080.304 10510.936 6162.628 5470.163 10952.356 8114.649 1926.459 11815.437 6056.178 11120.919 10785.317 15654.604 12087.477 5163.202 13967.890 6969.530 6988.458 8335.014 11174.969 7574.771 7580.734 12490.304 12042.429 16128.814 8673.318 13589.991 7944.758 7307.914 16433.251 4867.666 13401.337 5189.534 6625.287 5407.060 11484.630 3353.405 4346.588 2063.587 7945.340 12151.404 13013.475 10047.005 4624.866 13486.889 8410.132 15547.294 14904.222 4216.573 5282.477 5801.058 0.000 5179.933 12256.956 9058.252 3877.430 5939.535 7056.392 16345.575 8345.820 14949.572 6906.154 4623.903 12648.305 13250.133 5464.501 11131.102 7111.340 6141.995 5938.384 15166.039 4911.891 8285.904 5017.419 4098.238 15801.514
3922.335 1335.587 2402.174 2404.257 1579.153 1684.976 4430.828 2395.222 6823.975 3257.260 11791.446 3856.731 2475.929 4068.238 5013.744 1062.575 4812.135 7445.466 3781.964 5474.148 8025.504 9240.724 6747.797 5238.174 2156.337 4414.322 4334.955 5612.545 6124.883 1079.332 6290.856 4005.430 3789.519 7365.416 4690.862 6149.182 5647.934 10588.758 7960.875 2913.373 9056.591 3294.971 4367.305 3366.701 7259.011 3281.416 3287.508 9311.093 7035.569 11013.199 4721.429 8630.928 3657.875 5365.862 12681.143 3432.686 8413.158 1386.495 4362.788 1633.396 6578.166 4940.839 939.144 3977.149 3009.529 8201.801 7870.622 4872.871 1962.172 8380.245 4099.303 11871.338 9797.997 1836.277 2708.825 1067.764 5179.933 0.000 7683.601 6249.976 1347.572 2723.692 3527.390 12478.890 3194.219 9840.447 4616.599 610.534 7517.727 8173.391 3988.715 7153.094 2002.179 4815.689 3416.706 11125.288 268.757 5913.060 1830.494 2186.857 11890.398
3851.107 6411.516 9843.163 9848.387 7490.634 6315.676 4503.668 9992.308 1378.040 4759.979 4571.771 4362.495 5312.015 4537.412 4960.842 7439.647 3273.729 3151.641 4789.309 2924.692 1035.042 4666.246 3010.632 5975.881 5576.583 4960.309 5781.457 2354.821 8820.700 6948.327 1401.527 4167.464 11337.876 599.937 7386.433 2268.214 5556.966 4428.485 1562.846 7257.994 2318.531 5347.975 5931.855 6800.341 2231.061 4685.289 4679.239 4381.488 2207.483 5201.324 3730.723 2307.026 4312.255 6481.672 5631.212 10811.615 2379.935 7121.175 6405.107 8762.925 1764.425 10175.766 8607.117 10384.833 4710.082 2120.927 3663.624 4402.495 7632.402 3378.601 3847.479 5049.670 4192.767 9480.745 7072.103 7851.701 12256.956 7683.601 0.000 4898.590 8937.718 9478.104 5321.633 5287.930 5915.096 4252.566 6256.916 8279.440 3392.374 2984.992 11165.368 2091.267 6705.676 7401.346 6620.819 3828.794 7891.037 5713.560 9184.690 8163.096 4697.084
3516.011 5606.092 7450.809 7458.821 7098.816 4585.395 1980.888 7812.095 3534.779 3355.113 6873.769 2813.293 5166.963 2390.526 7218.389 5393.876 2747.510 7276.780 2599.944 5590.993 5881.576 9192.697 6749.383 1521.350 5134.553 6783.022 2071.106 4980.975 4132.984 5174.723 4371.277 2795.105 8851.898 4298.989 3122.938 5578.153 8105.169 9313.114 3841.290 4046.713 7208.137 2973.183 2121.214 7677.033 2830.430 3401.316 3397.827 3432.092 6276.413 10064.425 2272.063 7118.444 3205.256 1903.539 7450.931 9646.495 7112.399 4988.617 2435.284 7847.197 5490.901 6180.481 6884.534 6997.174 4711.071 3623.574 7881.870 6605.769 4958.433 7886.320 3082.022 6550.679 8977.214 7937.707 4040.404 7041.477 9058.252 6249.976 4898.590 0.000 6970.916 8894.841 2728.976 7423.701 6779.578 9036.743 2152.100 6638.625 7500.706 7497.318 10233.583 2904.191 6678.780 3076.295 3244.733 6427.860 6303.945 914.649 8080.310 5318.193 6925.543
5116.450 2678.039 1073.690 1074.567 2611.495 2693.129 5332.387 1062.064 8001.231 4336.530 12914.320 4897.640 3811.673 5017.380 6319.347 1625.479 5931.287 8792.941 4715.981 6815.308 9327.710 10579.457 8095.352 5754.463 3483.233 5730.590 4932.391 6930.279 5997.518 2026.036 7557.608 5067.567 2448.384 8586.945 4842.490 7482.290 6908.612 11935.688 9103.280 3126.397 10384.971 4159.377 4923.181 4495.034 8335.151 4381.285 4387.579 10211.949 8375.340 12360.142 5754.612 9966.014 4769.521 5766.239 13763.506 2819.971 9751.980 2024.285 4791.073 1855.041 7900.717 4233.619 472.747 2959.326 4319.514 9299.263 9215.419 6207.674 2086.055 9727.765 5232.566 12929.577 11145.438 1097.810 3023.618 1962.031 3877.430 1347.572 8937.718 6970.916 0.000 2805.120 4352.628 13588.344 4468.962 11187.801 5076.754 754.305 8864.188 9520.380 3491.917 8245.174 3234.322 4967.478 3834.154 12269.876 1093.185 6483.187 1685.603 1956.442 13007.493
6104.439 3380.330 3493.948 3488.584 2007.672 4316.435 6993.649 3081.655 8893.356 5692.361 13881.856 6303.834 4265.781 6602.884 5475.442 3753.530 7092.398 8359.344 6341.063 6788.608 9568.390 9800.674 7745.060 7954.648 4093.497 5047.487 7042.964 7171.841 8704.311 3786.077 8092.510 6417.192 4044.621 9288.461 7374.238 7529.002 5725.797 11494.510 10079.046 5591.501 10353.628 5921.770 7082.389 3173.888 9526.997 5686.505 5691.857 11781.728 8271.215 11745.472 7137.714 9864.408 6018.500 8089.543 14846.352 1589.103 9600.917 4106.399 7086.436 1095.798 8037.947 7027.102 2512.417 5642.022 4891.301 10407.965 8625.493 5656.871 4576.771 9258.236 6394.361 14091.295 10609.814 1859.682 5408.353 1860.667 5939.535 2723.692 9478.104 8894.841 2805.120 0.000 6168.400 14590.295 3750.347 10640.209 7339.664 2570.277 8352.986 9159.218 1715.599 9395.518 2772.555 7500.094 6138.084 13174.484 2765.463 8616.160 1119.859 4635.704 13992.405
1878.795 2933.609 4986.613 4993.769 4418.595 1856.442 1001.471 5281.701 4096.488 1042.019 8727.352 1020.441 2754.290 795.973 5420.347 2734.412 2050.821 6525.358 534.083 4453.022 6030.946 8536.660 5855.049 1993.504 2616.516 4863.352 1100.381 4116.853 4181.631 2459.006 4158.632 1202.876 6462.758 4825.879 2478.976 4802.549 6308.085 9253.401 5031.419 1942.216 7312.332 257.626 1223.299 5260.122 4138.319 1140.949 1142.279 5859.451 5707.753 9881.173 1625.091 7036.122 1282.799 2333.615 9506.659 6942.789 6917.918 2330.323 1553.983 5118.235 4986.040 4885.115 4210.788 5101.874 2503.609 5118.018 7101.647 4907.073 2514.625 7349.330 1615.260 8648.245 8675.461 5257.819 1780.068 4319.655 7056.392 3527.390 5321.633 2728.976 4352.628 6168.400 0.000 9372.309 4459.885 8730.176 1629.184 3945.356 6698.616 7017.175 7515.519 4083.136 4093.490 2551.893 1328.392 8134.475 3595.856 2522.592 5357.516 2992.199 8809.191
8573.629 11332.058 14336.533 14343.271 12582.766 10897.387 8373.771 14589.055 5701.954 9255.222 717.342 8692.321 10330.955 8622.402 10226.158 11979.106 7670.562 7927.891 8925.235 8212.386 5670.543 8564.591 8061.901 8939.058 10536.551 10248.167 9275.139 7625.481 11388.748 11566.764 6572.484 8520.784 15825.985 5339.453 10545.520 7538.327 10752.789 7060.661 4528.656 11189.735 5870.668 9512.619 9377.704 12070.411 5257.792 9216.570 9210.324 4207.476 7245.784 7802.864 7843.076 6313.811 8831.765 9319.412 491.016 15805.897 6582.772 11600.459 9778.876 13770.299 7015.054 13602.845 13341.342 14312.052 9705.595 4289.092 8235.061 9685.053 11886.916 7653.464 8381.028 1030.759 7538.336 14315.163 11095.924 12852.723 16345.575 12478.890 5287.930 7423.701 13588.344 14590.295 9372.309 0.000 11164.700 7579.977 9520.655 13029.697 8128.681 7374.236 16231.263 5343.193 11843.599 10499.958 10407.315 1459.846 12641.775 8306.820 14152.109 12355.622 598.787
3316.180 2137.226 5542.395 5543.072 2020.006 3276.404 4830.022 5425.931 5596.223 3509.560 10447.804 3977.469 1706.624 4432.744 1873.284 3818.394 4274.444 4633.028 4301.259 3084.043 5878.100 6221.262 4000.519 6443.389 1900.668 1338.088 5558.847 3561.065 8351.328 3367.856 4592.677 3984.475 6791.976 5828.451 6670.025 3824.296 2453.958 7792.204 6775.368 5192.395 6606.143 4219.813 5673.389 954.165 6447.081 3438.593 3440.589 8948.924 4526.140 8103.166 4574.889 6114.540 3577.408 6791.084 11470.028 5263.039 5850.577 3835.966 5927.027 3357.387 4347.872 7889.715 4002.470 7135.200 2068.942 7195.734 4947.452 1921.140 4645.534 5548.323 3733.447 10788.612 6930.451 4430.451 4918.605 2627.469 8345.820 3194.219 5915.096 6779.578 4468.962 3750.347 4459.885 11164.700 0.000 6965.158 6063.131 3722.799 4646.073 5425.096 5464.437 6286.267 1246.471 6774.657 5245.146 9715.759 3461.777 6879.406 3833.550 5076.822 10567.292
6888.889 8520.564 12234.292 12236.997 8973.266 9012.675 8174.171 12222.653 5530.849 7855.556 7011.730 7711.902 7420.086 8055.215 5164.769 10028.624 6825.396 2395.555 8221.173 4466.262 3218.254 1154.310 3099.144 9899.347 7764.565 5628.384 9487.495 4627.526 12694.211 9495.758 4740.929 7537.919 13616.909 4831.089 11104.640 3950.135 5058.279 917.213 5730.962 10501.622 2043.485 8658.313 9645.800 7474.178 6482.962 7755.663 7751.169 8433.081 3026.300 1180.785 7390.510 1946.231 7480.796 10408.446 8055.987 12199.201 1924.353 9831.258 10105.618 10320.684 3752.249 13540.095 10756.756 13352.824 7026.538 6248.574 2018.896 5056.475 10535.592 1462.860 7115.364 7892.907 59.903 11352.198 10260.506 9542.952 14949.572 9840.447 4252.566 9036.743 11187.801 10640.209 8730.176 7579.977 6965.158 0.000 10027.099 10439.931 2332.590 1728.502 12322.531 6338.832 8161.352 11147.148 10047.188 6378.570 10099.337 9775.733 10795.994 11071.303 7143.757
3387.478 4360.112 5416.996 5425.369 5786.574 3129.126 1853.948 5815.796 4907.549 2662.747 8941.268 2468.237 4357.464 2033.139 7040.527 3623.465 3202.216 7938.183 1968.643 5935.568 7107.031 9945.177 7298.874 693.888 4186.343 6489.867 566.516 5507.166 2677.729 3560.587 5313.043 2598.419 6765.310 5693.529 1132.683 6186.642 7931.195 10465.894 5578.079 1990.174 8434.389 1851.390 416.359 6827.435 4574.531 2757.691 2758.305 5584.160 7046.991 11145.405 2637.765 8227.138 2825.179 764.503 9572.452 7857.478 8149.297 3243.818 296.661 6249.618 6284.160 4113.897 5077.375 4845.279 4132.770 5499.185 8531.103 6513.408 2995.424 8707.068 3033.101 8676.902 9970.112 6117.161 2054.114 5564.175 6906.154 4616.599 6256.916 2152.100 5076.754 7339.664 1629.184 9520.655 6063.131 10027.099 0.000 4882.191 8129.029 8351.309 8491.584 4584.460 5584.756 1144.838 1243.584 8443.883 4602.802 1443.655 6397.056 3270.822 9002.146
4495.196 1945.519 1825.324 1826.584 1926.543 2160.520 4888.134 1787.310 7395.002 3782.745 12346.676 4369.466 3086.424 4543.736 5567.725 1262.585 5359.146 8045.818 4249.308 6083.404 8632.980 9825.680 7350.091 5533.228 2766.361 4977.204 4659.198 6222.169 6138.311 1501.051 6889.635 4527.492 3182.520 7951.398 4818.783 6759.651 6168.240 11193.286 8520.739 3041.363 9667.121 3728.070 4673.363 3794.474 7793.989 3815.512 3821.718 9780.657 7645.103 11611.074 5234.446 9241.194 4198.432 5610.550 13222.401 3008.752 9022.851 1659.026 4611.814 1494.733 7188.365 4681.052 329.670 3565.357 3617.137 8745.714 8463.998 5453.562 2011.375 8980.893 4649.849 12403.458 10397.962 1316.793 2878.935 1301.131 4623.903 610.534 8279.440 6638.625 754.305 2570.277 3945.356 13029.697 3722.799 10439.931 4882.191 0.000 8114.485 8777.929 3616.551 7693.896 2495.720 4944.886 3649.037 11687.744 390.716 6235.410 1529.384 2082.018 12443.649
4820.807 6204.875 9915.696 9918.206 6646.375 6767.050 6292.432 9894.853 4279.477 5749.149 7455.510 5704.879 5121.363 6102.474 2895.809 7748.130 4975.034 243.294 6221.614 2266.748 2564.916 1843.137 846.888 8110.801 5467.900 3314.588 7569.387 2624.247 10804.235 7216.454 3162.327 5549.978 11288.308 3808.999 9148.400 1956.338 2974.970 3146.681 4935.215 8359.488 2409.416 6591.370 7726.801 5208.582 5376.001 5646.045 5642.267 7753.358 1269.085 3497.097 5551.229 1894.283 5418.810 8607.349 8552.224 9897.966 1599.839 7573.001 8164.957 7996.487 2025.462 11391.706 8429.594 11103.192 4769.219 5497.087 403.194 2729.518 8303.737 905.252 5114.416 8147.080 2294.024 9020.097 8106.373 7211.363 12648.305 7517.727 3392.374 7500.706 8864.188 8352.986 6698.616 8128.681 4646.073 2332.590 8129.029 8114.485 0.000 885.063 10049.485 5202.041 5831.555 9205.598 7980.394 6727.134 7778.379 8118.705 8470.943 8832.873 7590.494
5166.346 6844.525 10556.376 10559.386 7398.808 7292.286 6497.679 10564.659 4087.904 6130.010 6718.400 6001.646 5728.721 6358.502 3738.191 8319.905 5151.672 807.487 6513.796 2748.139 2018.873 1713.614 1438.942 8260.197 6070.462 4111.819 7804.337 2905.082 11026.086 7787.115 3133.847 5831.235 11960.078 3491.485 9413.844 2224.211 3859.187 2415.386 4546.338 8774.527 1557.881 6938.863 7962.776 6039.106 5132.876 6029.716 6025.285 7357.414 1310.354 2904.266 5723.507 1066.027 5760.229 8766.287 7811.818 10687.962 791.832 8113.665 8417.385 8753.135 2069.299 11813.301 9098.876 11630.704 5313.080 5100.912 866.095 3505.362 8811.152 399.017 5404.620 7460.439 1677.339 9740.937 8532.602 7940.698 13250.133 8173.391 2984.992 7497.318 9520.380 9159.218 7017.175 7374.236 5425.096 1728.502 8351.309 8777.929 885.063 0.000 10864.039 4970.365 6575.665 9460.598 8329.434 6004.410 8428.400 8187.512 9224.426 9347.781 6853.883
7689.974 4925.536 3703.787 3695.797 3674.876 5670.918 8412.080 3204.928 10529.309 7179.277 15526.906 7790.172 5902.874 8040.126 7161.748 4879.021 8655.636 10062.016 7760.263 8502.186 11278.180 11455.104 9454.895 9148.296 5697.399 6752.904 8275.049 8873.884 9451.087 5059.261 9773.380 7921.574 3567.533 10955.884 8331.947 9242.064 7353.389 13185.345 11707.714 6593.430 12068.949 7283.635 8289.855 4848.532 11107.626 7187.148 7192.886 13272.839 9986.722 13414.575 8644.848 11578.949 7541.589 9209.259 16473.056 702.232 11314.542 5274.401 8216.382 2476.899 9748.927 7354.639 3416.263 5784.301 6527.176 12012.497 10312.828 7365.626 5545.966 10954.358 7946.371 15699.886 12293.649 2399.813 6462.077 3386.513 5464.501 3988.715 11165.368 10233.583 3491.917 1715.599 7515.519 16231.263 5464.437 12322.531 8491.584 3616.551 10049.485 10864.039 0.000 10984.549 4469.106 8457.245 7252.273 14827.835 3931.930 9851.885 2162.402 5447.393 15634.781
3295.640 6059.519 9005.228 9011.785 7399.540 5554.853 3106.695 9248.081 931.650 3913.997 4673.722 3349.722 5144.073 3307.753 5934.105 6637.093 2342.487 4960.295 3607.231 3900.219 3121.559 6680.564 4610.857 4169.445 5302.503 5716.952 4202.708 3190.352 6976.186 6224.414 2159.588 3177.607 10500.052 1508.272 5706.426 3538.303 6708.544 6508.952 993.814 5976.496 4401.066 4199.767 4334.102 7238.266 182.518 3878.395 3872.186 2763.896 3934.431 7289.428 2507.133 4392.696 3496.554 4651.934 5528.875 10521.809 4443.335 6261.180 4789.003 8508.974 3229.002 8669.842 8002.785 9143.623 4525.381 1054.103 5533.856 5302.140 6585.248 5369.378 3056.525 4722.928 6278.958 8987.980 5848.770 7598.561 11131.102 7153.094 2091.267 2904.191 8245.174 9395.518 4083.136 5343.193 6286.267 6338.832 4584.460 7693.896 5202.041 4970.365 10984.549 0.000 6725.677 5697.473 5234.594 4056.054 7307.554 3777.634 8867.346 7074.333 4764.063
3489.622 1252.965 4306.071 4306.463 827.686 2522.610 4699.604 4179.910 6162.386 3325.554 11132.220 3898.372 1602.468 4289.989 3117.963 2772.981 4496.443 5799.266 4085.892 4058.685 6815.423 7451.861 5138.271 6070.009 1550.270 2561.191 5145.012 4404.858 7622.296 2403.926 5322.127 3965.626 5545.920 6525.225 6007.785 4792.999 3674.310 8968.381 7352.656 4373.586 7663.115 3836.763 5233.251 1414.025 6868.659 3286.552 3290.575 9241.903 5582.076 9311.215 4651.400 7190.737 3544.811 6343.490 12112.800 4174.819 6940.815 2880.995 5399.208 2180.854 5290.369 6850.944 2764.857 5977.090 2204.399 7710.567 6150.078 3105.499 3664.856 6726.407 3840.619 11378.104 8124.385 3198.588 4112.365 1388.704 7111.340 2002.179 6705.676 6678.780 3234.322 2772.555 4093.490 11843.599 1246.471 8161.352 5584.756 2495.720 5831.555 6575.665 4469.106 6725.677 0.000 6122.620 4590.980 10418.558 2263.990 6611.270 2649.501 4035.199 11245.007
4410.512 4869.828 5078.201 5086.972 6179.940 3600.014 2976.713 5529.764 6049.453 3583.139 9946.417 3504.750 5100.224 3107.426 7932.570 3757.520 4323.860 9021.635 2989.276 6983.094 8250.121 11032.680 8368.293 1570.925 4874.083 7355.360 1660.363 6593.111 1631.398 3856.572 6447.168 3655.652 6283.780 6836.440 126.128 7276.805 8809.031 11600.438 6688.952 1908.797 9575.950 2718.922 1502.395 7453.489 5677.284 3684.981 3686.894 6449.244 8152.656 12272.682 3767.544 9362.354 3823.879 1195.418 10521.609 7787.117 9279.063 3443.597 1043.481 6406.481 7398.042 3107.734 5074.462 4090.428 4982.334 6580.149 9608.602 7442.408 2936.291 9810.300 4091.451 9619.502 11090.589 6057.662 2108.638 5846.796 6141.995 4815.689 7401.346 3076.295 4967.478 7500.094 2551.893 10499.958 6774.657 11147.148 1144.838 4944.886 9205.598 9460.598 8457.245 5697.473 6122.620 0.000 1537.487 9481.143 4737.987 2209.331 6470.968 3022.681 10000.096
3167.914 3339.397 4215.363 4223.531 4687.135 2069.982 2152.759 4596.324 5356.598 2235.985 9791.430 2347.017 3586.000 2085.992 6474.678 2397.146 3364.232 7815.196 1857.742 5720.044 7353.729 9822.548 7134.090 1921.845 3346.269 5883.142 1178.469 5424.985 3112.301 2391.737 5484.679 2531.176 5607.400 6107.142 1427.925 6108.982 7337.488 10579.924 6212.560 804.737 8639.642 1391.960 1126.376 5916.024 5263.618 2339.854 2343.217 6637.116 7021.975 11202.200 2893.385 8364.328 2570.858 1961.720 10500.441 6615.057 8244.482 2031.685 964.110 5043.747 6308.849 3562.362 3836.615 3917.496 3523.188 6232.876 8382.450 6017.378 1757.122 8655.070 2938.468 9619.096 9992.931 4874.202 815.881 4403.606 5938.384 3416.706 6620.819 3244.733 3834.154 6138.084 1328.392 10407.315 5245.146 10047.188 1243.584 3649.037 7980.394 8329.434 7252.273 5234.594 4590.980 1537.487 0.000 9239.595 3383.569 2658.757 5170.678 2074.821 9863.646
7205.848 9948.634 13055.577 13062.015 11168.411 9577.020 7147.761 13286.492 4310.808 7934.186 746.994 7391.661 8924.989 7363.474 8767.530 10675.071 6338.616 6519.186 7663.262 6752.928 4232.518 7294.852 6622.822 7910.219 9142.294 8788.767 8144.648 6170.230 10509.781 10244.034 5126.489 7213.039 14552.544 3898.959 9514.247 6078.788 9302.633 5964.795 3167.676 10003.265 4546.624 8255.657 8259.470 10617.018 3996.454 7888.702 7882.412 3576.535 5803.391 6749.960 6560.767 4957.195 7500.814 8329.336 1835.266 14418.250 5213.587 10305.899 8684.952 12376.159 5556.195 12555.716 12004.043 13157.052 8301.161 3017.136 6856.507 8225.220 10640.812 6305.078 7041.033 1515.326 6332.103 12959.721 9889.162 11457.897 15166.039 11125.288 3828.794 6427.860 12269.876 13174.484 8134.475 1459.846 9715.759 6378.570 8443.883 11687.744 6727.134 6004.410 14827.835 4056.054 10418.558 9481.143 9239.595 0.000 11298.055 7336.335 12767.395 11126.674 877.327
4104.505 1584.946 2138.440 2140.719 1801.128 1786.461 4525.136 2149.274 7004.458 3398.571 11957.998 3988.782 2719.440 4174.232 5282.479 989.232 4971.276 7704.001 3882.227 5722.289 8252.248 9505.628 7004.996 5240.304 2393.530 4682.785 4351.178 5846.107 6000.768 1138.550 6502.425 4144.552 3540.614 7561.086 4612.360 6391.516 5915.238 10843.583 8131.262 2829.356 9296.325 3372.429 4373.912 3617.145 7408.900 3429.526 3435.712 9415.315 7282.620 11272.983 4854.139 8874.704 3811.381 5342.780 12836.343 3346.977 8659.524 1359.332 4340.255 1670.000 6814.443 4721.910 716.124 3721.287 3237.801 8358.856 8132.816 5139.170 1837.074 8638.480 4261.254 12019.423 10056.579 1689.442 2642.911 1241.488 4911.891 268.757 7891.037 6303.945 1093.185 2765.463 3595.856 12641.775 3461.777 10099.337 4602.802 390.716 7778.379 8428.400 3931.930 7307.554 2263.990 4737.987 3383.569 11298.055 0.000 5930.206 1797.534 2006.128 12055.292
3774.019 5453.894 6858.375 6866.710 6933.050 4314.601 2090.848 7251.511 4337.239 3371.403 7769.908 2935.754 5200.349 2462.322 7542.481 4973.275 3196.221 7903.906 2579.034 6089.278 6668.875 9860.961 7334.333 750.258 5107.324 7056.711 1579.215 5533.813 3221.845 4836.174 5054.978 2978.518 8207.706 5117.660 2269.426 6169.372 8439.342 10097.950 4733.670 3429.557 8003.783 2780.218 1564.361 7729.131 3716.746 3440.816 3438.843 4241.494 6930.134 10832.408 2644.897 7881.562 3342.544 1016.100 8317.480 9234.316 7854.953 4577.957 1740.309 7540.479 6143.039 5315.810 6452.192 6222.557 4830.354 4534.051 8509.536 6955.677 4415.169 8568.723 3347.963 7414.404 9716.686 7501.075 3474.609 6793.046 8285.904 5913.060 5713.560 914.649 6483.187 8616.160 2522.592 8306.820 6879.406 9775.733 1443.655 6235.410 8118.705 8187.512 9851.885 3777.634 6611.270 2209.331 2658.757 7336.335 5930.206 0.000 7726.773 4711.826 7818.407
5583.057 2820.134 2422.687 2418.146 1825.976 3509.345 6249.685 2055.294 8457.410 5026.891 13453.890 5636.106 3873.807 5878.519 5683.398 2774.431 6528.995 8445.053 5597.964 6680.485 9394.216 10045.768 7787.534 7037.679 3629.291 5171.613 6147.578 6963.054 7620.735 2906.818 7783.619 5772.017 3198.771 8930.289 6344.841 7405.096 6091.181 11612.732 9623.457 4569.988 10296.160 5123.532 6171.421 3516.524 8984.541 5038.661 5044.501 11114.379 8220.081 11936.684 6494.433 9830.805 5399.772 7132.184 14377.935 1655.052 9584.769 3155.810 6131.160 476.703 7885.738 5909.010 1417.845 4548.029 4485.548 9904.650 8779.675 5741.454 3534.945 9369.277 5816.327 13589.441 10760.419 808.105 4407.645 1336.305 5017.419 1830.494 9184.690 8080.310 1685.603 1119.859 5357.516 14152.109 3833.550 10795.994 6397.056 1529.384 8470.943 9224.426 2162.402 8867.346 2649.501 6470.968 5170.678 12767.395 1797.534 7726.773 0.000 3548.407 13558.227
4361.241 2942.060 2146.551 2154.884 3756.844 2065.947 3983.969 2552.343 7029.282 3409.036 11716.326 3823.532 3790.394 3770.285 6723.141 1265.502 4926.087 8712.010 3475.842 6606.017 8743.728 10648.669 8002.945 3964.114 3451.219 6101.551 3247.990 6516.846 4072.376 1720.948 6876.047 4016.685 3538.808 7717.248 2898.867 7158.673 7475.612 11718.501 8014.300 1282.681 9941.068 2883.272 3201.152 5447.232 7130.458 3490.212 3496.030 8692.070 8090.952 12250.759 4590.429 9590.013 3853.269 3901.786 12477.023 4770.134 9420.874 1285.059 2975.205 3575.033 7479.318 2819.419 2130.630 2285.058 4064.144 8110.126 9218.503 6429.637 541.109 9620.110 4315.666 11608.339 11022.176 3053.532 1286.240 3243.809 4098.238 2186.857 8163.096 5318.193 1956.442 4635.704 2992.199 12355.622 5076.822 11071.303 3270.822 2082.018 8832.873 9347.781 5447.393 7074.333 4035.199 3022.681 2074.821 11126.674 2006.128 4711.826 3548.407 0.000 11796.508
7981.676 10738.096 13764.740 13771.405 11984.943 10315.428 7812.787 14012.086 5105.660 8672.505 135.508 8113.748 9733.847 8053.487 9642.404 11401.151 7084.811 7385.246 8355.813 7621.764 5107.630 8096.943 7498.567 8434.010 9940.905 9657.221 8740.815 7030.532 10934.510 10984.487 5974.822 7940.552 15256.408 4741.233 10041.893 6952.304 10179.959 6671.478 3935.376 10641.452 5372.460 8944.822 8846.984 11474.283 4683.913 8632.403 8626.146 3805.252 6679.745 7434.770 7268.036 5799.595 8246.800 8826.796 962.174 15211.662 6062.124 11024.592 9255.644 13174.953 6431.022 13096.964 12756.324 13774.286 9108.600 3710.506 7710.353 9097.028 11323.121 7144.897 7794.064 920.764 7099.781 13726.577 10542.072 12257.214 15801.514 11890.398 4697.084 6925.543 13007.493 13992.405 8809.191 598.787 10567.292 7143.757 9002.146 12443.649 7590.494 6853.883 15634.781 4764.063 11245.007 10000.096 9863.646 877.327 12055.292 7818.407 13558.227 11796.508 0.000
NODE_COORD_SECTION
1 -500.874011 70.822412
2 1765.514132 -1516.754975
3 5421.419314 -862.630175
4 5425.632081 -870.388324
5 2368.942260 -2882.148912
6 1942.252716 -259.146961
7 3.726492 1686.028259
8 5492.661943 -1358.443059
9 -3170.335679 1208.181430
10 427.546443 378.470596
11 -7424.593878 3832.980366
12 15.546548 831.634329
13 625.043985 -1443.936259
14 129.284579 1295.992533
15 -1455.370222 -3575.633578
16 3054.903763 -421.166858
17 -1085.502978 890.557320
18 -4247.218823 -2684.223160
19 405.623620 1170.541794
20 -2369.080557 -1702.180044
21 -4855.044263 -426.653053
22 -5801.111622 -3962.533821
23 -3577.675184 -2448.411566
24 936.430485 3287.415951
25 950.298089 -1322.452597
26 -972.765610 -3183.747025
27 1125.327557 2375.983164
28 -2491.325743 -1002.892004
29 3443.146856 4632.544919
30 2540.465435 -560.188648
31 -3018.841262 -24.511177
32 -178.921510 816.757659
33 6880.775800 -1215.839224
34 -3881.318686 862.709417
35 2540.408512 3174.528485
36 -3048.006254 -1403.772191
37 -1713.936730 -4435.507330
38 -7416.631060 -2710.850656
39 -4055.725739 2004.587426
40 2863.314725 1420.932872
41 -5951.277743 -1192.719749
42 985.125156 1043.370718
43 1250.406537 2473.238437
44 826.488729 -3965.251059
45 -3084.761864 2316.414533
46 350.993129 308.048946
47 345.005668 310.016937
48 -3761.612940 4810.538531
49 -3931.401456 -1704.612674
50 -7731.797614 -3469.774995
51 -699.643625 1318.943576
52 -5530.231716 -1504.932063
53 -19.553827 426.239937
54 1348.288159 3588.895085
55 -7903.387524 4819.795894
56 5576.422923 -3860.563977
57 -5309.594776 -1703.427879
58 2763.884527 -137.785227
59 1691.162412 2646.070891
60 3718.898802 -2994.632577
61 -3464.561024 -1070.398174
62 5574.261769 2794.302961
63 4037.949760 -1541.874541
64 6026.457817 1211.212863
65 118.726978 -1076.198033
66 -4032.170074 2565.967668
67 -4582.846471 -3188.713113
68 -1547.836071 -2944.356578
69 3300.778292 469.185335
70 -5174.530455 -2805.479115
71 -484.341085 505.206823
72 -7001.297045 4752.544281
73 -6566.014684 -3081.499276
74 4723.860469 -2341.335181
75 2702.663009 1196.670088
76 2923.523157 -2535.722469
77 7925.169555 402.951751
78 3100.668251 -1482.755604
79 -4331.622805 466.286947
80 -555.248893 3586.413316
81 4433.303764 -1282.674141
82 3999.135866 -4053.991300
83 925.254780 1293.943670
84 -7941.588572 4330.268567
85 364.263267 -3130.518605
86 -6600.894780 -3130.199986
87 1460.543491 2832.678627
88 3710.960486 -1499.920690
89 -4277.290313 -2925.651841
90 -5016.586314 -2439.052954
91 5638.397644 -4560.056124
92 -3070.434479 2134.460203
93 1551.658887 -2751.334396
94 2507.330326 3296.241321
95 2153.465210 1800.030869
96 -6973.630771 3237.470661
97 3343.406506 -1367.394210
98 344.859075 3748.859561
99 4193.614312 -2951.148220
100 3830.699658 578.651378
101 -7470.685778 3960.408146
DEMAND_SECTION
1 0
2 93
3 3
4 3
5 10
6 8
7 7
8 8
9 5
10 9
11 5
12 10
13 9
14 2
15 4
16 5
17 2
18 94
19 2
20 2
21 5
22 7
23 3
24 3
25 6
26 3
27 10
28 1
29 8
30 4
31 63
32 77
33 95
34 10
35 9
36 9
37 4
38 10
39 6
40 3
41 9
42 8
43 4
44 3
45 1
46 3
47 1
48 8
49 9
50 5
51 2
52 2
53 3
54 3
55 1
56 3
57 8
58 7
59 6
60 4
61 6
62 8
63 1
64 5
65 3
66 10
67 6
68 1
69 10
70 8
71 4
72 10
73 4
74 2
75 10
76 4
77 6
78 90
79 1
80 1
81 2
82 4
83 2
84 5
85 62
86 10
87 9
88 77
89 8
90 9
91 2
92 9
93 5
94 87
95 50
96 9
97 4
98 6
99 3
100 7
101 5
DEPOT_SECTION
1
-1
EOF
