NAME : mamut-san_francisco-n50-poi
COMMENT : Mamut2026 shortest metric; city san_francisco; 3-decimal seconds/meters; ENU ref in mamut-san_francisco-n50-poi.vrp.json
TYPE : CVRP
DIMENSION : 51
EDGE_WEIGHT_TYPE : EXPLICIT
EDGE_WEIGHT_FORMAT : FULL_MATRIX
CAPACITY : 176
EDGE_WEIGHT_SECTION
0.000 1098.647 1925.827 1255.347 1918.000 14623.645 3932.487 18466.108 9777.090 5749.131 23515.705 5118.339 2942.474 6074.434 1215.375 6940.122 813.712 17554.099 2541.834 12329.669 4483.595 2714.369 1187.859 2841.949 2751.582 24816.061 11660.858 2453.542 2753.404 1423.463 2413.250 639.533 1445.801 2897.437 2569.969 985.037 4997.741 5064.648 20495.887 15710.884 2802.909 18376.457 3144.123 2803.260 1257.611 12673.832 995.753 15037.932 18904.494 24054.778 8124.501
1564.934 0.000 2552.821 1653.865 1360.501 15136.782 4437.133 17531.717 10591.899 6795.081 24368.977 6164.288 3757.283 6889.243 1386.801 7179.487 1791.131 17793.463 1607.442 12842.806 5298.404 3232.805 1203.745 1911.794 2493.809 25669.333 12173.995 1896.043 1826.888 2238.272 1855.751 1700.158 1454.710 3523.336 3195.868 1156.464 6043.690 6110.598 19561.496 16224.021 1868.518 17442.066 3599.080 3781.533 1656.129 13186.969 1973.172 14103.540 17970.102 24908.049 8939.310
1705.611 2486.014 0.000 2692.431 3305.367 12724.906 2261.590 19422.109 8041.507 5925.439 23720.788 5294.647 1637.230 4517.808 1816.385 5951.529 2482.390 16552.748 3808.261 10430.931 2748.012 788.542 2205.259 4112.612 4188.666 25021.144 9762.119 3840.909 3417.915 934.697 3800.617 1758.151 2833.168 971.610 644.142 1813.783 5174.048 5240.956 21451.888 13812.146 3825.480 19332.458 4577.417 3008.342 2694.695 10775.094 2114.412 15993.932 19860.494 24259.860 6388.918
1458.728 669.182 2658.324 0.000 976.562 15356.141 4664.984 17671.565 10509.587 5936.375 23456.765 5305.582 3674.971 6806.931 1703.555 7496.830 932.425 18110.807 1743.053 13062.166 5216.092 3446.866 1647.139 2042.273 1631.351 24757.121 12393.354 1511.991 1975.400 2155.960 1201.491 1260.757 233.560 3629.934 3302.466 1473.218 5184.984 5251.891 19701.344 16443.380 2008.162 17581.914 2736.622 2744.319 506.464 13406.328 1114.466 14243.388 18109.950 23995.837 8856.997
2172.081 1179.266 3354.356 1225.020 0.000 16052.173 5361.016 17376.869 11205.619 6706.232 23228.785 5770.914 4371.003 7502.963 2381.923 8174.102 1864.605 18788.079 1099.926 13758.198 5912.124 4142.898 2197.304 1399.146 1353.617 24529.141 13089.386 755.852 1879.117 2851.992 715.560 2192.937 960.597 4325.966 3998.498 2153.743 5908.042 5966.656 19406.648 17139.412 1452.347 17287.218 2458.888 2844.921 1227.284 14102.360 2046.647 13948.692 17815.255 23767.857 9553.029
14362.015 15142.419 12720.674 15348.835 15961.772 0.000 10795.308 31602.051 6463.238 13002.999 31804.966 13294.444 12829.233 10761.456 14187.908 10323.696 15138.795 7370.300 16274.816 2583.269 10692.215 12318.945 14576.782 16579.167 16845.071 33105.322 3244.517 16497.314 15597.858 13565.063 16457.022 14414.556 15489.572 11749.064 12147.435 14280.339 13173.846 13061.174 33631.831 1418.005 16197.003 31512.400 17233.822 14987.247 15351.099 2337.851 14770.816 28173.875 32040.437 32344.038 7967.088
3666.600 4447.003 2262.810 4653.420 5266.356 10799.059 0.000 20807.746 6883.443 7763.027 25785.356 7137.807 3686.636 5697.103 3397.413 3784.942 4443.380 14386.162 5579.401 8505.084 1169.227 1747.375 3786.287 5883.752 6149.655 27085.712 7836.272 5801.899 4803.552 3134.713 5761.607 3719.140 4794.157 1293.154 1718.636 3584.924 7017.208 7084.116 22837.525 11886.298 5406.507 20718.095 6538.406 5176.617 4655.684 8849.246 4075.401 17379.569 21246.132 26324.429 5230.854
18626.592 18112.221 19262.860 18372.298 17639.435 31545.778 20771.401 0.000 27218.965 23856.738 40730.399 23182.239 20811.714 23695.266 17806.128 23039.129 18852.788 33653.105 17274.192 29251.802 21900.353 19721.271 17356.411 17570.199 18855.230 42030.755 28582.990 18257.465 17305.257 19292.703 18310.622 18761.815 18101.658 19968.879 19694.523 18077.549 23105.347 23172.255 4405.785 32633.017 16924.507 2417.107 19960.502 20440.080 18374.562 29595.965 19034.829 5348.234 2730.377 41269.471 25566.375
9705.271 10485.674 8177.504 10692.091 11305.027 7021.482 7091.847 27477.898 0.000 7138.066 25940.033 7562.485 7599.136 5198.079 9908.487 7489.676 10482.050 13952.047 11900.362 5476.622 5942.318 8123.636 10297.360 12204.713 12188.326 27240.389 4807.811 11840.569 11473.704 8867.693 11800.277 9757.811 10832.828 7759.051 7881.223 9905.885 7441.887 7329.216 29507.677 7724.312 11917.581 27388.247 12577.077 9868.641 10694.354 5820.785 10114.072 24049.721 27916.283 26479.105 2403.711
5697.819 6385.422 6028.678 5978.107 6792.844 13395.976 7935.455 23627.912 6946.666 0.000 19164.609 1105.474 4442.101 2713.211 6913.194 11191.857 5528.542 20326.541 7699.401 11820.679 6795.102 6579.925 6885.678 7998.621 7261.556 20464.965 11151.867 7270.698 7931.748 5349.852 6995.803 5339.579 6211.667 6651.627 6337.511 6668.672 985.578 863.780 25657.691 14098.806 7964.509 23538.261 7337.154 3990.192 5980.371 12164.842 5279.289 20199.736 24066.298 19703.681 5923.761
23046.514 23637.192 23435.588 23107.346 22949.242 31704.207 25497.600 40168.013 25254.897 18726.965 0.000 19192.147 21860.697 21152.515 24261.888 28861.609 22664.850 38634.773 23890.326 30159.348 24365.660 24034.855 24234.373 23807.836 21686.842 3174.317 29490.536 22327.144 24672.672 22756.761 22528.292 22680.513 23084.954 24207.013 23792.441 24020.438 19329.275 19208.256 42197.792 32407.038 24242.747 40078.362 21087.403 20462.295 23109.610 30503.510 22580.285 36739.837 40606.399 600.846 24363.066
5022.447 5710.050 5353.306 5302.734 5856.293 13637.902 7260.082 22853.798 7188.592 1034.447 19604.485 0.000 3766.728 2639.682 6237.821 10516.484 4853.169 20286.063 6831.013 11747.150 6119.730 5904.552 6210.305 7130.233 6325.005 20904.841 11078.339 6334.146 7256.375 4674.479 6059.252 4664.206 5400.502 5976.255 5662.138 5993.299 216.686 349.964 24883.577 14340.732 7097.649 22764.146 6400.603 3053.640 5304.998 12091.313 4603.916 19425.621 23292.183 20143.557 5850.233
2908.440 3688.844 1804.353 3895.260 4508.197 13212.621 3905.696 21053.253 7917.690 4297.294 22098.720 3666.502 0.000 3561.615 3384.969 7270.721 3685.220 17923.749 5128.979 10918.646 2774.772 2442.951 3773.843 5432.146 5391.496 23399.076 10249.834 5043.739 5136.865 1755.860 5003.447 2960.981 4035.997 2615.109 2200.537 3134.502 3545.904 3612.811 23083.032 14299.860 5390.055 20963.602 5754.076 2359.198 3897.524 11262.808 3317.241 17625.077 21491.639 22637.792 6180.040
5961.708 6768.936 4522.822 6975.353 7588.289 11082.120 5839.841 23823.216 4948.201 2619.853 21470.959 2532.988 3176.809 0.000 6253.805 8597.752 6708.395 17646.381 8209.072 9107.468 4699.489 4701.690 6642.679 8512.239 8471.588 22771.315 8438.657 8123.831 7819.022 4796.845 8083.539 6013.270 7116.090 4563.619 4459.276 6214.594 2412.390 2299.718 25852.995 11784.950 8262.900 23733.565 8702.801 5318.613 6977.617 9451.631 6368.806 20395.039 24261.602 22010.031 3210.551
1417.115 1459.698 1984.266 1676.493 2252.149 14333.738 3559.361 17672.293 9940.370 6662.692 24429.548 6031.899 3281.384 6413.344 0.000 5867.999 1727.554 16481.975 2499.091 12039.762 4646.875 2509.231 388.874 2761.745 3172.728 25729.904 11370.950 2787.692 1956.403 1762.373 2747.400 1553.375 1806.852 2756.839 2482.483 542.197 5911.301 5978.209 19702.072 15420.977 2009.095 17582.642 3916.668 3717.102 1678.757 12383.925 1909.595 14244.117 18110.679 24968.620 8287.781
6779.259 7404.296 5971.659 7617.035 8196.747 10346.075 3789.257 23112.722 7211.010 11286.780 29375.989 10661.560 7277.268 8875.953 5944.598 0.000 7406.995 10711.059 8443.689 8052.099 4754.292 5532.811 6333.472 8688.739 9113.270 30676.344 7383.287 8732.290 6915.438 6620.895 8691.998 6831.799 7751.450 5000.049 5425.530 6221.637 10540.962 10607.870 25142.501 11433.314 7953.693 23023.071 9651.065 8784.323 7619.299 8396.262 7188.060 19684.545 23551.107 29915.061 6973.211
1029.834 1118.748 2368.579 449.565 1426.127 15066.396 4375.239 18121.130 10219.842 5506.437 23205.335 4875.645 3385.225 6517.186 1658.126 7382.874 0.000 17996.850 2192.618 12772.421 4926.347 3157.121 1630.610 2491.839 1945.800 24505.691 12103.609 1951.796 2424.965 1866.215 1651.056 830.819 683.125 3340.189 3012.721 1427.789 4755.046 4821.954 20150.909 16153.635 2457.727 18031.479 2689.740 2492.889 451.829 13116.583 684.529 14692.953 18559.516 23744.407 8567.252
17414.454 18039.491 16606.854 18252.230 18549.223 7328.030 14424.452 33388.332 13222.623 19762.384 38564.351 20053.829 17912.464 17520.841 16579.793 10757.879 18042.190 0.000 18622.814 8819.742 15389.487 16168.006 16968.667 18631.891 19682.531 39864.707 9480.989 19084.766 17095.665 17256.090 19044.474 17466.995 18386.645 15635.244 16060.726 16856.833 19933.231 19820.559 35418.111 7492.803 18114.902 33298.681 20286.260 19419.518 18254.494 8306.195 17823.255 29960.155 33826.717 39103.423 14726.473
2875.801 1882.985 3782.065 2142.100 1276.589 16214.736 5440.175 16894.290 11738.169 7637.694 24365.714 6893.187 5069.335 8201.295 2321.413 8104.460 2633.744 18403.299 0.000 13920.761 6444.674 4329.954 2136.794 687.488 2490.546 25666.070 13251.949 1888.905 1406.953 3550.324 1945.938 2956.063 1871.459 4627.352 4303.207 2335.229 6886.303 6953.211 18924.070 17301.975 352.421 16804.639 3595.817 4079.223 2144.364 14264.923 2815.785 13466.114 17332.676 24904.787 10085.580
12311.703 13092.107 10670.362 13298.523 13911.460 2293.975 8744.996 29551.739 4949.768 11489.528 30291.495 11780.973 10778.921 9247.985 12137.596 8273.384 13088.483 8538.913 14224.504 0.000 8641.903 10268.633 12526.470 14528.855 14794.759 31591.851 1194.205 14447.002 13547.546 11514.751 14406.710 12364.244 13439.260 9698.752 10097.123 12230.027 11660.375 11547.703 31581.519 3381.214 14146.691 29462.088 15183.510 12936.935 13300.787 344.162 12720.504 26123.563 29990.125 30830.567 6453.617
4351.276 5131.680 2823.510 5338.096 5951.032 10722.471 1223.053 21989.916 5816.783 6695.333 24741.160 6070.113 2642.440 4629.410 4554.492 4699.679 5128.056 15300.898 6546.368 8428.496 0.000 2558.152 4943.366 6850.719 6834.331 26041.516 7759.684 6486.575 5985.722 3513.698 6446.283 4403.816 5478.833 1988.270 2337.356 4551.890 5949.515 6016.423 24019.695 11809.710 6563.587 21900.265 7223.082 4514.647 5340.360 8772.659 4760.077 18561.740 22428.302 25280.232 4164.193
2461.756 3242.160 787.794 3448.576 4061.513 12323.178 1747.375 19750.389 7988.688 6504.704 24328.485 5873.911 2229.765 4625.487 2288.165 5528.921 3238.536 16130.140 4374.557 10029.203 2504.325 0.000 2677.038 4678.908 4944.812 25628.841 9360.391 4597.055 3746.195 1722.491 4556.763 2514.297 3589.313 569.882 242.413 2380.080 5753.313 5820.221 21780.168 13410.417 4297.259 19660.738 5333.562 3709.380 3450.840 10373.365 2870.557 16322.213 20188.775 24867.557 6336.098
1528.203 1070.825 2421.229 1617.133 1863.276 14836.797 4062.421 17283.420 10377.334 6758.349 24457.247 6127.556 3713.325 6845.285 960.578 6371.058 1754.399 16985.035 2110.217 12542.822 5083.839 2969.119 0.000 2372.872 2815.769 25757.603 11874.010 2398.818 1567.529 2194.314 2358.526 1663.426 1417.978 3259.899 2942.371 979.160 6006.958 6073.866 19313.199 15924.036 1620.221 17193.768 3857.308 3744.801 1619.397 12886.984 1936.440 13855.243 17721.805 24996.319 8724.744
3023.857 2031.042 4206.132 2282.841 1276.251 16807.533 6107.884 17569.760 12057.394 7782.920 23771.287 6992.576 5222.778 8354.738 3040.598 8778.621 2778.970 18911.940 741.691 14513.557 6763.899 4903.556 2855.979 0.000 1896.118 25071.643 13844.746 1201.417 1920.116 3703.767 1351.510 3101.289 2012.201 5177.742 4850.273 2827.215 7031.529 7098.437 19599.539 17894.772 1071.606 17480.109 2971.818 4074.426 2285.105 14857.720 2961.011 14141.584 18008.146 24310.359 10404.805
2996.180 2317.855 4335.690 2030.040 1629.905 17033.508 6342.350 18848.676 12186.953 7234.044 21875.168 6298.726 5352.337 8484.297 3440.886 9234.161 2469.599 19848.138 2570.989 14739.532 6893.458 5124.232 3347.214 2488.499 0.000 23175.524 14070.721 1007.807 3353.335 3833.326 1208.955 2797.151 1765.617 5307.300 4979.832 3210.549 6435.853 6494.467 20878.455 18120.747 2923.410 18759.025 1105.271 3441.809 2032.304 15083.695 2650.766 15420.500 19287.062 22414.240 10534.364
24904.400 25495.078 25293.475 24965.233 24807.129 33562.094 27355.486 42025.900 27112.784 20584.851 3059.409 21050.034 23718.584 23010.402 26119.775 30719.496 24522.737 40492.660 25748.213 32017.235 26223.547 25892.741 26092.259 25665.723 23544.729 0.000 31348.423 24185.031 26530.558 24614.648 24386.179 24538.399 24942.841 26064.899 25650.328 25878.325 21187.161 21066.143 44055.679 34264.925 26100.634 41936.249 22945.290 22320.181 24967.497 32361.397 24438.171 38597.723 42464.286 3598.481 26220.953
11381.634 12162.038 9740.292 12368.454 12981.391 3265.658 7814.927 28621.670 4211.008 10750.769 29552.736 10932.617 9848.852 8399.628 11207.527 7343.315 12158.414 9510.596 13294.435 971.683 7711.833 9338.564 11596.401 13598.786 13864.690 30853.092 0.000 13516.933 12617.476 10584.681 13476.641 11434.175 12509.191 8768.683 9167.054 11299.958 10812.018 10699.347 30651.449 4352.897 13216.622 28532.019 14253.440 12006.866 12370.718 1315.845 11790.435 25193.494 29060.056 30091.808 5714.414
2799.748 1806.933 3982.023 1756.998 783.355 16679.840 5988.683 18002.126 11833.286 7168.931 22624.079 6233.613 4998.670 8130.630 3009.590 8801.770 2392.548 19415.746 1724.439 14385.865 6539.791 4770.565 2824.971 1480.693 748.911 23924.435 13717.053 0.000 2506.784 3479.659 395.571 2720.880 1490.175 4953.633 4626.165 2781.410 6370.740 6429.354 20031.905 17767.079 2063.085 17912.474 1854.182 3372.727 1759.261 14730.027 2574.590 14573.949 18440.511 23163.151 10180.696
2970.243 1983.175 3421.097 2521.277 2019.985 15575.685 4801.309 16524.658 11377.201 7745.984 25111.307 7115.192 4972.924 7853.502 2158.941 6858.505 2742.035 17194.680 1673.138 13281.710 5930.261 3758.177 1704.303 1773.301 3236.139 26411.663 12612.898 2638.374 0.000 3640.594 2647.238 3064.353 2250.636 3998.787 3731.429 2425.441 6994.594 7061.501 18554.437 16662.924 1165.226 16435.007 4341.410 4732.436 2523.541 13625.872 2924.076 13096.482 16963.044 25650.379 9724.612
1177.236 2089.906 799.520 2296.323 2909.259 13497.337 2908.462 19454.316 8650.782 5248.102 23043.450 4617.309 1799.909 4733.628 1786.032 6454.766 1990.352 17068.743 3530.042 11203.361 3357.287 1588.061 2174.906 3833.209 3792.558 24343.806 10534.550 3444.802 3741.612 0.000 3404.510 1229.776 2437.060 1771.129 1443.661 1535.565 4496.711 4563.619 21484.095 14584.576 3791.117 19364.665 4047.987 2331.004 2298.587 11547.524 1586.037 16026.140 19892.702 23582.522 6998.193
2654.492 1661.677 3836.767 1764.110 638.098 16534.584 5843.426 17856.869 11688.029 7176.043 22783.557 6240.725 4853.413 7985.373 2864.333 8656.513 2399.661 19270.490 1579.182 14240.608 6394.534 4625.308 2679.714 1497.391 908.389 24083.913 13571.797 310.624 2361.527 3334.402 0.000 2727.992 1497.287 4808.376 4480.908 2636.154 6377.852 6436.467 19886.648 17621.823 1931.603 17767.218 2013.660 3379.839 1766.374 14584.771 2581.702 14428.693 18295.255 23322.629 10035.440
575.561 1442.625 1930.847 1210.299 2151.267 14628.665 3937.507 18704.508 9782.110 5178.169 22877.067 4547.377 2947.494 6042.996 1790.628 6968.836 760.734 17582.812 2775.996 12334.689 4488.615 2719.389 1763.112 3075.217 2704.079 24177.423 11665.878 2686.809 3008.343 1316.347 2411.790 0.000 1443.859 2902.457 2574.989 1551.345 4426.778 4493.686 20734.287 15715.904 3041.105 18614.857 2819.266 2164.621 1212.563 12678.852 356.261 15276.331 19142.894 23416.139 8129.521
1436.659 939.823 2636.255 270.641 1247.203 15334.073 4642.915 17942.205 10487.518 5880.811 23223.205 5111.461 3652.902 6784.862 1681.486 7474.762 910.226 18088.738 2013.694 13040.097 5194.023 3424.797 1625.070 2312.914 1850.042 24523.561 12371.285 1782.632 2246.041 2133.891 1472.132 1238.558 0.000 3607.865 3280.397 1451.149 5129.420 5196.328 19971.984 16421.312 2278.802 17852.554 2593.982 2510.760 272.904 13384.260 1092.267 14514.029 18380.591 23762.277 8834.929
2677.221 3457.624 971.610 3664.041 4276.977 11753.297 1293.822 20005.224 7616.747 6572.346 24498.507 5943.265 2399.787 4568.026 2588.138 4979.919 3454.000 15581.138 4675.046 9459.321 1934.444 569.882 2977.012 4979.398 5160.276 25798.863 8790.509 4812.519 4001.030 1906.306 4772.227 2729.761 3804.778 0.000 425.481 2680.569 5822.667 5889.575 22035.003 12840.536 4597.233 19915.573 5549.027 3883.463 3666.304 9803.484 3086.022 16577.048 20443.610 25037.579 5964.158
2349.753 3130.156 644.142 3336.573 3949.509 12146.604 1719.303 19723.642 7746.274 6262.291 24086.071 5631.498 1987.351 4383.073 2261.417 5405.400 3126.532 16006.619 4347.810 9852.629 2290.642 242.413 2650.291 4652.161 4832.808 25386.427 9183.817 4485.051 3719.448 1578.838 4444.759 2402.293 3477.310 425.481 0.000 2353.332 5510.900 5577.807 21753.421 13233.843 4270.512 19633.991 5221.559 3467.033 3338.836 10196.791 2758.554 16295.465 20162.028 24625.143 6093.685
874.918 1188.981 1529.282 1395.398 1996.775 14113.243 3413.595 18167.990 9569.695 6120.495 23887.351 5489.702 2739.187 5871.148 917.257 6330.763 1185.357 16944.740 2243.716 11819.268 4276.200 2209.267 889.741 2548.067 2891.633 25187.707 11150.456 2532.317 2455.286 1220.176 2492.025 1011.179 1536.135 2499.797 2172.329 0.000 5369.104 5436.012 20197.769 15200.482 2504.792 18078.339 3515.768 3174.905 1397.662 12163.430 1367.399 14739.814 18606.376 24426.423 7917.105
4859.807 5547.410 5190.666 5140.095 5907.879 13475.262 7097.442 22789.900 7025.952 871.807 19656.071 174.644 3604.088 2477.042 6075.181 10353.845 4690.529 20123.423 6861.388 11584.511 5957.090 5741.912 6047.666 7160.609 6376.591 20956.427 10915.699 6385.733 7093.735 4511.839 6110.838 4501.566 5373.654 5813.615 5499.499 5830.659 0.000 187.324 24819.679 14178.092 7126.497 22700.249 6452.189 3105.227 5142.358 11928.673 4441.276 19361.723 23228.286 20195.143 5687.593
4926.819 5614.422 5257.678 5207.107 5966.493 13362.590 7164.454 22856.912 6913.280 750.008 19535.053 241.694 3671.100 2364.370 6142.193 10420.857 4757.542 20010.752 6928.400 11471.839 6024.102 5808.924 6114.678 7227.621 6435.206 20835.409 10803.027 6444.347 7160.747 4578.852 6169.452 4568.578 5440.666 5880.627 5566.511 5897.671 214.577 0.000 24886.691 14065.421 7193.509 22767.261 6510.804 3163.841 5209.371 11816.001 4508.289 19428.736 23295.298 20074.125 5574.921
20937.796 20423.425 21574.065 20683.503 19950.639 33856.982 23082.606 4373.057 29530.169 26167.943 43041.603 25493.444 23122.918 26006.471 20117.333 25350.333 21163.993 35964.310 19585.397 31563.007 24211.558 22032.476 19667.616 19881.404 21166.435 44341.959 30894.195 20568.670 19616.462 21603.908 20621.827 21073.020 20412.863 22280.084 22005.728 20388.754 25416.552 25483.460 0.000 34944.221 19235.712 2540.556 22271.706 22751.285 20685.767 31907.169 21346.034 6018.362 1766.669 43580.676 27877.580
15488.578 16268.981 13847.236 16475.398 17088.334 1395.543 11921.870 32728.614 7587.364 14127.125 32929.092 14418.570 13955.796 11885.582 15314.470 11450.259 16265.357 7746.404 17401.379 3709.832 11818.777 13445.508 15703.344 17705.730 17971.633 34229.448 4371.080 17623.876 16724.420 14691.625 17583.584 15541.118 16616.135 12875.626 13273.997 15406.901 14297.972 14185.300 34758.393 0.000 17323.565 32638.963 18360.384 16113.809 16477.662 3356.514 15897.379 29300.437 33167.000 33468.164 9091.214
2773.581 1780.766 3679.845 2039.881 1174.369 16112.517 5337.956 16792.848 11635.950 7535.474 24263.495 6790.968 4967.116 8099.076 2219.194 8003.017 2531.525 18510.617 507.912 13818.541 6342.455 4227.735 2034.575 803.919 2388.327 25563.851 13149.730 1790.562 1315.937 3448.105 1843.718 2853.843 1769.240 4525.133 4200.988 2233.010 6784.084 6850.991 18822.627 17199.756 0.000 16703.196 3493.598 3977.003 2042.144 14162.704 2713.566 13364.671 17231.233 24802.567 9983.360
18811.579 18297.208 19447.847 18557.285 17824.422 31730.765 20956.388 2201.836 27403.952 24041.725 40915.386 23367.226 20996.701 23880.253 17991.115 23224.116 19037.775 33838.092 17459.179 29436.789 22085.340 19906.258 17541.398 17755.186 19040.218 42215.742 28767.977 18442.452 17490.244 19477.690 18495.609 18946.802 18286.645 20153.866 19879.510 18262.536 23290.334 23357.242 2368.964 32818.004 17109.494 0.000 20145.489 20625.067 18559.549 29780.952 19219.816 3768.320 2140.057 41454.458 25751.362
3021.907 3167.598 4510.272 2770.319 2479.649 17208.090 6516.932 19698.420 12361.535 7220.978 21321.732 6285.660 5526.919 8610.873 4077.270 9524.567 2578.917 20138.544 3420.733 14914.114 7068.040 5298.814 4049.754 3338.243 1217.249 22622.087 14245.302 1857.550 4203.078 4007.908 2058.699 2822.877 2615.360 5481.882 5154.414 3846.932 6422.787 6481.402 21728.199 18295.329 3773.154 19608.768 0.000 3461.755 2772.583 15258.277 2676.493 16270.243 20136.805 21860.804 10708.946
2626.780 3303.316 3020.366 2700.935 2844.759 14854.049 5165.106 20175.098 9679.462 3883.441 20755.907 2955.913 2375.686 5192.524 3842.154 8688.898 2251.370 19290.117 3902.397 12560.074 4385.967 3721.616 3814.638 4201.617 3351.548 22056.263 11891.262 3360.690 4673.839 2341.539 3067.135 2260.779 2721.802 3903.081 3479.203 3600.704 3093.041 3160.773 22204.877 15941.288 4254.818 20085.447 3450.545 0.000 2703.199 12904.236 2160.313 16746.921 20613.483 21294.979 8026.873
1263.787 767.569 2463.383 600.187 1456.818 15161.200 4470.043 18010.059 10314.646 5741.433 23440.331 5110.641 3480.030 6611.990 1508.614 7301.889 737.484 17915.866 2081.547 12867.225 5021.151 3251.925 1452.198 2380.768 2096.422 24740.687 12198.413 1992.361 2313.895 1961.019 1717.624 1065.816 749.693 3434.993 3107.525 1278.276 4990.043 5056.950 20039.838 16248.439 2346.656 17920.408 2840.362 2727.886 0.000 13211.387 919.525 14581.883 18448.445 23979.403 8662.056
12790.534 13570.937 11149.192 13777.354 14390.290 2263.824 9223.826 30030.570 5585.396 12125.157 30927.124 12341.516 11257.752 9808.528 12616.426 8752.215 13567.313 8220.039 14703.335 1011.788 9120.733 10747.464 13005.300 15007.686 15273.589 32227.480 1673.036 14925.832 14026.376 11993.581 14885.540 12843.074 13918.091 10177.582 10575.953 12708.857 12220.918 12108.246 32060.349 3256.898 14625.521 29940.919 15662.340 13415.765 13779.618 0.000 13199.335 26602.394 30468.956 31466.196 7089.246
931.745 1608.282 1993.924 1147.617 2124.179 14691.741 4000.584 18819.182 9845.187 4821.908 22520.806 4191.116 3010.570 6078.554 2147.120 7031.912 698.052 17645.889 2890.670 12397.766 4551.692 2782.466 2119.604 3189.891 2640.134 23821.162 11728.954 2647.795 3123.017 1379.423 2349.108 565.744 1381.177 2965.534 2638.066 1906.701 4070.518 4137.425 20848.961 15778.980 3155.779 18729.531 2755.312 1808.361 1149.881 12741.928 0.000 15391.005 19257.568 23059.878 8192.597
15633.009 15118.638 16269.278 15378.716 14645.852 28552.195 17777.819 5296.716 24225.382 20863.156 37736.816 20188.657 17818.131 20701.684 14812.546 20045.546 15859.206 30659.523 14280.610 26258.220 18906.771 16727.689 14362.829 14576.617 15861.648 39037.172 25589.408 15263.883 14311.675 16299.121 15317.040 15768.233 15108.076 16975.297 16700.941 15083.967 20111.765 20178.673 6027.074 29639.434 13930.925 3907.643 16966.919 17446.498 15380.980 26602.382 16041.247 0.000 5242.131 38275.889 22572.793
19273.651 18759.280 19909.920 19019.358 18286.495 32192.838 21418.461 2708.912 27866.025 24503.798 41377.459 23829.299 21458.774 24342.326 18453.188 23686.189 19499.848 34300.165 17921.252 29898.862 22547.413 20368.331 18003.471 18217.259 19502.290 42677.815 29230.050 18904.525 17952.317 19939.763 18957.682 19408.875 18748.718 20615.939 20341.583 18724.609 23752.407 23819.315 1777.932 33280.077 17571.567 2304.585 20607.561 21087.140 19021.622 30243.025 19681.889 5242.131 0.000 41916.531 26213.435
23576.231 24166.909 23965.305 23637.063 23478.959 32233.924 26027.316 40697.730 25784.614 19256.682 613.604 19721.864 22390.414 21682.232 24791.605 29391.326 23194.567 39164.490 24420.043 30689.065 24895.377 24564.572 24764.089 24337.553 22216.559 3704.034 30020.253 22856.861 25202.388 23286.478 23058.009 23210.230 23614.671 24736.730 24322.158 24550.155 19858.992 19737.973 42727.509 32936.755 24772.464 40608.079 21617.120 20992.011 23639.327 31033.227 23110.002 37269.554 41136.116 0.000 24892.783
7954.342 8734.745 6426.575 8941.162 9554.098 7884.660 5340.918 25726.969 1750.741 5954.645 24805.751 5867.780 5777.238 3334.792 8157.558 7073.670 8731.121 14815.225 10149.433 6320.053 4191.390 6372.707 8546.432 10453.784 10437.397 26106.107 5651.242 10089.640 9722.775 7116.764 10049.348 8006.882 9081.899 6008.122 6130.294 8154.956 5747.182 5634.510 27756.748 8587.490 10166.653 25637.318 10826.148 8117.713 8943.425 6664.216 8363.143 22298.792 26165.355 25344.823 0.000
NODE_COORD_SECTION
1 27567.380647 -311.862562
2 28431.196991 138.186791
3 26891.010382 -1590.959804
4 28092.393238 410.433655
5 28560.084004 893.141950
6 23128.408401 -12266.563631
7 27296.890384 -3585.715310
8 36413.824345 9296.542510
9 22101.919183 -6403.553857
10 22387.967122 -448.982108
11 17986.468510 15638.836469
12 23169.655048 -239.752488
13 25601.492812 -1458.446831
14 23029.617253 -2377.418957
15 28244.381112 -794.242128
16 28546.029434 -6261.700422
17 27648.710425 337.974527
18 27817.380182 -15947.775576
19 29472.275652 798.947818
20 23090.296717 -10469.042360
21 26139.975508 -3667.760187
22 27007.774472 -2313.695070
23 28516.750816 -516.909152
24 29375.150132 1216.168670
25 27816.360986 1874.096924
26 20155.353849 15116.474428
27 23325.753381 -9702.508675
28 28413.903795 1501.911701
29 29638.440600 -215.111101
30 26880.307020 -848.641685
31 28338.476700 1284.948512
32 27305.836359 -78.050108
33 27998.581771 501.694667
34 26968.865756 -2559.437982
35 26890.033004 -2188.014757
36 27908.894761 -603.090270
37 23223.093852 -365.756421
38 23101.767854 -373.300989
39 37727.347258 11644.581314
40 23004.300918 -13176.843647
41 29491.269348 625.744265
42 38374.490281 9440.423257
43 27055.629237 2556.391717
44 25795.691247 440.891601
45 27934.966675 309.948962
46 23104.235979 -10792.208758
47 27161.261737 152.459480
48 38614.361567 6176.453917
49 37292.166463 10484.083838
50 17452.866744 15697.268553
51 22832.926964 -5136.399311
DEMAND_SECTION
1 0
2 6
3 7
4 6
5 4
6 8
7 4
8 10
9 3
10 3
11 98
12 8
13 6
14 6
15 5
16 9
17 3
18 4
19 7
20 6
21 7
22 2
23 9
24 56
25 10
26 55
27 1
28 4
29 3
30 3
31 8
32 8
33 5
34 1
35 1
36 7
37 9
38 9
39 10
40 10
41 4
42 91
43 8
44 10
45 3
46 7
47 63
48 9
49 1
50 7
51 8
DEPOT_SECTION
1
-1
EOF
