NAME : mamut-tokyo-n50-hyb
COMMENT : Mamut2026 shortest metric; city tokyo; 3-decimal seconds/meters; ENU ref in mamut-tokyo-n50-hyb.vrp.json
TYPE : CVRP
DIMENSION : 51
EDGE_WEIGHT_TYPE : EXPLICIT
EDGE_WEIGHT_FORMAT : FULL_MATRIX
CAPACITY : 176
EDGE_WEIGHT_SECTION
0.000 8492.777 8007.737 11757.759 19924.603 7579.291 8903.060 1102.690 3703.703 4413.071 9124.622 14801.259 790.994 4114.544 4060.197 11861.470 5036.201 10896.248 3250.663 1344.616 7133.747 4523.702 10671.614 9972.878 5312.991 7917.319 14690.907 11389.406 3989.306 9737.839 9778.502 14602.991 9073.929 8069.698 4592.585 12802.721 9380.465 8174.171 7407.753 9062.116 6018.638 6609.202 9788.933 8991.537 9383.169 11180.018 4191.377 13046.191 14558.710 7998.035 5801.302
8664.571 0.000 16264.889 13140.694 23678.069 5045.159 15423.662 8861.910 6926.754 8992.177 17400.941 17811.832 8797.445 12482.931 5310.232 18156.226 4911.312 12293.622 8213.840 9168.867 14149.917 12501.462 15184.692 1558.445 12439.760 15311.424 9974.735 17369.698 12357.693 17767.456 16242.459 13294.737 15507.299 10325.949 12622.202 14332.019 17410.082 13930.048 9686.969 15420.183 8893.972 12599.718 17818.550 14371.953 17342.486 19209.635 12137.054 19026.484 6448.708 15735.983 13830.919
7878.118 16087.984 0.000 15753.857 18358.260 14821.487 10134.182 7816.802 10908.107 9500.905 1192.644 15902.056 7832.126 4366.438 11752.554 7042.242 11647.994 15186.281 9004.012 7654.813 4673.871 4139.657 10775.271 17568.085 8848.901 7512.217 22351.020 8803.245 4209.942 2975.185 9991.729 20877.055 10265.528 14248.028 5071.966 15835.278 3602.375 9253.428 13629.816 10534.153 11939.089 10339.937 3876.716 11986.204 5254.292 5011.917 5986.911 10227.424 22153.917 5705.507 3578.584
11896.180 13312.734 15748.910 0.000 11955.320 15992.103 20627.791 12998.871 13111.334 7703.218 16591.698 4720.402 12687.175 13434.635 11807.593 11709.491 9751.426 1110.374 8873.563 13240.797 11303.413 12700.189 5381.756 14459.342 17135.463 19484.753 22451.370 9956.368 13530.918 18374.239 21553.638 23895.593 20798.660 18445.897 15474.184 1273.552 18665.223 7436.498 17636.166 20757.374 7602.023 17775.644 19225.059 20303.879 19489.024 20410.971 15128.532 11004.909 17976.931 18913.460 15569.118
19827.654 23383.135 18068.651 11967.165 0.000 24745.514 27132.975 20654.503 21628.591 15576.887 18635.600 8146.573 20342.807 18861.794 20556.580 12569.767 18681.171 12379.223 16747.232 20810.770 15374.742 17786.257 9471.753 24863.236 23761.295 24857.397 31686.193 10160.671 18972.094 20418.141 27252.482 32616.653 27291.238 26963.153 21085.401 11126.145 21158.361 12917.918 26153.422 27455.493 16150.309 25489.403 21319.672 27384.914 22697.248 22454.873 20739.749 10041.911 29000.268 23558.649 20052.370
7684.352 4926.373 14933.267 15716.703 24971.009 0.000 10855.271 7295.962 4162.363 9917.631 15944.676 19847.665 7373.302 11128.450 4280.751 18903.729 6573.429 14855.192 8928.603 7561.945 14521.916 11911.870 16477.631 5664.039 9222.701 11935.681 8121.215 18117.201 10848.961 15599.491 11674.067 8843.677 10938.908 5419.344 10808.116 16893.589 15242.117 14677.551 4780.363 10851.792 10186.911 8262.514 15650.585 9465.348 15139.429 17041.670 9941.523 19773.987 8956.856 13226.501 12235.321
9397.551 15626.440 10397.109 20710.363 27254.099 11024.104 0.000 8570.739 9120.093 13507.515 10909.249 23334.501 8697.191 8917.748 10778.561 16525.157 12680.602 19848.852 12152.553 8281.875 12442.968 9734.114 18143.166 16576.830 4201.610 2966.523 17856.000 17916.399 8743.755 8552.363 938.719 11377.101 170.868 6701.589 6884.077 21755.325 7733.504 15645.723 6843.919 665.342 14824.025 3458.830 7523.183 2947.787 6115.086 8545.062 6525.374 19442.848 19895.477 4720.907 7498.287
1196.399 8793.995 7890.022 12810.609 20841.543 7181.403 7924.467 0.000 3268.024 5465.921 8901.431 15854.109 289.402 4085.204 4361.415 12219.056 5646.598 11949.098 4270.641 530.483 7491.334 4881.288 11570.834 10274.096 4334.398 7029.581 14710.937 12288.626 3805.716 9129.071 8799.909 13798.251 8095.336 7208.575 3983.818 13855.571 8771.697 9073.391 6590.363 8083.523 7071.488 5581.300 9180.166 8012.944 8774.401 10571.251 3498.670 13945.412 14859.928 7226.605 5192.535
3983.528 7022.526 11249.919 13200.801 21998.770 4090.394 8881.146 3536.615 0.000 6806.835 12261.328 16875.426 3613.956 7445.101 2013.450 15578.953 4169.504 12339.290 5817.807 3878.597 10851.231 8241.185 13434.404 7947.693 6029.741 8967.955 11619.927 15006.405 7165.613 11933.214 9699.942 11072.450 8964.783 5418.951 7141.839 14245.763 11575.840 11566.755 4609.219 8877.667 7108.790 6079.893 11984.308 8218.084 11478.178 13375.393 6275.247 16663.191 12295.818 9728.373 8552.432
4434.874 8880.974 9640.306 7691.132 15810.641 9923.206 13205.281 5505.805 6607.120 0.000 10776.357 10687.297 5194.109 5887.741 5719.878 9455.563 4179.010 6829.621 1353.312 5747.731 5823.571 5720.489 7161.096 10361.075 9615.212 11964.502 17034.822 8669.035 5938.974 12208.484 14080.723 17595.183 13376.150 11941.683 7859.357 8736.094 11959.534 5229.385 11131.952 13364.337 2438.184 10897.162 12450.662 13293.758 12144.900 13941.750 7513.705 10325.821 14946.907 11402.050 8161.900
9077.438 17287.305 1330.072 16694.384 18862.203 15996.712 10670.538 8992.027 12083.332 10700.225 0.000 16521.835 9007.351 5565.759 12951.874 7143.469 12847.315 16268.866 10203.332 8830.039 5938.409 5338.977 11715.798 18767.406 9483.593 8048.574 23526.245 9307.189 5409.262 2661.608 10366.246 21529.134 10801.884 15017.482 5841.420 16775.805 3401.828 10512.060 14399.270 11070.509 13138.410 10974.630 3563.139 12620.897 4940.715 4046.174 6756.364 10454.067 23353.237 6241.863 4348.038
14909.631 17692.008 15875.509 4778.180 8389.345 19826.351 23302.631 15980.562 16709.427 10657.724 16442.457 0.000 15668.866 15215.852 15637.416 10931.165 13762.008 5643.602 11828.069 16182.735 12465.342 14366.250 5661.092 18838.617 19712.561 21647.437 26767.030 8691.125 15312.136 18224.998 23929.215 27697.490 23473.499 22043.990 17425.442 3527.200 18965.218 8846.373 21234.259 23461.687 11231.146 21018.818 19126.529 23391.107 20448.238 20261.730 17079.790 9247.727 22356.205 20410.614 16894.265
1131.933 8729.530 7826.968 12746.144 20641.314 7264.467 8112.066 311.696 3351.088 5401.456 8838.377 15783.296 0.000 4022.151 4296.950 12156.003 5582.133 11884.633 4070.412 553.622 7428.280 4818.235 11370.605 10209.631 4521.996 7195.812 14794.001 12088.397 3742.662 9152.211 8987.508 14035.160 8282.934 7445.483 4006.957 13791.106 8794.837 8873.162 6827.271 8271.122 7007.023 5818.208 9203.305 8200.542 8797.541 10594.390 3521.809 13745.182 14795.463 7276.528 5215.674
4054.863 12310.031 4307.321 13040.904 18740.993 11298.085 9105.778 4293.400 7384.706 5722.952 5443.372 14821.395 4308.724 0.000 7929.300 8544.259 7870.041 12179.393 5226.059 4131.412 3816.536 966.402 9630.060 13790.132 5996.352 7119.436 18560.009 9637.557 480.099 6830.797 9420.106 17784.681 9264.041 11155.654 2564.647 13487.410 6581.847 7132.617 10537.442 9690.549 8161.136 7724.460 7072.975 9619.970 6767.213 8564.063 2974.805 11282.466 18375.964 6024.363 2784.213
4338.309 5053.632 12049.861 11440.073 20694.378 4433.504 10751.347 4535.648 2293.462 6004.609 13185.913 15571.034 4471.183 8156.669 0.000 14990.707 2296.798 10578.561 5015.581 4842.605 10897.149 8540.738 12201.001 6363.965 7767.445 10663.401 11483.375 14204.179 8031.431 13441.194 11570.144 12318.176 10834.984 7121.523 8295.940 12616.958 13083.820 10764.529 6311.792 10747.868 5910.281 7927.403 13492.288 10294.373 13005.787 14883.373 7802.855 15860.964 10949.796 11399.284 9504.657
11867.775 17997.227 6961.973 11746.584 12734.474 18835.611 16338.768 12389.312 15315.644 9374.303 7142.924 10778.247 12201.808 8748.075 14632.282 0.000 13285.054 11321.066 10265.716 12227.324 5125.673 7672.538 6756.115 19477.328 14109.661 14063.190 25947.226 2681.374 8957.661 9311.462 16458.275 25897.990 16497.031 19268.963 10723.793 11828.006 10051.682 7036.395 18650.751 16848.612 11578.225 15837.769 10212.993 17733.279 11590.569 10824.907 11088.114 3310.598 24063.160 12567.690 9258.163
4994.430 4804.448 11708.436 9523.724 18845.199 6379.311 12204.438 5382.002 3867.520 4159.307 12844.487 13721.856 5317.537 7955.871 2194.801 13323.357 0.000 8662.212 3380.970 5688.960 9517.737 7945.008 10351.822 6284.549 9031.811 11880.277 13173.094 12536.828 8007.104 14276.614 13023.234 14282.801 12288.075 8844.175 9142.295 10700.609 13930.174 9097.178 8034.443 12200.959 4061.102 9380.493 14338.643 11747.464 13862.578 15729.728 8657.147 14193.614 10870.381 12256.076 10230.030
11280.063 12941.137 15316.855 861.511 12399.854 15174.247 20011.674 12382.754 12495.217 7087.101 16159.643 5581.913 12071.058 12818.518 10989.737 11277.436 8933.570 0.000 8257.446 12624.680 10871.359 12084.072 4949.701 14077.587 16519.346 18868.636 21993.131 9533.505 12914.801 17942.184 20937.521 23077.737 20182.543 17639.111 14858.067 2094.693 18233.168 7004.443 16829.380 20141.257 6985.906 17159.527 18793.005 19687.762 19040.193 19978.916 14512.415 11018.277 17602.421 18297.343 15057.193
3217.682 8100.639 9133.701 8764.263 16883.771 8927.595 11917.433 4217.957 5611.509 1372.239 10269.752 11760.427 3906.261 5381.137 4724.267 10364.664 3388.466 7902.751 0.000 4459.883 6218.334 5370.273 8234.226 9580.741 8327.364 10676.654 16039.211 9578.136 5432.369 11701.879 12792.875 16599.571 12088.302 10946.072 6957.561 9809.224 11452.929 6138.486 10136.341 12076.489 3423.475 9633.621 11944.057 12005.910 11638.296 13435.145 6556.353 11234.922 14166.572 10534.992 7655.295
1512.416 9110.012 7612.775 13126.627 20846.469 7459.283 7570.617 539.542 3545.903 5781.938 8624.184 15988.451 562.682 3807.957 4677.432 11941.809 5962.615 12265.116 4436.167 0.000 7214.087 4604.041 11575.759 10590.114 3980.548 6654.363 14988.816 12215.228 3528.469 8664.207 8446.059 14061.375 7741.485 7471.698 3559.256 14171.588 8306.833 9078.317 6853.486 7729.673 7387.505 5286.804 8715.302 7659.094 8309.537 10106.387 3006.240 13872.014 15175.945 6735.079 4767.973
7176.671 13985.802 4990.149 11227.768 15620.293 14562.321 12310.903 7689.019 10686.733 5659.307 6137.322 12154.041 7501.515 4047.782 10515.144 5257.705 9497.850 10606.381 6179.222 7527.030 0.000 2972.245 6974.509 15465.904 9409.368 10035.324 21673.937 6161.509 4257.368 7860.716 12430.409 21197.697 12469.165 14568.670 6312.602 11334.730 7904.005 4676.921 13950.458 12820.746 7863.228 11137.476 8496.436 13032.986 9150.203 9895.906 6387.821 7818.295 20051.735 8746.647 5230.298
4505.823 12414.159 4240.145 12676.019 17940.915 11899.353 9962.442 5018.170 8023.765 5615.682 5376.197 14259.812 4830.666 1167.852 8220.868 7670.557 7974.169 11814.508 5330.186 4856.182 2942.835 0.000 8991.076 13894.260 6738.519 7686.863 19010.969 8763.855 1377.438 6894.460 10081.948 18526.849 10120.704 11897.821 3432.672 12925.827 6655.565 6493.634 11279.610 10432.717 8053.866 8466.627 7146.693 10362.137 7140.533 8733.008 3716.972 10408.764 18480.091 6397.683 3157.533
10536.678 15009.580 10770.186 5357.184 9595.643 16371.959 17993.282 11363.527 13218.727 7043.523 11584.579 5651.668 11051.831 9727.245 12183.025 6702.371 10307.616 4931.666 8162.601 11519.794 7075.108 8782.208 0.000 16489.681 14612.730 16145.839 23312.638 4899.906 9823.529 13367.119 18440.608 24206.789 18151.544 18358.595 11936.835 5438.606 13760.117 3626.942 17696.650 18306.928 7776.755 16276.241 14268.651 18236.348 15094.987 15403.851 11591.183 6407.515 21075.513 14857.162 11340.813
10151.851 2230.358 17752.170 14050.407 25165.350 5709.658 16498.045 10349.190 8096.724 10479.458 18888.221 18721.545 10284.725 13970.212 6489.216 19643.507 6398.593 13203.335 9701.121 10656.148 15637.198 13988.742 16671.972 0.000 13609.730 16505.686 8836.914 18856.978 13844.973 19254.737 17316.841 12931.330 16581.682 11062.118 14109.483 15241.732 18897.363 15417.328 10423.138 16494.566 10381.252 13769.688 19305.831 15108.122 18829.767 20696.916 13624.335 20513.764 5084.972 17223.264 15318.200
5443.998 12288.718 9071.559 16945.986 24228.460 9205.194 4030.545 4617.186 5976.900 9553.962 9780.857 19521.489 4743.638 6224.411 7466.970 14391.916 9141.321 16084.475 8199.000 4328.322 9664.194 7054.148 15025.151 13440.844 0.000 3330.394 16610.554 15335.615 5818.406 8149.719 4812.370 13111.614 4201.414 6485.301 4366.327 17990.948 7520.990 12527.709 5867.090 4189.601 11250.260 1746.733 7533.528 4119.022 6421.629 8831.739 3499.735 16992.401 18026.676 4392.235 5862.303
8039.170 15378.314 8154.969 19541.158 25219.414 12018.711 2727.858 7280.418 9040.940 12149.134 8667.109 21702.566 7338.809 7044.035 10556.566 14369.388 12230.917 18679.646 10794.172 6969.688 10287.199 7655.335 16412.296 16530.440 3317.350 0.000 19127.958 15760.630 6870.043 6700.263 2792.163 13889.411 2886.121 8268.173 5010.365 20368.580 5925.143 14013.788 8271.553 3182.500 13916.846 3709.699 5714.823 4863.996 4306.725 6736.701 4893.439 17287.078 20890.084 2445.747 5342.517
15037.100 10724.847 22655.546 22778.157 32155.969 8199.674 17820.521 14942.243 11842.725 17270.379 23666.955 27032.625 15019.583 18850.729 11633.499 26256.477 13482.135 21916.645 16281.351 15284.224 21874.664 19264.619 23662.591 9105.245 16954.152 19344.481 0.000 25469.949 18571.241 23338.841 18548.028 8759.866 17897.943 11931.552 18547.466 23955.042 22981.468 22030.299 11687.399 17810.827 17371.871 15633.430 23389.936 15575.255 22883.805 24781.021 17680.874 27126.735 5970.641 20927.152 19958.059
11537.117 17450.647 8766.660 10017.943 10254.150 18289.031 17975.434 12363.966 14931.625 8827.724 9333.608 8490.884 12052.270 10003.352 14085.703 2634.524 12738.474 9680.965 9719.136 12459.564 6143.335 8927.815 5030.516 18930.748 15187.113 15699.855 25400.647 0.000 10212.938 11116.149 18094.940 25894.919 18133.697 19359.034 12268.172 9972.495 11856.369 6081.925 18697.089 18485.277 11031.646 16915.221 12017.680 18810.731 13395.256 13152.881 12165.566 1656.786 23516.580 14256.658 10894.829
3992.384 12299.401 4332.444 13447.440 19147.530 10817.987 8851.152 3813.301 6904.607 5948.061 5468.495 15227.932 3828.625 406.536 7866.821 8950.795 8090.523 12585.929 5446.541 3651.313 4223.072 1372.938 10036.596 13779.502 5516.253 6864.810 18347.520 10044.093 0.000 6595.051 9165.480 17304.582 9009.415 10675.555 2310.021 13893.946 6346.101 7539.154 10057.343 9210.451 8386.246 7244.361 6837.229 9139.871 6531.468 8328.317 2494.706 11689.002 18365.334 5788.618 2548.467
9868.150 17718.383 3160.975 18525.287 20693.107 15599.090 8504.245 9148.479 11748.023 11928.130 2565.278 18352.738 9171.619 6513.162 13216.912 9378.559 14075.219 18080.425 11431.237 8802.497 7568.014 6818.506 13546.701 19190.786 7921.867 6154.106 23190.936 11138.093 6339.169 0.000 7967.757 19130.644 8483.702 13744.293 5428.308 18606.709 1053.313 12147.572 13126.081 8742.208 14366.314 9412.903 1164.650 10957.409 2542.226 2131.305 5786.417 12562.271 23776.617 4347.395 4120.953
10075.937 16224.201 10585.650 21388.749 27880.166 11621.865 1322.052 9249.125 9717.854 14185.901 10938.843 24153.428 9375.577 9643.155 11376.322 17030.139 13278.363 20527.238 12830.939 8960.260 12947.950 10316.086 19043.524 17174.591 5072.213 3373.682 18375.738 18421.381 9469.163 8543.142 0.000 11260.809 1102.999 7221.327 7609.485 22433.711 7724.283 16546.082 7363.657 936.877 15502.411 4088.558 7513.962 3289.215 6105.865 8535.841 7425.732 19947.830 20493.238 4909.449 8003.269
14635.873 13378.738 21051.675 23380.073 32634.379 8948.500 11381.459 14017.467 11125.155 17581.001 21575.276 27511.035 14131.349 17807.815 11944.121 25941.667 14236.799 22518.562 16591.973 14241.310 21213.944 18603.899 24141.001 12929.382 13115.133 13857.868 8774.996 25780.571 17528.326 19179.575 11280.525 0.000 11216.798 6847.255 16147.111 24556.959 18360.716 22340.921 7793.867 10805.298 17850.281 11833.514 18150.395 9157.173 16742.298 19172.274 15280.519 27437.356 13634.537 15538.913 17673.522
9341.302 15489.565 10316.122 20654.114 27381.131 10887.230 315.750 8514.489 8983.219 13451.266 10828.262 23418.793 8640.941 9044.780 10641.687 16541.993 12543.727 19792.603 12096.303 8225.625 12459.805 9827.940 18270.198 16439.956 4328.642 2885.536 17719.126 17933.235 8870.787 8471.377 767.851 11206.233 0.000 6564.714 7011.109 21699.075 7652.517 15772.755 6707.045 494.473 14767.775 3353.922 7442.197 2778.217 6034.099 8464.075 6652.406 19459.684 19758.603 4639.921 7515.123
8104.969 10270.985 14283.311 18219.040 27294.455 5523.258 6580.074 7450.240 5519.522 12102.520 15103.979 22171.111 7564.121 11229.556 6919.712 19374.440 9075.766 17357.529 11113.492 7674.083 14646.717 12036.671 18542.790 11075.984 6585.550 8409.413 11843.306 19260.581 10823.550 13734.732 7392.656 6700.643 6657.496 0.000 9371.472 19395.926 13377.358 16045.347 1011.388 6570.380 12404.475 5135.455 13509.927 4860.339 12120.158 14530.268 8504.880 20917.367 14149.527 10144.152 10897.883
4834.823 12692.272 5118.381 15116.026 20816.115 11099.655 7333.399 4121.802 7186.275 7798.074 5939.049 16896.517 4144.942 2225.157 8259.692 10619.381 9543.739 14254.515 7025.275 3775.820 5891.658 3041.524 11705.182 14172.373 4588.011 5203.167 18629.188 11712.679 2051.165 5609.002 7598.252 16376.341 7491.662 9747.314 0.000 15562.532 5251.628 9207.739 9129.102 7970.377 10236.258 6132.095 5660.097 7934.598 5254.332 7051.182 1486.196 13357.588 18758.205 4179.458 1732.953
12737.593 14368.085 15764.205 1263.260 11302.695 16858.197 21469.204 13840.283 13952.747 8544.631 16578.598 3620.416 13528.587 13904.407 12673.686 11696.390 10617.519 2128.681 9714.976 14082.209 11484.552 13074.047 5368.655 15514.694 17976.876 20326.166 23506.721 9877.614 14000.691 18361.138 22395.050 24761.686 21640.072 19287.309 16113.997 0.000 18754.135 7617.636 18477.578 21598.787 8443.436 18617.057 19262.670 21145.292 19670.162 20397.870 15768.345 10926.155 19032.282 19266.606 15750.257
9474.260 17320.665 3717.196 18643.491 21284.029 15201.372 7756.448 8750.761 11350.304 11740.087 3451.071 18791.690 8773.900 6325.119 12819.193 9969.481 13887.177 18075.916 11243.194 8404.778 7563.505 6646.695 13664.905 18793.067 7348.338 5424.694 22793.217 11729.015 6151.126 1095.529 7219.959 18382.846 7735.904 13346.574 5030.589 18724.913 0.000 12143.062 12728.362 7994.410 14178.272 8839.374 601.132 10226.867 1794.428 2206.102 5388.699 13153.194 23378.899 3617.984 3932.911
8162.505 13831.838 9141.738 7486.420 13005.700 14670.222 15619.108 8989.354 11354.136 5208.915 10288.911 8728.982 8677.658 7353.072 10466.893 6993.612 9119.665 6868.661 6100.327 9145.621 4686.522 6408.035 3704.329 15311.939 12238.557 13757.254 21781.838 5832.405 7449.356 12012.305 16066.434 22342.198 15777.371 15984.422 9562.662 7593.383 12048.332 0.000 15322.477 15932.755 6683.101 13902.068 12608.168 15862.175 12872.133 14047.495 9217.010 7430.288 19897.771 12468.576 8952.227
7503.214 9678.238 13681.555 17574.407 26649.822 4930.511 6559.786 6848.485 4874.889 11457.887 14502.223 21526.478 6962.366 10627.800 6275.079 18772.684 8431.133 16712.896 10468.859 7072.327 14044.961 11434.916 17941.034 10483.237 6051.692 8163.330 11500.581 18658.826 10221.795 13132.976 7372.367 7609.319 6637.208 973.452 8769.716 18751.293 12775.602 15443.592 0.000 6550.092 11759.842 4635.076 13111.777 5106.602 11722.007 14132.117 7903.124 20315.612 13628.770 9746.001 10296.128
9254.186 15402.450 10638.098 20566.998 27521.317 10800.114 646.402 8427.373 8896.103 13364.150 11150.239 23331.677 8553.825 9214.048 10554.571 16821.457 12456.611 19705.487 12009.187 8138.509 12739.269 10030.414 18410.383 16352.840 4250.462 3207.512 17553.987 18212.699 9040.055 8780.573 919.891 10828.316 489.566 6399.575 7180.378 21611.959 7961.713 15912.941 6541.906 0.000 14680.659 3266.807 7751.393 2577.368 6343.295 8773.271 6792.592 19739.148 19671.487 4961.897 7794.587
6311.952 7578.432 12764.245 6936.763 17363.918 9156.402 14554.660 7328.198 6547.835 4329.058 13900.297 11351.310 7102.946 9011.681 4971.892 13705.511 2912.367 6075.252 3917.174 7635.156 9941.644 9000.818 9044.570 9058.533 11253.641 14102.108 15971.928 12680.162 9062.913 15332.424 15480.506 17059.892 14725.528 11621.266 10568.744 8113.649 15083.474 8662.141 10811.534 14684.243 0.000 11702.513 15574.602 14230.748 15268.840 17065.690 10167.536 14278.045 13644.365 14146.175 11285.840
6758.164 12524.878 10456.550 17746.547 25764.490 8579.469 3259.595 5961.390 6061.858 10950.399 11165.848 20990.119 6130.332 7878.071 7677.000 16045.576 9579.040 16885.035 9595.437 5672.526 11317.853 8695.562 16493.781 13620.929 1911.030 3845.188 15688.715 16989.274 7472.065 9534.710 4078.391 11945.152 3343.232 5359.188 5931.742 18791.508 8904.056 13996.338 4800.671 3256.116 11860.208 0.000 8793.635 2877.349 7403.866 9813.976 5153.395 18646.060 17450.842 5427.859 7279.099
9864.792 17711.196 4051.122 19187.006 21583.254 15591.903 7604.834 9141.292 11740.836 12283.229 3750.296 19242.885 9164.431 6868.260 13209.724 10268.706 14430.318 18619.431 11786.336 8795.310 8107.020 7190.210 14208.420 19183.598 7622.923 5390.538 23183.749 12028.239 6694.268 1251.552 7068.346 18231.233 7584.291 13598.018 5421.120 19268.428 613.842 12686.577 13118.894 7842.797 14721.413 9040.521 0.000 10075.254 1642.815 1657.942 5779.230 13452.418 23769.430 3624.132 4476.052
9145.077 14251.970 12080.021 20326.761 27594.350 9504.243 2678.619 8318.264 8229.654 13255.041 12789.319 23222.568 8444.717 9548.966 10149.625 17757.806 12051.665 19465.250 11900.079 8029.400 13030.084 10365.332 18483.417 15056.969 4143.479 4940.571 15606.305 18701.505 9184.296 10930.034 3402.611 9255.125 2741.904 4777.058 7601.512 21371.722 10201.269 15985.974 5061.819 2654.788 14389.733 2861.860 9996.709 0.000 8588.611 11018.587 6865.625 20358.291 18202.502 6675.310 8948.869
9566.650 17327.201 5341.956 19578.220 22874.088 15122.908 6120.148 8843.150 11342.845 12260.268 5041.130 20203.467 8866.289 6845.299 12811.734 11559.540 14179.804 18716.709 11763.375 8497.168 8975.282 7281.701 15076.682 18785.608 6553.475 3905.852 22785.758 13319.073 6671.307 2645.430 5583.659 16746.547 6099.604 12113.332 5122.978 19794.706 1826.570 13136.896 12177.405 6358.111 14698.452 7615.551 1616.250 8590.568 0.000 2431.317 5481.088 14743.252 23371.439 2311.861 4581.954
11167.861 19014.265 4975.324 20339.636 22507.456 16894.972 8400.512 10444.361 13043.905 13771.144 4157.886 20167.087 10467.501 8356.176 14512.794 10886.036 15866.868 19896.043 13274.251 10098.379 9383.632 8678.125 15361.050 20486.668 8683.859 6186.216 24486.818 12952.442 8182.183 2034.629 7864.024 19026.911 8379.969 14393.696 6724.190 20421.058 2097.827 13963.189 14345.679 8638.475 16209.328 9858.635 1687.669 10870.932 2281.705 0.000 7082.299 14196.634 25072.499 4442.245 5963.968
4354.486 12211.935 5824.930 15203.883 20953.382 10133.913 6779.032 3641.465 6282.845 7643.107 6645.598 17033.784 3664.604 2860.545 7751.734 11116.839 9063.402 14342.372 6726.809 3295.483 6389.116 3676.912 11842.449 13692.036 3398.481 4839.563 17725.758 12060.537 2543.328 5777.421 7131.405 15186.810 6937.295 8557.783 913.091 15699.799 5420.047 9345.006 7939.571 7092.679 9963.509 5126.589 5828.516 7022.099 5422.751 7219.601 0.000 13717.323 18277.868 4124.899 2439.502
13294.123 19207.653 10348.194 11122.388 10160.462 20046.037 19556.968 14120.972 16688.631 10584.730 10558.334 8885.189 13809.276 11760.358 15842.709 3550.241 14495.480 11108.734 11476.143 14216.570 7900.341 10684.821 6377.997 20687.755 16944.119 17281.390 27157.653 2178.479 11969.944 12697.683 19676.475 27651.925 19715.231 21116.040 13941.993 11076.940 13437.903 7544.952 20454.095 20066.811 12647.277 18672.227 13599.214 20567.738 14976.790 14240.318 13922.572 0.000 25273.586 15838.192 12476.363
14645.454 7048.091 22245.773 18147.068 29375.329 9023.098 19856.551 14842.794 12436.240 14973.061 23381.824 22818.206 14778.329 18463.815 10982.819 24137.110 10892.196 17299.996 14194.724 15149.751 20130.801 18482.345 21165.575 5090.296 18103.333 20948.667 5918.190 23350.581 18338.577 23748.340 20669.132 13690.480 19933.973 14243.748 18603.086 19338.393 23390.966 19910.931 13723.430 19846.857 14874.855 17275.500 23799.434 18408.414 23323.370 25190.519 18117.938 25007.367 0.000 21716.867 19811.803
8193.290 15782.813 5863.432 18668.469 23620.456 13146.526 4510.729 7434.538 9641.171 11350.517 6375.572 20288.348 7492.929 5935.549 11112.445 12642.992 12635.416 17806.958 10771.272 7123.808 8872.278 6371.950 14997.375 17086.319 4241.614 1888.764 20698.226 14136.503 5761.556 4408.726 4406.561 15569.449 4642.075 10096.244 4155.258 19114.975 3679.960 12699.787 9954.762 4910.700 13788.701 5416.389 3648.104 6692.067 2258.335 4668.445 4258.486 15560.682 21672.151 0.000 3993.824
5912.518 13769.968 3510.587 15372.658 20167.650 12177.350 7410.496 5199.498 8263.971 8054.706 4336.216 16651.505 5222.637 2639.737 9337.388 9317.623 10201.795 14511.147 7557.813 4853.516 5235.435 3076.139 11360.531 15250.069 5527.480 5134.918 19706.884 10708.865 2465.745 4395.704 7530.003 17428.592 7568.759 10799.565 1623.504 15720.753 4146.754 9062.944 10181.353 7920.340 10492.890 7018.516 4637.882 8797.601 4517.123 6224.197 2538.448 12235.314 19835.901 3845.738 0.000
NODE_COORD_SECTION
1 -2164.012052 1974.697434
2 5007.817556 -790.295071
3 -9493.429751 2515.784382
4 -2183.797196 -8806.190058
5 -11613.810627 -11918.232370
6 4257.367499 3608.566605
7 -3848.583265 9383.949179
8 -2163.273826 2813.582744
9 758.414441 2985.895695
10 -2483.927376 -1683.507400
11 -10483.710767 2953.676592
12 -5408.370924 -11290.144866
13 -2192.006837 2598.295677
14 -5745.971906 2030.069750
15 1159.327904 1390.895331
16 -10903.314302 -3175.987567
17 668.543719 -444.319388
18 -1886.630662 -8003.756679
19 -2119.974564 -626.720394
20 -2434.182328 2973.226105
21 -7416.966198 -661.859776
22 -6052.352382 1422.903389
23 -6016.507137 -6359.260093
24 6339.699119 -717.392652
25 -3273.432567 6212.602001
26 -5485.485340 7991.499355
27 11004.712881 4733.748758
28 -9904.412901 -5140.457897
29 -5555.331891 2247.328488
30 -10154.261209 5100.748402
31 -4254.492443 9810.843124
32 6299.510121 10924.721953
33 -3847.306623 9554.163903
34 1746.931391 7685.941077
35 -5469.445405 3959.443785
36 -2907.485856 -9363.136689
37 -9568.253409 5595.141455
38 -5164.148289 -4003.027769
39 1545.312735 6916.336728
40 -3601.191902 9759.581773
41 -588.223058 -2660.695202
42 -2325.630617 7142.265038
43 -9768.518093 6036.823113
44 -1684.688950 9461.087706
45 -8802.870779 6925.155699
46 -10899.861528 6510.325917
47 -4845.652609 4144.884934
48 -11240.948227 -5895.485973
49 10826.490901 -601.211246
50 -6783.566305 7024.197839
51 -6846.105354 3661.998566
DEMAND_SECTION
1 0
2 6
3 8
4 10
5 8
6 5
7 6
8 5
9 4
10 3
11 9
12 3
13 4
14 6
15 84
16 6
17 81
18 7
19 8
20 1
21 2
22 10
23 1
24 7
25 85
26 10
27 5
28 9
29 9
30 1
31 6
32 61
33 5
34 84
35 8
36 1
37 7
38 6
39 3
40 4
41 62
42 10
43 9
44 1
45 7
46 8
47 1
48 1
49 6
50 10
51 9
DEPOT_SECTION
1
-1
EOF
