NAME : mamut-tokyo-n25-hyb
COMMENT : Mamut2026 euclidean metric; city tokyo; 3-decimal seconds/meters; ENU ref in mamut-tokyo-n25-hyb.vrp.json
TYPE : CVRP
DIMENSION : 26
EDGE_WEIGHT_TYPE : EXPLICIT
EDGE_WEIGHT_FORMAT : FULL_MATRIX
CAPACITY : 141
EDGE_WEIGHT_SECTION
0.000 6841.479 9589.149 3920.701 5301.820 2878.045 3385.321 6531.876 6930.853 4186.639 2296.567 8016.159 3643.796 9161.433 8984.570 8802.013 6075.976 8694.784 3851.307 1653.501 11833.996 6414.451 8219.791 12569.631 9408.646 8055.152
6841.479 0.000 2963.421 10470.763 11530.241 4320.317 10188.070 604.415 8430.051 8450.065 8967.544 12127.520 9739.725 8801.503 8435.846 11040.526 11929.069 8271.550 5721.994 8493.966 18113.430 3182.583 8554.332 14898.461 10365.767 12086.081
9589.149 2963.421 0.000 13342.110 14456.054 7247.814 12971.602 3093.294 11161.039 10411.615 11797.173 15035.500 12110.833 8953.946 10740.159 11959.755 14883.198 8501.556 7629.998 11235.860 20320.871 4155.342 9069.978 15523.594 10848.024 14988.101
3920.701 10470.763 13342.110 0.000 1558.544 6174.246 1213.375 10250.126 7136.766 6671.187 1628.145 5804.416 4534.535 12515.194 9771.333 11235.275 2613.101 12110.642 7525.234 2531.528 10245.038 10335.128 11479.738 14504.860 12313.002 5903.105
5301.820 11530.241 14456.054 1558.544 0.000 7211.836 2716.913 11368.282 6942.117 8227.431 3082.338 4675.911 6036.503 14065.335 9641.945 12769.556 1130.677 13655.645 9019.344 4051.944 10835.611 11677.777 13033.782 15970.198 13869.447 4794.084
2878.045 4320.317 7247.814 6174.246 7211.836 0.000 6008.032 4169.759 5690.979 6136.186 4734.026 8365.767 6387.932 9467.504 7042.946 10202.231 7652.418 8934.774 4349.607 4435.380 14695.118 5063.408 8749.615 14153.563 10298.389 8354.659
3385.321 10188.070 12971.602 1213.375 2716.913 6008.032 0.000 9904.351 7918.591 5543.003 1309.878 6983.704 3327.767 11473.108 10471.466 10052.820 3809.951 11089.123 6660.299 1765.882 9487.479 9703.145 10420.585 13292.383 11179.644 7077.441
6531.876 604.415 3093.294 10250.126 11368.282 4169.759 9904.351 0.000 8652.800 7919.057 8713.135 12201.567 9295.228 8214.847 8822.118 10437.775 11820.030 7682.621 5169.819 8184.391 17643.466 2593.764 7953.979 14294.047 9764.203 12166.999
6930.853 8430.051 11161.039 7136.766 6942.117 5690.979 7918.591 8652.800 0.000 11095.551 6869.346 4453.861 10255.860 15156.581 2701.505 15588.337 6478.997 14625.126 9937.151 7459.734 17366.733 10450.662 14414.401 19447.907 15897.685 4353.965
4186.639 8450.065 10411.615 6671.187 8227.431 6136.186 5543.003 7919.057 11095.551 0.000 5376.833 11915.663 2546.424 6047.640 12994.355 4696.789 9265.345 5729.218 2789.607 4369.263 9940.995 6317.047 4964.850 8384.765 5642.016 11975.361
2296.567 8967.544 11797.173 1628.145 3082.338 4734.026 1309.878 8713.135 6869.346 5376.833 0.000 6603.001 3634.141 11036.115 9338.458 10047.079 3987.451 10611.210 5937.007 1018.242 10679.380 8710.055 10024.658 13524.225 10975.969 6675.182
8016.159 12127.520 15035.500 5804.416 4675.911 8365.767 6983.704 12201.567 4453.861 11915.663 6603.001 0.000 10183.041 17154.303 6763.847 16610.858 3653.733 16672.115 11788.966 7570.949 15414.006 13426.017 16232.629 20125.879 17395.571 144.291
3643.796 9739.725 12110.833 4534.535 6036.503 6387.932 3327.767 9295.228 10255.860 2546.424 3634.141 10183.041 0.000 8584.690 12515.347 6759.241 7137.528 8275.017 4693.475 2819.352 8404.100 8236.972 7497.208 9979.434 8012.138 10264.098
9161.433 8801.503 8953.946 12515.194 14065.335 9467.504 11473.108 8214.847 15156.581 6047.640 11036.115 17154.303 8584.690 0.000 16279.184 3753.164 15023.163 547.502 5376.112 10029.990 14435.401 5621.084 1092.856 6652.369 2059.130 17184.863
8984.570 8435.846 10740.159 9771.333 9641.945 7042.946 10471.466 8822.118 2701.505 12994.355 9338.458 6763.847 12515.347 16279.184 0.000 17242.190 9168.460 15733.573 11383.597 9799.953 19955.361 11062.306 15672.448 21184.346 17295.702 6640.384
8802.013 11040.526 11959.755 11235.275 12769.556 10202.231 10052.820 10437.775 15588.337 4696.789 10047.079 16610.858 6759.241 3753.164 17242.190 0.000 13848.169 3915.062 5906.444 9051.033 10921.464 8026.947 3061.013 3972.471 1902.380 16671.491
6075.976 11929.069 14883.198 2613.101 1130.677 7652.418 3809.951 11820.030 6478.997 9265.345 3987.451 3653.733 7137.528 15023.163 9168.460 13848.169 0.000 14598.320 9879.491 4994.832 11767.267 12342.498 14007.647 17088.583 14902.728 3780.796
8694.784 8271.550 8501.556 12110.642 13655.645 8934.774 11089.123 7682.621 14625.126 5729.218 10611.210 16672.115 8275.017 547.502 15733.573 3915.062 14598.320 0.000 4884.633 9610.961 14402.593 5089.428 940.184 7048.766 2388.819 16700.528
3851.307 5721.994 7629.998 7525.234 9019.344 4349.607 6660.299 5169.819 9937.151 2789.607 5937.007 11788.966 4693.475 5376.112 11383.597 5906.444 9879.491 4884.633 0.000 4996.076 12696.706 3584.669 4518.264 9877.564 5965.219 11816.413
1653.501 8493.966 11235.860 2531.528 4051.944 4435.380 1765.882 8184.391 7459.734 4369.263 1018.242 7570.949 2819.352 10029.990 9799.953 9051.033 4994.832 9610.961 4996.076 0.000 10460.024 7940.789 9012.994 12577.674 9958.630 7637.348
11833.996 18113.430 20320.871 10245.038 10835.611 14695.118 9487.479 17643.466 17366.733 9940.995 10679.380 15414.006 8404.100 14435.401 19955.361 10921.464 11767.267 14402.593 12696.706 10460.024 0.000 16256.892 13462.882 11287.315 12819.197 15544.129
6414.451 3182.583 4155.342 10335.128 11677.777 5063.408 9703.145 2593.764 10450.662 6317.047 8710.055 13426.017 8236.972 5621.084 11062.306 8026.947 12342.498 5089.428 3584.669 7940.789 16256.892 0.000 5393.745 11799.046 7211.312 13416.872
8219.791 8554.332 9069.978 11479.738 13033.782 8749.615 10420.585 7953.979 14414.401 4964.850 10024.658 16232.629 7497.208 1092.856 15672.448 3061.013 14007.647 940.184 4518.264 9012.994 13462.882 5393.745 0.000 6464.721 1818.954 16268.159
12569.631 14898.461 15523.594 14504.860 15970.198 14153.563 13292.383 14294.047 19447.907 8384.765 13524.225 20125.879 9979.434 6652.369 21184.346 3972.471 17088.583 7048.766 9877.564 12577.674 11287.315 11799.046 6464.721 0.000 4676.391 20199.332
9408.646 10365.767 10848.024 12313.002 13869.447 10298.389 11179.644 9764.203 15897.685 5642.016 10975.969 17395.571 8012.138 2059.130 17295.702 1902.380 14902.728 2388.819 5965.219 9958.630 12819.197 7211.312 1818.954 4676.391 0.000 17442.556
8055.152 12086.081 14988.101 5903.105 4794.084 8354.659 7077.441 12166.999 4353.965 11975.361 6675.182 144.291 10264.098 17184.863 6640.384 16671.491 3780.796 16700.528 11816.413 7637.348 15544.129 13416.872 16268.159 20199.332 17442.556 0.000
NODE_COORD_SECTION
1 -2164.012052 1974.697434
2 -8776.875283 3728.514207
3 -11681.782138 3142.526296
4 1657.173521 2852.440873
5 2750.987226 3962.680532
6 -4456.580624 3714.602760
7 1211.989949 1723.684521
8 -8588.510108 3154.200680
9 -2123.660485 8905.433200
10 -2729.632668 -2173.557858
11 92.207116 2403.291587
12 2320.965629 8618.776434
13 -376.456768 -1200.502642
14 -8053.092909 -5043.178949
15 -4098.853635 10748.458375
16 -4588.663370 -6486.773482
17 3079.370262 5044.620567
18 -7963.912654 -4502.988369
19 -5030.958381 -596.913258
20 -550.449733 1613.475625
21 6330.541016 -6264.599971
22 -8421.821600 565.798554
23 -7034.753576 -4646.544823
24 -4157.762767 -10435.805494
25 -6488.123387 -6381.418743
26 2226.688316 8728.009072
DEMAND_SECTION
1 0
2 9
3 4
4 60
5 7
6 8
7 5
8 2
9 10
10 5
11 6
12 4
13 2
14 7
15 6
16 8
17 5
18 9
19 10
20 2
21 6
22 6
23 7
24 1
25 2
26 72
DEPOT_SECTION
1
-1
EOF
