NAME : poryos-hong_kong-n100-hyb
COMMENT : Poryos2026 shortest metric; city hong_kong; 3-decimal seconds/meters; ENU ref in poryos-hong_kong-n100-hyb.vrp.json
TYPE : CVRP
DIMENSION : 101
EDGE_WEIGHT_TYPE : EXPLICIT
EDGE_WEIGHT_FORMAT : FULL_MATRIX
CAPACITY : 153
EDGE_WEIGHT_SECTION
0.000 12752.913 8407.858 3557.993 10704.024 4134.676 3967.447 5833.380 9334.308 4328.839 5303.531 18270.740 4317.521 3492.240 8970.371 10426.468 6646.356 3392.179 5206.996 8687.361 4226.209 4733.994 3480.464 3274.597 12787.212 14092.458 13743.346 10671.420 8567.023 9273.526 9614.916 2752.564 8800.804 4197.435 5542.505 10266.773 3681.696 10433.417 19135.379 5811.712 16399.547 12551.339 10380.887 5400.746 4358.575 5586.042 9885.977 8762.345 8520.077 6304.727 9155.193 9507.459 11827.892 16901.498 10675.265 11329.452 10942.008 22365.820 4951.781 9254.880 9336.759 7800.900 10919.214 5083.319 11293.958 7262.016 8755.897 4419.035 15906.074 15451.571 11552.012 9223.211 7154.800 9979.549 16457.108 16999.226 13545.800 16296.563 8968.394 10407.781 11319.135 13677.667 23261.548 9190.789 12035.528 10641.088 15322.999 6345.776 19803.308 9328.152 14696.871 10238.963 18984.704 10757.444 8006.962 9695.516 4254.542 23238.358 9975.783 16827.171 17233.318
12623.879 0.000 4534.992 10563.298 7360.931 13705.197 12660.551 14218.857 4870.152 9375.437 8670.021 29389.262 13895.233 10984.594 5331.973 7212.723 17849.909 10455.142 9147.176 4660.665 9756.923 9262.787 12382.994 11142.601 10360.700 24801.434 24452.322 7357.343 5429.483 6546.609 8518.145 11407.026 5074.962 12176.080 8719.738 6893.539 9482.348 8476.875 30253.902 9365.694 24785.024 1228.887 6731.584 9022.558 11560.435 9539.574 19116.068 6463.300 4687.730 9712.610 5103.365 6582.581 20644.234 14474.986 19491.607 22533.005 19938.618 32074.085 16155.334 8817.340 18222.180 14022.450 19915.825 11850.646 22021.865 16492.106 17985.987 15118.220 13479.562 26655.124 22279.920 18453.301 16015.943 18925.512 14030.596 14572.714 11119.288 24682.040 4490.020 21611.334 20549.225 24386.643 32969.813 13550.157 20851.871 9025.050 26031.975 17023.301 30921.830 18558.242 17586.609 19968.402 30103.226 13872.355 17237.052 18556.659 9940.387 32468.448 18792.125 14400.659 14806.806
8543.259 5299.331 0.000 6482.678 3443.197 9624.577 8579.931 10138.238 1302.196 5294.818 4589.401 25308.642 9814.613 6903.974 1168.124 3294.989 13769.289 6374.522 5066.556 321.677 5676.303 5182.167 8302.374 7061.981 6168.166 20720.814 20371.703 3439.609 1090.495 2354.075 4668.921 7326.406 875.025 8095.460 4639.118 2868.930 5401.728 4559.141 26173.282 5285.074 20704.404 5097.757 2813.850 4941.938 7479.815 5458.954 15035.448 2273.837 852.433 5631.990 1123.081 2243.593 16563.614 10282.452 15410.987 18452.386 15857.999 27993.465 12074.714 5377.794 14141.560 9941.830 15835.205 7770.026 17941.245 12411.486 13905.367 11037.601 9287.028 22574.505 18199.300 14372.681 11935.323 14844.892 9838.062 10380.180 6926.754 20601.420 1508.978 17530.714 16468.605 20306.023 28889.193 9469.537 16771.251 5151.365 21951.356 12942.681 26841.210 14477.622 13394.074 15887.782 26022.606 9679.821 13156.432 14476.039 5859.768 28387.828 14711.506 10208.125 10614.272
3744.338 10703.348 6358.292 0.000 8947.159 4016.905 4594.902 4593.105 7284.743 2571.974 3178.315 19700.970 4206.940 2918.945 6920.805 8669.603 8894.749 2389.492 2728.758 6637.795 2469.344 2977.129 4317.344 3076.952 10737.647 15113.142 14764.030 8914.556 6517.457 7223.961 7858.052 1524.921 6751.238 2449.634 3624.597 8217.207 1923.155 8676.552 20565.610 4054.847 15159.272 10501.773 8331.321 3643.881 2423.081 3107.804 11050.418 6712.780 6470.512 4547.863 7105.627 7457.893 12699.510 14851.932 11546.883 13577.846 11993.895 24008.436 7200.174 7498.015 10156.531 5368.831 11971.101 3199.397 12333.573 8426.457 9920.338 5294.440 13856.508 17418.675 12591.628 10387.652 7950.294 10859.863 14407.542 14949.660 11496.234 15056.287 6918.828 12656.174 12483.576 14698.351 24904.163 7433.924 12907.147 8884.223 16343.683 8957.651 21233.538 10492.593 12264.803 11902.752 20414.934 8325.375 9171.403 10491.010 1174.833 24402.799 10847.402 14777.606 15183.752
10992.394 7512.813 3311.356 8931.812 0.000 12073.711 9772.044 12587.372 2569.758 7449.802 7038.535 27757.776 12263.747 8822.891 2388.741 1013.442 16218.423 8721.020 7515.690 3202.484 7640.515 7176.280 9636.635 8794.489 8886.317 23169.948 22820.837 1158.062 3971.302 5234.881 2024.522 9775.540 2752.007 10544.594 7088.252 1333.453 7850.862 2354.063 28622.416 7734.208 23153.539 7311.239 1104.087 7391.072 9928.949 7908.088 15178.253 4861.450 3733.240 7838.992 2515.377 1955.334 16537.421 13000.602 15384.793 20901.520 15831.805 28159.298 14523.849 3204.720 14552.641 12390.964 15809.011 10219.160 20390.380 12822.568 14048.172 13486.735 12005.178 25023.639 20648.434 14538.514 12346.404 15255.973 12528.768 13070.886 9617.460 23050.554 3350.423 19979.848 16611.410 22755.157 29055.025 9368.110 16745.057 2900.676 24400.490 14766.692 29290.345 14620.427 16052.051 16053.614 28471.740 12337.797 13322.265 14887.120 8308.902 28445.357 14685.312 12898.831 13304.978
3952.639 13671.572 9326.517 4046.772 11928.893 0.000 7130.375 2243.911 10252.968 5929.272 6146.539 16223.924 1436.118 5651.976 9889.030 11780.685 8204.886 5251.492 5696.983 9606.020 5826.642 6334.427 6643.392 5809.984 10780.311 11636.096 11286.985 11925.305 9485.682 10192.186 11215.350 2983.549 9719.463 1861.398 6592.822 11185.432 5280.453 12033.850 17088.564 7144.483 12810.078 13469.998 11299.546 6690.083 3997.638 6076.029 12872.914 9681.005 9438.736 7712.713 10073.852 10426.118 14814.828 14968.083 13662.201 10327.047 13928.944 24867.116 6510.311 10855.313 12323.696 4246.987 13906.151 3412.575 8856.527 10248.952 11742.833 2659.106 13972.659 13941.630 9114.582 12210.147 10141.737 12966.485 14361.876 14903.994 11450.568 12707.093 9887.053 9405.375 14306.071 11221.305 26248.484 10791.222 15022.465 12241.521 12866.638 9505.441 17756.492 12315.088 11142.958 13225.900 16937.888 7203.531 10993.898 12682.453 4131.457 26225.294 12962.719 14731.940 15138.086
3166.149 12493.163 8148.108 3596.301 8491.982 6129.736 0.000 6733.840 9074.559 2856.195 5043.782 20314.978 6319.772 1241.304 8710.621 8214.426 9112.500 1496.298 5123.532 8427.611 2753.564 3261.350 853.374 1023.661 12527.462 16558.602 16209.491 8459.378 8307.273 9013.777 7402.874 3472.101 8541.054 4590.369 4723.102 8747.727 2475.125 8221.375 21179.617 4339.068 17300.007 12291.589 8437.699 3928.102 4535.913 5502.578 7755.800 8502.596 8260.328 4641.202 8895.443 9038.731 9435.255 16641.748 8282.628 13373.690 8729.639 20713.817 7417.926 7042.838 6861.912 7978.238 8706.846 5340.132 13760.102 5131.839 6625.719 6813.074 15646.324 17495.809 14018.157 7093.034 4655.675 7565.244 16197.358 16739.476 13286.050 17197.023 8708.644 12452.018 9188.957 16143.811 21609.545 7118.949 9642.891 8429.046 17789.144 6133.070 21847.546 7197.974 14874.209 8608.134 21028.942 10934.782 5876.785 7196.391 4292.851 21108.180 7583.146 16567.422 16973.568
5902.266 14482.731 10137.676 4857.930 12740.051 3718.056 8171.752 0.000 11064.126 6740.430 6957.698 18265.411 3922.888 6495.795 10700.188 12591.844 10140.549 6095.310 6508.142 10417.179 6637.800 7145.585 7894.194 6653.802 10495.367 13677.583 13328.471 12736.464 10296.841 11003.344 12026.508 4572.264 10530.621 3284.797 7403.980 11996.590 6091.612 12845.009 19130.051 7955.642 10901.764 14281.157 12110.704 7501.241 4664.561 6887.188 14702.223 10492.163 10249.895 8523.872 10885.011 11237.277 16351.402 14683.139 15198.774 12368.534 15645.786 26908.603 8445.974 11666.471 13808.336 4260.997 15622.992 3805.115 10898.014 12078.262 13572.143 5145.876 13687.715 15983.116 11156.069 14039.457 11602.099 14511.668 14076.932 14619.050 11165.624 10798.780 10698.212 11446.862 16135.381 13262.792 28184.147 11602.380 16559.038 13052.679 14908.124 11441.104 19797.979 14144.398 9881.283 15161.562 18979.375 6716.557 12823.208 14142.815 4942.615 28054.604 14499.293 14446.996 14853.142
9155.868 5352.524 930.883 7095.287 2631.840 10237.186 9192.540 10750.846 0.000 5907.426 5202.010 25921.251 10427.222 7516.583 469.523 2483.632 14381.898 6987.131 5679.165 1031.513 6288.912 5794.776 8914.983 7674.590 6878.002 21333.423 20984.311 2628.252 1800.331 3063.911 3857.564 7939.015 418.601 8708.069 5251.727 2164.447 6014.336 3747.784 26785.891 5897.683 21317.013 5150.950 2002.493 5554.547 8092.424 6071.563 15648.057 2983.673 1449.725 6244.599 233.213 2028.793 17176.223 10992.288 16023.596 19064.994 16470.607 28606.074 12687.323 4598.441 14754.169 10554.439 16447.814 8382.635 18553.854 13024.095 14517.976 11650.209 9996.863 23187.113 18811.909 14985.290 12547.932 15457.501 10547.897 11090.016 7636.590 21214.029 1190.134 18143.323 17081.214 20918.632 29501.802 10082.146 17383.860 4340.007 22563.964 13555.290 27453.819 15090.231 14103.910 16500.391 26635.215 10389.656 13769.041 15088.648 6472.376 29000.437 15324.114 10917.961 11324.108
4405.571 10378.719 6033.664 2620.138 6852.609 5921.709 3761.279 6497.909 6960.115 0.000 2929.338 21255.985 6111.745 2085.321 6596.177 6575.054 9631.601 1806.240 3188.047 6313.167 639.120 882.579 3483.721 2243.329 10413.018 17017.946 16668.834 6820.006 6192.829 6899.333 5763.502 3429.725 6426.610 4354.438 2608.658 7108.355 1136.551 6582.002 22120.625 2224.624 17064.076 10177.145 6798.327 1813.658 4327.885 3567.093 10189.828 6388.152 6145.884 2453.313 6780.999 7133.265 11638.413 14527.304 10485.785 14314.697 10932.797 23147.845 7937.026 5403.465 9295.940 7269.057 10910.003 5104.201 14238.377 7565.866 9059.747 7026.659 13531.880 18436.816 14496.432 9527.061 7089.703 9999.272 14082.914 14625.032 11171.606 16961.091 6594.200 13393.026 11622.985 16603.155 24043.573 5339.374 11846.049 6789.673 18248.487 8124.028 22788.553 9632.002 14165.029 11042.162 21969.949 10225.601 8310.812 9630.419 3075.059 23542.208 9786.304 14452.978 14859.124
5407.788 9619.341 5274.286 3387.123 7876.662 6573.137 5444.460 7086.798 6200.736 2163.044 0.000 22257.203 6763.173 3768.503 5836.799 7728.454 10633.818 3239.050 652.408 5553.789 2544.529 2050.393 5166.902 3926.510 9653.640 17669.374 17320.263 7873.074 5433.451 6139.954 6990.449 4274.966 5667.232 5044.021 1071.239 7133.201 2266.256 7808.950 23121.842 1818.804 17652.965 9417.767 7247.315 1391.739 4168.544 1044.806 11899.976 5628.773 5386.505 2260.039 6021.621 6373.887 13407.737 13767.926 12255.110 15316.914 12702.121 24857.994 8939.243 6630.412 11006.089 6824.362 12679.328 4458.754 14889.806 9276.015 10769.896 7986.161 12772.502 19439.033 15147.861 11237.210 8799.852 11709.421 13323.536 13865.654 10412.228 17549.980 5834.822 14395.243 13333.134 17254.584 25753.721 6241.154 13615.374 8016.621 18899.916 9807.209 23789.771 11342.151 13720.334 12752.310 22971.167 9780.906 10020.961 11340.568 2668.316 25252.357 11555.628 13693.599 14099.746
18640.621 29858.800 25513.745 20273.705 27809.910 17573.544 21010.018 17961.702 26440.195 21434.725 22373.473 0.000 17917.056 20898.550 26076.257 27532.355 13301.032 20498.065 21923.917 25793.248 21332.095 21839.881 20445.687 20900.419 26442.597 11485.168 11136.056 27777.307 25672.910 26379.413 26720.803 19601.142 25906.691 18033.202 22648.392 27372.660 20787.582 27539.304 1398.720 22917.599 28527.869 29657.226 27486.774 22506.633 20037.705 22302.963 21403.131 25868.232 25625.964 23410.614 26261.080 26613.346 25717.981 30630.368 23262.600 8846.322 22801.957 8643.192 13829.849 26360.766 21735.864 19906.401 22779.163 19220.890 10531.615 21662.128 22486.412 19550.009 29634.944 4968.722 10740.181 21522.947 21554.912 21800.115 30024.161 30566.280 27112.854 28424.884 26074.281 12252.181 23179.084 11070.377 10731.541 26296.675 23927.148 27746.975 12715.709 19275.004 3333.968 20752.234 26802.373 20751.852 2515.364 22862.945 21713.125 21662.390 20358.390 14162.892 23865.872 30394.225 30800.372
3922.163 13953.901 9608.846 4329.101 12211.222 1607.779 7046.755 3273.314 10535.297 6211.601 6428.868 17343.939 0.000 5934.306 10171.359 12063.015 8070.468 5533.821 5979.312 9888.349 6108.971 6616.756 6559.772 6092.313 11809.715 12756.111 12406.999 12207.635 9768.011 10474.515 11497.679 3265.878 10001.792 2143.728 6875.151 11467.761 5562.783 12316.179 18208.579 7426.813 13839.481 13752.327 11581.875 6972.412 4279.967 6358.358 12738.495 9963.334 9721.066 7995.042 10356.181 10708.447 14680.410 15997.487 13527.783 11447.062 13794.526 25218.338 6375.893 11137.642 12189.277 5276.390 13771.732 3694.904 9976.542 10114.534 11608.415 2297.136 15002.062 15061.644 10234.597 12075.729 10007.318 12832.067 15391.280 15933.398 12479.972 13736.497 10169.382 10525.390 14171.653 12341.320 26114.066 11073.551 14888.046 12523.850 13986.652 9371.022 18876.507 12180.670 12172.362 13091.481 18057.903 8232.934 10859.480 12548.034 4413.786 26090.876 12828.301 15761.343 16167.490
2974.083 11591.256 7246.201 2698.999 8268.437 5232.434 1874.991 5836.538 8172.652 1954.287 4141.874 20212.760 5422.470 0.000 7808.714 7990.881 8588.376 594.391 4221.625 7525.704 1851.657 2359.442 1653.096 554.904 11625.555 16034.478 15685.367 8235.833 7405.366 8111.870 7179.329 2574.799 7639.147 3693.067 3821.195 8524.182 1573.218 7997.830 21077.400 3437.161 16402.705 11389.682 8214.154 3026.194 3638.611 4600.671 8590.550 7600.689 7358.421 3930.176 7993.536 8345.802 10270.005 15739.841 9117.378 13271.473 9564.389 21548.568 6893.802 6819.293 7696.663 7080.935 9541.596 4442.830 13235.978 5966.589 7460.470 5983.435 14744.417 17393.592 13494.033 7927.784 5490.426 8399.995 15295.451 15837.569 12384.143 16299.720 7806.737 12349.801 10023.708 15619.687 22444.295 6803.082 10477.642 8205.501 17265.020 6293.403 21745.329 8032.725 13976.907 9442.885 20926.724 10037.480 6711.535 8031.142 3395.549 21942.931 8417.896 15665.514 16071.661
9245.960 5667.235 1294.787 7185.378 2382.250 10327.277 9282.631 10840.938 724.180 5997.518 5292.101 26011.342 10517.313 7606.674 0.000 2234.043 14471.989 7077.222 5769.256 1185.915 6379.003 5884.867 9005.074 7764.682 7032.404 21423.514 21074.403 2378.663 1954.733 3218.312 3607.974 8029.106 735.438 8798.160 5341.818 1793.347 6104.428 3498.195 26875.982 5987.774 21407.105 5465.661 1752.903 5644.638 8182.515 6161.654 15738.148 3115.016 1716.671 6334.690 498.808 1608.123 17266.315 11146.689 16113.687 19155.086 16560.699 28696.165 12777.415 4302.211 14844.260 10644.530 16537.905 8472.726 18643.946 13114.187 14608.067 11740.301 10151.265 23277.205 18902.000 15075.382 12638.023 15547.592 10702.299 11244.417 7790.991 21304.120 1504.845 18233.414 17171.305 21008.723 29591.893 10172.237 17473.951 4090.418 22654.056 13645.381 27543.911 15180.322 14258.312 16590.482 26725.306 10544.058 13859.133 15178.739 6562.468 29090.528 15414.206 11072.363 11478.509
10739.490 7846.286 3644.829 8954.056 571.646 12255.627 9104.568 12831.828 2903.231 6782.326 7372.008 27589.904 12445.663 8155.415 2722.213 0.000 15965.520 8053.544 7849.163 3535.956 6973.039 6508.804 8969.159 8127.013 9212.996 23351.864 23002.753 539.043 4304.774 5568.354 1873.284 9763.643 3085.479 10688.357 7421.725 1657.700 7470.470 1686.587 28454.543 7285.206 23397.995 7644.712 1226.533 6901.731 10262.422 8241.561 14510.777 5194.922 4066.712 7171.516 2848.849 2162.501 15869.945 13334.075 14717.317 20648.616 15164.329 27491.822 14270.945 2537.244 13885.165 12724.437 15141.535 10552.633 20572.296 12155.092 13380.696 13360.578 12338.651 24770.735 20830.351 13871.038 11678.928 14588.497 12794.561 13336.679 9883.253 23295.010 3683.896 19726.945 15943.934 22937.074 28387.549 8700.634 16077.581 2995.343 24582.406 14099.216 29122.472 13952.951 16317.844 15386.138 28303.868 12603.590 12654.789 14219.644 8642.374 27777.881 14017.836 13164.624 13570.771
6956.874 18175.052 13829.997 8974.002 16126.163 7770.267 9861.274 9468.971 14756.447 9750.978 10725.670 13101.495 8024.734 9214.802 14392.510 15848.607 0.000 8814.317 10629.135 14109.500 9648.347 10156.133 9529.884 9372.809 18005.372 8876.113 8527.002 16093.559 13989.162 14695.665 15037.055 7917.395 14222.943 8327.606 10964.644 15688.912 9103.834 15855.556 13966.134 11233.851 20035.138 17973.478 15803.026 10822.885 9693.049 11008.181 11220.930 14184.484 13942.216 11726.866 14577.332 14929.598 14442.195 22193.143 13080.399 6160.207 12619.756 21477.520 1632.227 14677.019 11553.663 11472.047 12596.962 9878.783 6077.613 9876.319 11370.200 8384.758 21197.719 10282.326 6335.668 11340.746 9769.103 11617.914 21586.936 22129.055 18675.629 19932.153 14390.533 5238.535 12996.883 8461.322 22373.248 14612.928 13744.947 16063.227 10106.655 8359.201 14634.063 10570.033 18368.019 10569.651 13815.459 14428.591 10621.265 11480.189 9670.552 23425.048 12590.086 21957.000 22363.147
3606.242 11130.621 6785.566 2220.359 7808.891 5521.930 2921.511 6098.131 7712.016 1493.652 3681.239 20780.574 5711.966 1245.554 7348.078 7531.335 9156.190 0.000 3642.117 7065.069 1391.022 1898.807 2643.954 1403.562 11164.920 16602.291 16253.180 7776.287 6944.731 7651.234 6719.783 3029.946 7178.511 3954.660 3360.559 8064.636 993.710 7538.284 21645.213 2976.525 16664.298 10929.047 7754.608 2565.559 3928.107 4021.164 9461.635 7140.053 6897.785 3469.540 7532.901 7885.167 11110.727 15279.205 9958.100 13839.286 10405.111 22419.652 7461.615 6359.747 8567.747 7110.907 10382.317 4704.423 13803.791 6837.673 8331.554 6551.248 14283.781 17961.405 14061.846 8798.868 6361.510 9271.079 14834.815 15376.934 11923.508 16561.313 7346.102 12917.614 10894.792 16187.501 23315.380 6342.447 11318.363 7745.955 17832.833 7284.261 22313.142 8903.809 14006.879 10313.969 21494.538 10067.451 7582.619 8902.226 2916.909 22814.015 9258.618 15204.879 15611.026
5676.867 9350.950 5005.895 2936.148 7608.270 5991.972 6015.511 6505.633 5932.345 2722.340 1368.591 21676.037 6182.008 4339.554 5568.407 7460.063 10902.897 3810.102 0.000 5285.398 3103.825 2609.689 5737.954 4497.561 9385.249 17088.209 16739.098 7604.683 5165.060 5871.563 7646.354 3693.801 5398.840 4395.182 2150.040 6864.809 3091.769 8464.854 22540.677 2591.620 17071.800 9149.376 6978.923 2369.460 3516.135 647.558 12471.028 5360.382 5118.114 2938.536 5753.230 6105.496 13991.136 13499.535 12838.509 15585.993 13285.521 25429.045 9208.322 7286.317 11577.140 6171.954 13262.727 3806.346 14308.640 9847.066 11340.947 7404.996 12504.110 19393.743 14566.695 11808.261 9370.903 12280.472 13055.144 13597.263 10143.837 16968.815 5566.431 14664.322 13904.185 16673.418 26324.773 6897.059 14198.773 8672.525 18318.751 10378.261 23208.605 11913.202 13067.926 13323.362 22390.001 9128.498 10592.012 11911.619 2015.908 25823.408 12139.028 13425.208 13831.355
8522.934 4977.653 623.893 6462.352 3545.030 9604.251 8559.606 10117.912 1404.029 5274.492 4569.076 25288.317 9794.287 6883.649 1178.412 3396.822 13748.964 6354.196 5046.230 0.000 5655.977 5161.842 8282.048 7041.656 5846.489 20700.488 20351.377 3541.442 768.818 2032.398 4770.754 7306.080 976.858 8075.135 4618.793 2869.184 5381.402 4626.907 26152.956 5264.748 20684.079 4776.079 2915.683 4921.613 7459.490 5438.628 15015.122 1952.160 530.756 5611.665 1224.913 2239.415 16543.289 9960.775 15390.662 18432.060 15837.673 27973.140 12054.389 5378.048 14121.235 9921.504 15814.880 7749.700 17920.920 12391.161 13885.042 11017.275 8965.350 22554.179 18178.975 14352.356 11914.998 14824.567 9516.384 10058.503 6605.077 20581.094 1187.301 17510.389 16448.280 20285.698 28868.867 9449.212 16750.925 5253.198 21931.030 12922.355 26820.885 14457.297 13072.397 15867.456 26002.281 9358.143 13136.107 14455.714 5839.442 28367.503 14691.180 9886.448 10292.595
4413.010 9739.599 5394.544 2627.576 6926.919 5929.147 3768.717 6505.347 6320.994 265.073 2290.217 21263.423 6119.183 2092.760 5957.057 6649.364 9639.039 1813.679 2548.927 5674.047 0.000 512.662 3491.160 2250.767 9773.898 17025.384 16676.273 6894.316 5553.709 6260.212 5837.812 3437.163 5787.490 4361.876 1969.538 7182.665 1143.990 6656.312 22128.063 1585.504 17071.514 9538.025 6872.637 1174.537 4335.323 2927.973 10202.862 5749.031 5506.763 2083.396 6141.879 6494.145 11851.954 13888.184 10699.327 14322.136 11146.338 23160.879 7944.465 5477.775 9308.974 7144.786 11123.544 4972.982 14245.816 7578.900 9072.781 7034.098 12892.760 18444.255 14503.870 9540.095 7102.737 10012.306 13443.794 13985.912 10532.486 16968.530 5955.080 13400.464 11636.019 16610.593 24056.607 5088.517 12059.590 6863.983 18255.926 8131.467 22795.992 9645.036 14040.757 11055.196 21977.387 10101.330 8323.846 9643.453 3062.723 23555.242 9999.845 13813.857 14220.004
4792.075 10159.400 5814.345 3006.641 6579.417 6308.212 4120.655 6884.413 6740.795 608.952 2374.229 21642.489 6498.248 2468.433 6376.858 6301.862 10018.105 2189.352 2859.169 6093.848 1025.624 0.000 3866.833 2524.710 10193.699 17404.449 17055.338 6546.814 5973.510 6680.013 5490.310 3816.228 6207.291 4740.942 2003.712 6835.163 1523.055 6308.811 22507.128 1612.035 17450.580 9957.826 6525.135 1201.069 4714.389 3251.567 10175.922 6168.832 5926.564 1747.733 6561.680 6913.946 11535.090 14307.985 10382.463 14701.201 10829.474 23156.967 8323.530 5130.274 9450.861 7564.587 10806.681 5392.783 14624.881 7720.788 9045.842 7413.163 13312.561 18823.320 14882.936 9536.183 7244.625 10154.194 13863.595 14405.713 10952.287 17347.595 6374.881 13779.530 11609.080 16989.659 24052.695 4741.015 11742.726 6516.482 18634.991 8507.140 23175.057 9618.097 14460.558 11051.284 22356.453 10521.131 8319.935 9785.341 3461.563 23443.027 9682.981 14233.658 14639.805
3179.722 12964.221 8619.166 4044.303 9122.889 6234.177 1246.162 7181.842 9545.616 3327.252 5514.839 19968.004 6488.645 1872.211 9181.678 8845.333 8895.543 1967.355 5584.611 8898.669 3224.622 3732.407 0.000 1654.568 12998.520 16341.645 15992.533 9090.285 8778.331 9484.834 8033.781 3920.103 9012.112 5038.371 5194.160 9378.634 2946.182 8852.282 20832.644 4810.125 17748.009 12762.647 9068.606 4399.159 4983.915 5963.657 8011.048 8973.653 8731.385 5272.109 9366.501 9669.638 9690.503 17112.806 8537.876 13026.717 8984.887 20969.065 7200.968 7673.745 7117.160 8426.240 8962.094 5788.134 13543.145 5387.087 6880.968 6826.647 16117.381 17148.836 13801.200 7348.282 4910.924 7820.492 16668.415 17210.534 13757.108 17645.025 9179.702 12105.045 9444.206 15926.854 21864.793 7749.856 9898.139 9059.953 17572.186 5786.096 21500.572 7453.223 15322.211 8863.382 20681.968 11382.784 6132.033 7451.640 4740.853 21363.429 7838.394 17038.479 17444.626
3022.355 11961.235 7616.180 3064.373 8452.278 5597.808 1616.571 6201.912 8542.630 2324.266 4511.853 20277.801 5787.844 883.886 8178.693 8174.723 8953.750 964.369 4591.604 7895.683 2221.636 2729.421 1455.586 0.000 11995.534 16399.852 16050.740 8419.675 7775.345 8481.848 7363.171 2940.173 8009.126 4058.441 4191.174 8708.024 1943.197 8181.672 21142.440 3807.140 16768.079 11759.661 8397.996 3396.173 4003.984 4970.650 8332.130 7970.667 7728.399 4300.155 8363.515 8715.781 10011.585 16109.820 8858.958 13336.513 9305.969 21290.148 7259.175 7003.135 7438.242 7446.309 9283.176 4808.204 13601.352 5708.169 7202.050 6348.808 15114.396 17458.632 13859.407 7669.364 5232.006 8141.575 15665.430 16207.548 12754.122 16665.094 8176.716 12414.842 9765.288 15985.061 22185.875 7079.246 10219.222 8389.343 17630.393 6095.893 21810.369 7774.305 14342.281 9184.464 20991.765 10402.853 6453.115 7772.722 3760.923 21684.511 8159.476 16035.493 16441.640
13486.388 10316.681 6094.651 11425.806 8869.124 11911.764 13523.059 11051.572 6906.461 10237.946 9532.529 26378.282 12116.597 11847.102 6619.957 8720.917 18334.258 11317.650 10009.684 5950.335 10619.431 10125.295 13245.502 12005.110 0.000 21790.453 21441.342 8865.537 5486.501 4441.622 10111.637 11898.270 6450.390 11349.506 9582.246 8064.814 10344.856 9755.256 27242.921 10228.202 19496.608 10115.107 8239.777 9885.066 10444.111 10402.082 19978.576 4665.192 5424.853 10575.118 6751.738 7263.967 21506.743 4297.736 20354.115 20481.404 20801.127 32936.593 16639.683 10411.490 19084.688 7493.099 20778.333 9763.715 19010.885 17354.615 18848.495 13339.585 3302.311 24095.987 19268.940 19315.810 16878.451 19788.020 3875.387 4426.918 1196.668 19393.623 6526.328 19559.733 21411.733 21375.663 33832.321 14412.665 21714.379 10594.081 23020.995 17885.809 27910.850 19420.750 9988.849 20830.910 27092.246 6274.595 18099.561 19419.167 10763.651 33330.956 19654.634 4225.827 4631.973
13843.818 24600.277 20255.222 14975.476 22857.598 12275.315 17019.719 12663.473 21181.672 16637.923 17075.244 11101.194 12618.827 16101.747 20817.734 22709.390 8444.625 15701.262 16625.688 20534.725 16535.292 17043.078 16532.736 16259.754 21144.368 0.000 1063.425 22854.010 20414.387 21120.890 21924.000 14303.449 20648.168 12734.973 17521.527 22114.137 15990.779 22742.501 11965.833 18073.188 23229.640 24398.703 22228.251 17618.788 14739.476 17004.734 17613.439 20609.709 20367.441 18613.811 21002.557 21354.823 21783.409 25332.139 19472.908 7866.974 19012.265 19744.386 8973.441 21563.964 17946.172 14608.172 18989.471 13922.661 2704.941 17217.533 18696.720 14251.780 24336.715 8818.899 2913.507 17733.255 17110.318 18010.423 24725.932 25268.051 21814.625 23126.655 20815.758 8336.347 19389.392 783.723 21832.735 21499.873 20137.456 22950.172 3984.318 15455.534 12633.762 16962.542 21504.144 16962.160 11815.158 17564.716 17923.433 17872.698 15060.161 25264.086 19931.300 25095.996 25502.143
13888.208 24644.667 20299.612 15019.866 22901.987 12319.705 17064.108 12707.863 21226.062 16682.312 17119.634 11145.584 12663.217 16146.137 20862.124 22753.780 8489.014 15745.652 16670.078 20579.115 16579.682 17087.467 16577.125 16304.144 21188.757 1357.414 0.000 22898.400 20458.777 21165.280 21968.390 14347.839 20692.557 12779.363 17565.916 22158.526 16035.169 22786.890 12010.223 18117.578 23274.030 24443.093 22272.640 17663.177 14783.866 17049.124 17657.829 20654.099 20411.831 18658.201 21046.947 21399.213 21827.799 25376.529 19517.298 7911.364 19056.655 19788.776 9017.831 21608.353 17990.562 14652.562 19033.861 13967.051 2749.330 17261.923 18741.110 14296.170 24381.105 8863.289 2957.896 17777.644 17154.707 18054.813 24770.322 25312.441 21859.015 23171.045 20860.148 8380.737 19433.782 942.624 21877.125 21544.262 20181.846 22994.561 4028.708 15499.923 12678.152 17006.932 21548.534 17006.550 11859.548 17609.106 17967.823 17917.088 15104.551 25308.476 19975.690 25140.386 25546.533
11038.392 7602.483 3401.025 8977.810 440.271 12119.709 9410.580 12633.370 2659.427 7088.338 7084.534 27803.775 12309.745 8461.427 2478.410 345.852 16264.421 8359.556 7561.688 3292.153 7279.051 6814.816 9275.171 8433.025 8932.315 23215.946 22866.835 0.000 4060.971 5324.551 1334.241 9821.538 2841.676 10590.593 7134.251 1535.551 7776.482 2032.440 28668.414 7591.218 23199.537 7400.909 1306.184 7207.743 9974.948 7954.086 14816.789 4907.448 3822.909 7477.528 2605.046 1995.170 16175.956 13046.601 15023.329 20947.518 15470.341 27797.833 14569.847 2565.462 14191.177 12436.962 15447.547 10265.158 20436.378 12461.103 13686.708 13532.733 12051.176 25069.637 20694.433 14177.050 11984.940 14894.509 12534.299 13076.418 9622.992 23096.552 3440.093 20025.846 16249.946 22801.156 28693.561 9006.646 16383.593 2456.300 24446.488 14405.228 29336.343 14258.963 16057.582 15692.150 28517.739 12343.328 12960.801 14525.656 8354.900 28083.893 14323.848 12904.363 13310.510
8797.418 5733.845 1380.085 6736.837 4180.155 9878.736 8834.090 10392.396 2160.220 5548.976 4843.560 25562.801 10068.771 7158.133 1930.987 4031.947 14023.448 6628.681 5320.715 1179.702 5930.462 5436.326 8556.533 7316.140 5665.761 20974.973 20625.861 4176.567 0.000 1851.670 5422.668 7580.565 1733.049 8349.619 4893.277 3436.694 5655.886 5194.418 26427.441 5539.233 20958.563 5532.271 3550.808 5196.097 7733.974 5713.113 15289.607 1771.432 1013.609 5886.149 1981.105 2782.867 16817.773 9780.047 15665.146 18706.544 16112.157 28247.624 12328.873 5930.391 14395.719 10195.989 16089.364 8024.185 18195.404 12665.645 14159.526 11291.759 8784.622 22828.663 18453.459 14626.840 12189.482 15099.051 9335.656 9877.775 6424.349 20855.579 1943.492 17784.873 16722.764 20560.182 29143.352 9723.696 17025.409 5905.112 22205.514 13196.840 27095.369 14731.781 12891.669 16141.941 26276.765 9177.416 13410.591 14730.198 6113.926 28641.987 14965.664 9705.720 10111.867
9853.116 6197.805 1975.775 7792.534 4969.123 10934.433 9889.787 11448.094 2787.584 6604.674 5899.257 26618.498 11124.469 8213.830 2694.050 4820.915 15079.145 7684.378 6376.412 1847.603 6986.159 6492.023 9612.230 8371.838 4623.864 22030.670 21681.559 4965.535 1422.364 0.000 6194.846 8636.262 2400.950 9405.316 5948.974 4394.856 6711.584 6085.067 27483.138 6594.930 21357.532 5996.231 4339.776 6251.795 8789.671 6768.810 16345.304 1096.451 1305.976 6941.846 2649.006 3630.695 17873.471 8738.150 16720.843 19762.242 17167.855 29303.321 13384.571 6778.218 15451.416 9354.022 17145.061 9079.882 19251.102 13721.343 15215.224 12347.457 7742.726 23884.361 19509.156 15682.538 13245.179 16154.748 8293.760 8835.878 5382.452 21254.547 2407.452 18840.570 17778.461 21615.880 30199.049 10779.393 18081.107 6677.290 23261.212 14252.537 28151.067 15787.478 11849.773 17197.638 27332.462 8135.519 14466.289 15785.895 7169.624 29697.685 16021.362 8663.823 9069.970
10271.232 8518.912 4611.571 8485.798 1636.608 11787.369 8636.310 12363.570 3869.973 6314.068 7606.633 27121.646 11977.405 7687.157 3688.956 1359.053 15497.262 7585.286 8091.573 4502.699 6504.781 6040.546 8500.901 7658.755 10142.861 22883.606 22534.495 1604.005 5271.517 6535.096 0.000 9295.385 4052.222 10220.099 7236.117 2722.662 7002.212 2751.549 27986.285 6816.948 22929.737 8611.455 2291.495 6433.473 10193.546 8483.971 14042.519 6117.994 5033.455 6703.258 3815.592 3205.715 15401.687 14257.146 14249.059 20180.358 14696.071 27023.564 13802.687 1727.389 13416.907 12665.897 14673.277 10625.187 20104.038 11686.834 12912.438 12892.320 13261.722 24302.477 20362.093 13402.780 11210.670 14120.239 13744.845 14286.963 10833.537 22826.752 4650.638 19258.686 15475.676 22468.816 27919.291 8232.376 15609.323 1122.059 24114.148 13630.958 28654.214 13484.693 17268.128 14917.880 27835.610 13553.874 12186.531 13751.386 8714.929 27309.623 13549.578 14114.909 14521.055
2765.521 11429.235 7084.180 1549.438 9686.556 2740.943 4683.839 3906.982 8010.631 3431.939 3904.202 18425.008 2930.979 3007.881 7646.693 9529.568 7709.282 2607.397 3454.646 7363.683 3329.308 3837.094 4406.281 3165.889 11463.534 13837.180 13488.068 9682.969 7243.345 7949.849 8718.016 0.000 7477.126 1763.511 4350.485 8943.095 2783.120 9536.517 19289.648 4902.147 14473.149 11227.661 9057.209 4447.746 1879.264 3833.692 11214.310 7438.668 7196.400 5407.827 7831.515 8183.781 12863.488 15577.820 11710.861 12392.379 12157.873 24172.327 6014.707 8357.980 10320.422 5283.410 12135.079 2513.274 11057.611 8590.349 10084.230 4108.973 14582.396 16142.713 11315.666 10551.544 8114.186 11023.755 15133.430 15675.548 12222.122 14370.165 7644.716 11470.707 12647.468 13422.389 25068.055 8293.889 13071.125 9744.188 15067.721 8321.586 19957.576 10656.485 12179.381 12066.644 19138.972 8239.954 9335.295 10654.902 1889.120 24566.691 11011.380 15503.494 15909.640
8852.907 5228.974 574.172 6792.325 2912.769 9934.224 8889.579 10447.885 693.257 5604.465 4899.049 25618.290 10124.260 7213.622 704.452 2764.562 14078.937 6684.169 5376.203 674.802 5985.950 5491.815 8612.021 7371.629 6521.290 21030.461 20681.350 2909.182 1443.620 2707.199 4138.493 7636.053 0.000 8405.108 4948.766 2429.525 5711.375 4028.713 26482.929 5594.721 21014.052 5027.400 2283.422 5251.586 7789.463 5768.601 15345.095 2626.961 1093.014 5941.638 514.142 1909.399 16873.262 10635.576 15720.635 18762.033 16167.646 28303.113 12384.362 4879.370 14451.207 10251.477 16144.853 8079.673 18250.893 12721.134 14215.015 11347.248 9640.152 22884.152 18508.948 14682.329 12244.971 15154.540 10191.186 10733.304 7279.878 20911.067 1141.036 17840.362 16778.253 20615.671 29198.840 9779.185 17080.898 4620.937 22261.003 13252.328 27150.858 14787.270 13747.199 16197.429 26332.254 10032.945 13466.080 14785.687 6169.415 28697.476 15021.153 10561.249 10967.396
3405.781 12306.047 7960.992 2681.246 10563.368 1949.172 6008.403 2947.816 8887.442 4563.747 4781.014 17633.237 2139.208 4332.446 8523.505 10415.160 7869.950 3931.961 4331.458 8240.495 4461.116 4968.902 5730.846 4490.453 11100.304 13045.409 12696.298 10559.780 8120.157 8826.660 9849.824 2000.910 8353.938 0.000 5227.297 9819.907 3914.928 10668.325 18497.877 5778.958 13513.983 12104.473 9934.021 5324.558 2756.076 4710.504 12502.048 8315.479 8073.211 6347.188 8708.327 9060.593 14188.053 15288.075 13035.426 11736.360 13482.437 24981.891 6175.375 9489.788 11644.987 4564.109 13459.643 2490.123 10265.840 9878.086 11371.967 3362.196 14292.651 15350.943 10523.895 11839.281 9438.750 12348.319 14681.869 15223.987 11770.561 13410.998 8521.528 10814.688 13935.205 12630.618 25877.618 9425.697 14395.689 10875.996 14275.951 8961.846 19165.805 11944.222 11460.080 12855.034 18347.201 7520.653 10623.032 11979.466 2765.931 25854.428 12335.944 15051.932 15458.079
5554.683 9231.504 4886.449 3534.019 7488.825 6817.298 5518.679 7330.959 5812.900 2015.036 1421.722 22405.097 7007.334 3842.722 5448.962 7340.617 10780.713 3385.218 1906.662 5165.952 2396.521 1902.385 5241.122 4000.730 9265.803 17913.535 17564.424 7485.237 5045.614 5752.118 6619.822 4519.127 5279.395 5288.181 0.000 6745.364 2412.424 7438.323 23269.737 1207.443 17897.126 9029.930 6859.478 1021.112 4672.536 2299.060 11677.943 5240.937 4998.669 1775.672 5633.784 5986.050 13037.110 13380.089 11884.483 15463.810 12331.495 24658.987 9086.139 6259.786 11052.331 7134.551 12308.701 4962.747 15133.967 9322.257 10547.862 8175.772 12384.665 19585.929 15392.021 11038.204 8846.094 11755.663 12935.699 13477.817 10024.391 17794.141 5446.985 14542.138 13111.100 17498.744 25554.715 5870.527 13244.747 7645.994 19144.077 9881.429 23937.666 11120.117 14030.523 12553.304 23119.061 10091.095 9821.955 11386.810 3052.489 24945.047 11185.002 13305.762 13711.909
9808.218 6715.423 2513.966 7747.636 1970.984 10889.535 9844.890 11403.196 1772.368 6559.776 5854.360 26573.601 11079.571 8168.932 1591.351 1822.777 15034.247 7639.480 6331.514 2405.094 6941.261 6447.125 9567.332 8326.940 7702.141 21985.772 21636.661 1967.397 3173.912 4188.455 3213.497 8591.364 1954.617 9360.418 5904.076 0.000 6666.686 2763.435 27438.240 6550.032 21969.363 6513.849 1341.637 6206.897 8744.773 6723.912 15297.869 3677.274 2935.850 6896.949 1717.986 766.573 16657.037 11816.426 15504.410 19717.344 15951.421 28278.914 13339.673 3419.670 14672.257 11206.788 15928.627 9034.984 19206.204 12942.184 14167.788 12302.559 10821.002 23839.463 19464.259 14658.130 12466.021 15375.590 11305.703 11847.821 8394.395 21866.378 2553.033 18795.672 16731.026 21570.982 29174.642 9487.726 16864.673 3695.941 23216.314 14207.639 28106.169 14740.043 14828.986 16173.231 27287.565 11114.732 13441.881 15006.737 7124.726 28564.973 14804.928 11675.766 12081.913
3726.530 10434.328 6089.273 1941.096 7595.950 5242.667 3339.167 5818.867 7015.724 1220.765 2984.946 20576.943 5432.703 1663.209 6651.786 7318.394 8952.559 1133.757 2930.316 6368.776 1118.135 1625.920 3061.609 1821.217 10468.627 16338.904 15989.793 7563.346 6248.438 6954.942 6506.842 2750.683 6482.219 3675.397 3087.672 7851.695 0.000 7325.343 21441.583 2703.638 16385.034 10232.754 7541.667 2292.672 3648.844 3309.362 9773.817 6443.760 6201.492 3196.653 6836.608 7188.874 11422.909 14582.913 10270.282 13635.656 10717.293 22731.834 7257.985 6146.806 8879.929 6632.877 10694.500 4425.160 13559.336 7149.855 8643.736 6347.618 13587.489 17757.775 13817.390 9111.050 6673.692 9583.261 14138.523 14680.641 11227.215 16282.050 6649.809 12713.984 11206.974 15924.113 23627.562 6082.715 11630.545 7533.014 17569.446 7701.916 22109.512 9215.991 13528.849 10626.151 21290.907 9589.421 7894.801 9214.408 2438.879 23126.197 9570.800 14508.586 14914.733
10877.790 8554.291 4352.834 9092.356 1279.652 12393.927 9242.868 12970.128 3611.236 6920.626 7951.779 27728.204 12583.963 8293.715 3430.219 1002.096 16103.820 8191.844 8428.933 4243.962 7111.339 6647.104 9107.459 8265.313 9716.678 23490.164 23141.053 1247.048 5012.780 6276.359 2385.643 9901.943 3793.485 10826.657 7842.675 2291.345 7608.770 0.000 28592.843 7423.506 23536.295 8352.717 1860.177 7040.031 10800.104 8821.331 14649.077 5787.106 4774.718 7309.816 3556.855 2647.772 16008.245 13904.449 14855.617 20786.916 15302.629 27630.122 14409.245 2642.325 14023.465 13272.456 15279.835 11132.403 20710.596 12293.392 13518.996 13498.878 12909.025 24909.035 20968.651 14009.338 11817.229 14726.797 13298.242 13840.361 10386.935 23433.310 4391.901 19865.245 16082.234 23075.374 28525.849 8838.934 16215.881 3411.815 24720.706 14237.516 29260.772 14091.251 16821.525 15524.439 28442.168 13107.272 12793.089 14357.944 9222.145 27916.181 14156.136 13668.306 14074.453
19237.039 30455.217 26110.162 20870.123 28406.328 18169.962 21606.435 18558.119 27036.613 22031.143 22969.890 1260.918 18513.473 21494.967 26672.675 28128.772 13897.450 21094.483 22520.334 26389.665 21928.513 22436.298 21042.104 21496.836 27039.014 12081.585 11732.474 28373.725 26269.327 26975.831 27317.220 20197.560 26503.108 18629.620 23244.810 27969.077 21384.000 28135.721 0.000 23514.016 29124.286 30253.643 28083.191 23103.050 20634.123 22899.380 21999.549 26464.650 26222.382 24007.031 26857.497 27209.763 26314.398 31226.786 23859.017 9442.739 23398.374 8828.381 14426.266 26957.184 22332.282 20502.819 23375.581 19817.307 11128.032 22258.546 23082.829 20146.427 30231.361 5565.140 11336.599 22119.364 22151.330 22396.532 30620.579 31162.697 27709.271 29021.301 26670.698 12848.599 23775.501 11666.795 10916.730 26893.093 24523.565 28343.392 13312.127 19871.422 2762.028 21348.652 27398.791 21348.270 2360.302 23459.363 22309.543 22258.808 20954.808 14348.081 24462.289 30990.642 31396.789
5885.503 10076.452 5731.397 4035.448 7431.223 7401.641 5241.211 7977.841 6657.847 1737.567 1970.140 22735.917 7591.677 3565.254 6293.910 7153.668 11111.533 3286.173 2343.347 6010.900 2119.052 1624.917 4963.653 3723.261 10110.751 18497.878 18148.766 7398.620 5890.562 6597.065 6342.116 4909.657 6124.343 5834.370 1274.027 7590.312 2616.484 7160.616 23600.557 0.000 18544.008 9874.878 7376.940 1112.614 5358.621 2735.745 11400.236 6085.884 5843.616 568.230 6478.732 6830.998 12759.404 14225.037 11606.777 15794.630 12053.788 24381.281 9416.958 5982.079 10774.624 7820.635 12030.995 5648.831 15718.309 9044.551 10270.156 8506.592 13229.613 19916.749 15976.364 10760.497 8568.388 11477.957 13780.647 14322.765 10869.339 18441.023 6291.933 14872.958 12833.393 18083.087 25277.009 5592.821 12967.040 7368.287 19728.420 9603.960 24268.485 10842.410 14716.607 12275.598 23449.881 10777.179 9544.248 11109.104 3738.573 24667.340 10907.295 14150.710 14556.857
16659.482 25239.947 20894.892 15615.146 23497.267 14475.272 18928.968 11596.005 21821.342 17497.646 17714.914 29022.627 14680.104 17253.011 21457.404 23349.060 20897.765 16852.526 17265.358 21174.395 17395.016 17902.802 18651.410 17411.018 19654.444 24434.799 24085.687 23493.680 21054.057 21363.147 22783.724 15329.480 21287.837 14042.013 18161.196 22753.807 16848.828 23602.225 29887.267 18712.858 0.000 25038.373 22867.920 18258.457 15421.777 17644.404 25459.439 21249.379 21007.111 19281.088 21642.227 21994.493 27108.618 23842.216 25955.990 23125.750 26403.002 37665.819 19203.190 22423.687 24565.552 14962.075 26380.208 14562.331 21655.230 22835.478 24329.359 15903.092 22846.791 26740.332 21913.285 24796.673 22359.315 25268.884 23236.009 23778.127 20324.701 171.371 21455.428 22204.078 26892.597 24020.008 38941.363 22359.596 27316.254 23809.896 25665.340 22198.320 30555.195 24901.614 11874.644 25918.779 29736.591 15031.466 23580.424 24900.031 15699.831 38811.820 25256.509 23606.072 24012.219
12209.222 1786.868 4120.335 10148.640 6946.274 13290.539 12245.894 13804.200 4455.495 8960.780 8255.364 28974.605 13480.575 10569.937 4917.316 6798.066 17435.252 10040.484 8732.518 4246.007 9342.265 8848.130 11968.336 10727.944 9946.043 24386.776 24037.665 6942.686 5014.826 6131.952 8171.997 10992.368 4660.304 11761.423 8305.081 6478.881 9067.690 8062.218 29839.244 8951.036 24370.367 0.000 6316.927 8607.901 11145.778 9124.916 18701.410 6048.643 4273.073 9297.953 4688.707 6167.924 20229.577 14060.329 19076.950 22118.348 19523.961 31659.428 15740.677 8912.874 17807.523 13607.792 19501.168 11435.989 21607.208 16077.449 17571.330 14703.563 13064.905 26240.467 21865.263 18038.644 15601.286 18510.855 13615.939 14158.057 10704.631 24267.382 4075.362 21196.677 20134.568 23971.986 32555.155 13135.500 20437.213 8654.441 25617.318 16608.643 30507.173 18143.585 17171.951 19553.744 29688.569 13457.698 16822.395 18142.002 9525.730 32053.791 18377.468 13986.002 14392.149
10398.175 7024.342 2822.884 8337.594 951.573 11479.493 9234.882 11993.153 2081.286 6912.640 6444.317 27163.558 11669.528 8285.729 1900.269 774.350 15624.205 8183.858 6921.472 2714.012 7103.353 6639.118 9099.473 8257.327 8228.648 22575.730 22226.618 918.970 3482.830 4746.409 2253.211 9181.322 2263.535 9950.376 6494.034 589.957 7256.643 1907.968 28028.197 7139.990 22559.320 6822.768 0.000 6796.854 9334.731 7313.870 14641.091 4267.231 3244.768 7301.830 2026.905 1162.657 16000.259 12406.384 14847.631 20307.301 15294.643 27622.136 13929.630 2758.624 14015.479 11796.745 15271.849 9624.942 19796.161 12285.406 13511.010 12892.516 11410.960 24429.420 20054.216 14001.352 11809.242 14718.811 11810.213 12352.331 8898.905 22456.336 2861.951 19385.630 16074.248 22160.939 28517.863 8830.948 16207.895 3375.270 23806.271 14229.530 28696.126 14083.265 15333.495 15516.452 27877.522 11619.242 12785.103 14349.958 7714.683 27908.195 14148.150 12180.276 12586.423
6171.449 10167.090 5822.035 4226.738 7717.169 7594.020 5527.156 8107.681 6748.485 2023.513 2124.811 23021.863 7784.056 3851.199 6384.547 7439.613 11397.479 3572.118 2609.751 6101.538 2404.998 1910.862 5249.599 4009.207 10201.389 18690.257 18341.146 7684.565 5981.200 6687.703 6628.061 5195.602 6214.980 6064.903 1733.792 7680.950 2902.429 7446.562 23886.502 958.386 18673.848 9965.516 7662.886 0.000 5449.258 3002.149 11686.182 6176.522 5934.254 1526.616 6569.370 6921.636 13045.349 14315.675 11892.722 16080.575 12339.734 24667.226 9702.904 6268.025 11060.570 7911.273 12316.940 5739.469 15910.689 9330.496 10556.101 8792.537 13320.250 20202.694 16168.743 11046.443 8854.333 11763.902 13871.284 14413.403 10959.977 18570.863 6382.571 15158.904 13119.339 18275.466 25562.954 5878.766 13252.986 7654.233 19920.799 9889.906 24554.431 11128.356 14807.245 12561.543 23735.827 10867.817 9830.194 11395.049 3829.211 24953.286 11193.241 14241.348 14647.495
4632.645 11430.067 7085.011 2061.457 9687.387 3810.768 5653.425 4342.935 8011.462 3943.957 3905.034 19494.834 4000.804 3977.467 7647.524 9539.180 9595.618 3576.983 3370.044 7364.514 3841.327 4349.112 5375.867 4135.475 10262.260 14907.005 14557.894 9683.800 7244.176 7950.680 9230.035 2084.989 7477.957 2199.464 4351.316 8943.926 3295.139 10048.535 20359.473 4902.978 14909.102 11228.493 9058.040 4448.577 0.000 3749.090 12183.896 7439.499 7197.231 5471.207 7832.347 8184.613 13833.074 14450.032 12680.447 13597.956 13127.459 25141.913 7901.043 8869.998 11290.008 3910.667 13104.665 1545.060 12127.437 9559.935 11053.816 5223.792 13454.608 17212.539 12385.492 11521.130 9083.772 11993.341 13843.825 14385.943 10932.517 14806.117 7645.547 12676.285 13617.054 14492.215 26037.641 8805.907 14040.711 10256.206 16137.547 10016.174 21027.402 11626.071 10806.639 13036.230 20208.798 6867.211 10304.881 11624.488 1875.022 25536.277 11980.966 14213.889 14620.035
5997.014 9861.734 5516.679 3241.458 8119.055 6225.909 6184.444 6758.075 6443.129 2903.028 1318.702 21909.974 6415.945 4508.487 6079.192 7970.847 11223.043 3979.035 894.801 5796.182 3284.513 2790.377 5906.886 4666.494 9896.033 17322.146 16973.035 8115.467 5675.844 6382.347 7827.042 3999.111 5909.625 4614.604 1805.646 7375.594 3006.240 8645.542 22774.614 2247.226 17324.242 9660.160 7489.708 2458.983 3735.558 0.000 12639.960 5871.166 5628.898 2594.142 6264.014 6616.280 14171.824 14010.319 13019.197 15906.140 13466.209 25597.978 9528.469 7467.005 11746.073 6391.376 13443.415 4025.769 14542.577 10015.999 11509.880 7638.933 13014.895 19627.679 14800.632 11977.194 9539.836 12449.405 13565.929 14108.047 10654.621 17221.257 6077.215 14984.468 14073.118 16907.355 26493.706 7077.747 14379.461 8853.213 18552.688 10547.193 23442.542 12082.135 13287.348 13492.295 22623.938 9347.920 10760.945 12080.552 2235.331 25992.341 12319.716 13935.992 14342.139
9823.005 19628.183 15283.128 11067.281 14728.670 12700.659 7631.500 14318.593 16209.578 9825.653 12084.330 21150.013 12955.127 8482.055 15845.640 14451.115 11154.408 9076.446 12437.511 15562.631 9988.530 10230.809 7496.091 8298.596 19662.482 17994.193 17645.081 14696.067 15442.293 16148.796 13639.563 11056.854 15676.074 12175.122 11713.814 14984.416 9840.631 14458.064 22014.653 11294.645 24884.760 19426.609 14674.388 10911.170 12120.666 12816.557 0.000 15637.615 15395.347 11180.955 16030.463 15275.420 6258.301 23776.768 3761.357 14208.726 3300.714 14415.047 10151.469 13279.526 1714.734 15562.990 3277.921 12924.885 15195.693 5263.188 3018.284 13315.150 22781.343 18330.845 15453.747 3016.345 3262.109 922.585 23332.377 23874.496 20421.070 24781.775 15843.664 13287.054 3677.841 17579.402 15310.774 13372.502 4425.905 14665.735 19224.734 11117.468 22682.582 1304.641 22458.962 2087.634 21863.977 18519.534 2332.244 784.860 11763.830 14776.628 4406.192 23702.441 24108.588
9798.174 6570.349 2348.319 7737.593 5180.911 10879.492 9834.846 11393.153 3160.129 6549.733 5844.316 26563.557 11069.528 8158.889 2931.743 5032.704 15024.204 7629.437 6321.471 2220.147 6931.218 6437.082 9557.289 8316.896 4398.239 21975.729 21626.618 5177.324 1794.909 909.979 6423.424 8581.321 2762.177 9350.375 5894.033 4376.600 6656.643 6067.042 27428.197 6539.989 21116.113 6368.775 4551.564 6196.853 8734.730 6713.869 16290.363 0.000 1678.520 6886.905 3021.550 3575.753 17818.529 8512.525 16665.902 19707.301 17112.914 29248.380 13329.629 6723.277 15396.475 9112.604 17090.120 9024.941 19196.160 13666.401 15160.282 12292.516 7517.101 23829.420 19454.215 15627.596 13190.238 16099.807 8068.135 8610.253 5156.827 21013.128 2779.996 18785.629 17723.520 21560.938 30144.108 10724.452 18026.166 6905.868 23206.271 14197.596 28096.125 15732.537 11608.354 17142.697 27277.521 7894.100 14411.348 15730.954 7114.683 29642.743 15966.421 8438.198 8844.345
8756.239 4899.297 677.266 6695.657 3921.400 9837.556 8792.910 10351.217 1489.076 5507.797 4802.380 25521.621 10027.592 7116.953 1656.416 3773.192 13982.268 6587.501 5279.535 825.039 5889.282 5395.146 8515.353 7274.961 5703.922 20933.793 20584.682 3917.812 837.512 1889.831 5147.123 7539.385 1274.717 8308.439 4852.097 3357.221 5614.707 5037.344 26386.261 5498.053 20917.384 4697.723 3292.053 5154.917 7692.794 5671.933 15248.427 1809.593 0.000 5844.969 1522.773 2746.955 16776.594 9818.208 15623.966 18665.365 16070.978 28206.444 12287.694 5866.086 14354.539 10154.809 16048.184 7983.005 18154.225 12624.466 14118.346 11250.580 8822.783 22787.484 18412.279 14585.661 12148.302 15057.871 9373.817 9915.936 6462.510 20814.399 1108.944 17743.693 16681.584 20519.002 29102.172 9682.516 16984.230 5629.567 22164.335 13155.660 27054.190 14690.601 12929.830 16100.761 26235.585 9215.576 13369.412 14689.018 6072.747 28600.807 14924.485 9743.881 10150.028
6060.822 10251.771 5906.716 4210.766 7606.542 7576.959 5416.529 8153.160 6833.166 1912.886 2209.492 22911.236 7766.995 3740.572 6469.228 7328.986 11286.852 3461.491 2650.584 6186.219 2294.371 1800.235 5138.972 3898.580 10286.070 18673.196 18324.085 7573.938 6065.881 6772.384 6517.434 5084.976 6299.661 6009.689 1449.346 7765.630 2791.802 7335.935 23775.875 563.027 18719.327 10050.197 7552.259 1287.932 5533.939 3042.982 11575.555 6261.203 6018.935 0.000 6654.051 7006.317 12934.722 14400.355 11782.095 15969.948 12229.107 24556.599 9592.277 6157.398 10949.943 7995.954 12206.313 5824.150 15893.628 9219.869 10445.474 8681.910 13404.931 20092.067 16151.683 10935.816 8743.706 11653.275 13955.965 14498.084 11044.658 18616.342 6467.252 15048.277 13008.712 18258.406 25452.327 5768.140 13142.359 7543.606 19903.738 9779.279 24443.804 11017.729 14891.926 12450.916 23625.200 10952.498 9719.567 11284.422 3913.892 24842.659 11082.614 14326.029 14732.176
9357.609 5215.064 1153.393 7297.028 2553.619 10438.927 9394.281 10952.587 272.009 6109.167 5403.751 26122.992 10628.963 7718.324 441.072 2405.412 14583.639 7188.872 5880.906 1254.023 6490.653 5996.517 9116.724 7876.331 7100.512 21535.164 21186.052 2550.032 2022.841 3286.421 3779.343 8140.756 641.111 8909.810 5453.468 2086.227 6216.077 3669.564 26987.632 6099.424 21518.754 5013.490 1924.273 5756.288 8294.165 6273.304 15849.798 3206.183 1515.240 6446.340 0.000 2000.342 17377.964 11214.798 16225.337 19266.735 16672.348 28807.815 12889.064 4520.220 14955.910 10756.180 16649.555 8584.376 18755.595 13225.836 14719.717 11851.950 10219.374 23388.854 19013.650 15187.031 12749.673 15659.242 10770.408 11312.526 7859.100 21415.770 1052.674 18345.064 17282.955 21120.373 29703.543 10283.887 17585.601 4261.787 22765.705 13757.031 27655.560 15291.972 14326.420 16702.132 26836.956 10612.167 13970.782 15290.389 6674.117 29202.178 15525.855 11140.471 11546.618
9425.566 6931.483 2354.401 7364.985 2030.714 10506.884 9462.238 11020.545 2039.131 6177.125 5471.708 26190.949 10696.920 7786.281 1798.136 1853.491 14651.596 7256.829 5948.863 2235.791 6558.610 6064.474 9184.681 7944.289 7202.021 21603.121 21254.010 1998.111 2818.074 3818.217 3332.351 8208.713 1787.809 8977.767 5521.425 1064.021 6284.035 2754.463 27055.589 6167.381 21586.712 6729.909 1572.386 5824.245 8362.122 6341.261 15288.897 3307.036 2592.059 6514.297 1924.771 0.000 16648.064 11389.792 15495.437 19334.693 15942.448 28269.941 12957.021 3410.697 14663.285 10824.137 15919.655 8652.333 18823.552 12933.211 14158.816 11919.908 10394.368 23456.812 19081.607 14649.158 12457.048 15366.617 10783.585 11325.704 7872.278 21483.727 2769.093 18413.021 16722.054 21188.330 29165.669 9478.753 16855.701 3962.703 22833.663 13824.988 27723.518 14731.071 14306.868 16164.258 26904.913 10592.615 13432.909 14997.764 6742.075 28556.001 14795.955 11153.649 11559.796
11795.226 21252.961 16907.906 12858.242 16331.989 14672.881 9725.435 16236.369 17834.357 11450.432 13687.648 25111.526 14927.348 10399.831 17470.419 16054.433 14367.004 10994.221 14062.289 17187.409 11613.309 11855.587 9590.026 10222.670 21287.260 21955.705 21606.594 16299.385 17067.071 17773.575 15242.881 12974.630 17300.852 14092.898 13317.132 16587.734 11631.592 16061.382 25976.166 12897.963 26802.536 21051.387 16277.706 12514.488 14038.442 14441.335 6183.535 17262.393 17020.125 12784.273 17655.241 16878.738 0.000 25401.546 4003.940 18170.238 4450.951 18638.642 13357.568 14882.845 5237.936 17480.766 4428.158 14842.661 19157.205 6824.592 5055.664 15287.372 24406.122 22292.357 19415.260 5601.541 4996.571 5941.268 24957.156 25499.274 22045.848 26699.551 17468.442 17248.567 5353.369 21540.915 17049.458 14975.821 4557.700 16269.053 23186.247 13089.690 26644.094 5627.919 24376.738 7116.642 25825.490 20437.310 4391.347 5572.415 13554.791 16096.573 2849.037 25327.219 25733.366
17682.398 14512.691 10290.661 15621.816 13065.135 15964.859 17719.070 15104.667 11102.471 14433.956 13728.540 30431.376 16169.691 16043.112 10815.967 12916.927 22387.352 15513.660 14205.694 10146.345 14815.441 14321.305 17441.512 16201.120 4424.911 25843.548 25494.436 13061.547 9682.511 8637.632 14307.647 15951.364 10646.400 15402.601 13778.256 12217.692 14540.866 13908.134 31296.016 14424.212 23549.703 14311.117 12435.788 14081.077 14497.205 14598.092 24174.586 8724.632 9620.863 14771.129 10947.748 11416.845 25702.753 0.000 24550.126 24534.499 24997.137 37132.604 20692.777 14564.369 23280.698 11546.194 24974.343 13816.809 23063.979 21550.625 23044.506 17392.679 3908.560 28149.081 23322.034 23511.820 21074.462 23984.031 4481.636 6230.864 5090.725 23446.718 10722.339 23612.827 25607.744 25428.757 38028.331 18608.675 25910.389 14790.091 27074.089 22081.819 31963.944 23616.761 14041.944 25026.920 31145.340 10327.690 22295.571 23615.178 14816.745 37526.967 23850.644 4832.075 5238.222
10689.468 20147.203 15802.148 11752.483 15247.690 13567.122 8672.009 15130.610 16728.598 10344.673 12603.350 23532.083 13821.590 9294.072 16364.660 14970.135 13261.245 9888.463 12956.531 16081.651 10507.550 10749.828 8536.601 9116.911 20181.502 20376.263 20027.151 15215.087 15961.313 16667.816 14158.583 11868.871 16195.093 12987.140 12232.833 15503.436 10525.834 14977.083 24396.723 11813.665 25696.777 19945.629 15193.408 11430.190 12932.683 13335.577 3714.397 16156.635 15914.367 11699.975 16549.483 15794.440 4223.201 24295.788 0.000 16590.796 1504.308 16804.920 12251.809 13798.546 4245.055 16375.008 1481.514 13736.902 17577.763 5831.710 4062.783 14181.613 23300.363 20712.915 17835.817 4608.660 4003.690 3807.969 23851.397 24393.516 20940.090 25593.793 16362.684 15669.124 1893.817 19961.472 16253.817 13891.522 2189.055 15184.754 21606.804 11983.931 25064.652 3132.414 23270.979 4689.757 24246.047 19331.552 3398.466 3670.244 12449.033 15300.931 2353.972 24221.461 24627.608
12160.684 23378.862 19033.807 14177.812 21329.973 12206.343 14494.766 12594.500 19960.257 14954.788 15929.480 9055.303 12549.854 14418.612 19596.320 21052.417 6780.274 14018.127 15832.945 19313.310 14852.157 15359.943 13930.435 14385.167 21075.395 8535.184 8186.073 21297.369 19192.972 19899.475 20240.865 13121.205 19426.753 12666.001 16168.454 20892.722 14307.645 21059.366 9919.942 16437.661 23160.667 23177.288 21006.836 16026.695 14670.504 16211.991 14887.879 19388.294 19146.026 16930.676 19781.142 20133.408 19202.729 25263.167 16747.348 0.000 16286.705 17698.495 7309.090 19880.829 15220.613 14539.200 16263.912 13853.688 7451.864 15146.876 15971.160 13588.568 24267.742 6173.272 7709.919 15007.695 15039.661 15284.863 24656.960 25199.078 21745.652 23057.682 19594.343 5772.244 16663.832 8120.393 19786.844 19816.738 17411.896 21267.037 9765.726 12759.752 11506.413 14236.982 21435.172 14236.601 10687.809 17495.744 15197.873 15147.138 14874.362 23218.195 17350.620 25027.023 25433.170
10654.012 20433.627 16088.572 11898.288 15534.114 13531.667 8462.507 15149.600 17015.022 10631.097 12889.774 22528.645 13786.134 9313.062 16651.084 15256.559 12533.039 9907.453 13242.955 16368.075 10793.974 11036.252 8327.098 9129.603 20467.926 19372.824 19023.712 15501.511 16247.737 16954.240 14445.007 11887.861 16481.517 13006.129 12519.257 15789.860 10671.638 15263.507 23393.284 12100.089 25715.767 20232.053 15479.832 11716.614 12951.673 13622.001 2710.958 16443.059 16200.791 11986.399 16835.907 16080.864 4509.625 24582.212 1271.794 15587.357 0.000 15801.481 11530.100 14084.970 3596.679 16393.998 171.865 13755.892 16574.324 6118.134 3849.291 14146.157 23586.787 19709.476 16832.379 3865.064 4290.114 2804.530 24137.821 24679.940 21226.514 25612.783 16649.108 14665.685 1200.661 18958.033 15885.236 14177.946 1936.342 15471.178 20603.366 11948.475 24061.213 2128.975 23289.969 3686.318 23242.609 19350.542 3163.252 2666.805 12594.838 14932.351 2640.396 24507.885 24914.032
21755.632 32344.396 27999.341 23553.007 27497.208 24633.287 20061.362 26331.991 28925.791 22511.956 24852.868 31112.169 24887.754 20967.781 28561.853 27219.653 21116.564 21557.660 24974.765 28278.843 22604.797 22917.111 19799.251 20784.322 32378.695 27956.348 27607.237 27464.605 28158.506 28865.009 26408.101 23533.464 28392.286 24651.732 24482.351 27752.954 22326.357 27226.601 31976.809 24063.183 36898.158 32142.822 27442.925 23679.708 24597.275 25353.811 14480.790 28353.828 28111.560 23949.493 28746.676 28043.958 18393.768 36492.980 16538.357 24170.882 16077.714 0.000 20113.624 26048.064 15011.622 28039.600 16054.921 25401.495 25157.848 18291.052 15786.821 25247.777 35497.556 28293.001 25415.903 15087.801 16463.032 14877.774 36048.590 36590.709 33137.283 36795.173 28559.877 23249.210 16454.841 27541.558 2265.155 26141.040 16875.724 27434.272 29186.890 22387.340 32644.737 14027.991 34935.572 13829.512 31826.133 30996.144 15100.782 14740.049 24249.556 5696.506 17174.730 36418.654 36824.801
5376.748 16594.927 12249.872 7393.877 14546.037 6190.142 8552.648 7888.846 13176.322 8170.852 9145.545 13643.444 6444.609 7634.677 12812.384 14268.482 1694.575 7234.192 9049.009 12529.375 8068.222 8576.007 8065.665 7792.684 16425.246 9418.062 9068.951 14513.434 12409.037 13115.540 13456.930 6337.269 12642.817 6747.481 9384.519 14108.787 7523.709 14275.430 14508.083 9653.726 18455.013 16393.353 14222.900 9242.759 8112.923 9428.055 10085.759 12604.359 12362.091 10146.741 12997.207 13349.473 13307.024 20613.018 11945.228 6702.156 11484.585 20342.350 0.000 13096.893 10418.493 9891.922 11461.792 8298.657 6619.562 8741.148 10235.029 6804.632 19617.594 10824.275 6877.617 10205.575 8633.933 10482.743 20006.811 20548.929 17095.503 18352.028 12810.408 5780.485 11861.712 9003.272 21238.077 13032.802 12609.776 14483.101 10648.604 7224.031 15176.012 9434.862 16787.893 9434.481 14357.408 12848.466 9486.094 10345.018 8090.427 22289.877 11454.915 20376.875 20783.021
8543.843 8862.222 4660.765 6758.409 2060.933 10059.980 6908.921 10636.181 3919.166 4586.679 5879.244 25394.257 10250.016 5959.768 3738.149 1783.378 13769.873 5857.897 6364.184 4551.892 4777.392 4313.157 6773.512 5931.366 9696.121 21156.217 20807.106 2028.330 5281.913 6282.056 1397.232 7567.996 4101.415 8492.710 5508.728 2306.698 5274.823 1790.326 26258.896 5089.559 21202.348 8660.648 1996.670 4706.084 8466.157 6756.582 12315.130 5770.875 5055.898 4975.869 3864.785 2599.466 13674.298 13883.893 12521.670 18452.969 12968.682 25296.175 12075.298 0.000 11689.518 10938.508 12945.888 8897.798 18376.649 9959.445 11185.049 11164.931 12888.468 22575.088 18634.704 11675.391 9483.281 12392.850 13277.686 13819.804 10366.378 21099.363 4699.832 17531.298 13748.287 20741.427 26191.902 6504.987 13881.934 2423.404 22386.759 11903.569 26926.825 11757.304 16800.969 13190.491 26108.221 13086.715 10459.142 12023.997 6987.540 25582.234 11822.189 13647.749 14053.896
9298.898 19104.076 14759.021 10541.920 14204.563 12176.552 7106.140 13793.233 15685.471 9301.547 11560.223 21864.479 12431.020 7956.695 15321.533 13927.008 11868.873 8551.085 11913.404 15038.524 9464.423 9706.702 6970.731 7773.236 19138.375 18708.658 18359.546 14171.960 14918.186 15624.689 13115.456 10531.494 15151.967 11649.762 11189.707 14460.309 9315.271 13933.957 22729.118 10770.538 24359.400 18902.502 14150.281 10387.063 11595.305 12292.450 1728.751 15113.508 14871.240 10656.848 15506.356 14751.313 5390.379 23252.661 4237.752 14923.191 4083.526 15137.315 10861.239 12755.419 0.000 15037.630 4060.733 12399.525 15910.158 4255.439 2546.592 12791.043 22257.237 19045.310 16168.213 2368.582 2254.360 1486.484 22808.271 23350.389 19896.963 24256.415 15319.557 14001.519 4460.653 18293.867 16033.043 12848.395 5208.717 14141.628 19939.199 10451.867 23397.047 2090.501 21933.602 3031.632 22578.443 17994.174 1773.305 1117.631 11238.470 15990.983 3538.270 23178.334 23584.481
7673.976 14133.765 9788.710 5412.458 12391.086 5489.766 9044.707 4629.574 10715.160 7279.669 6608.732 19956.283 5694.599 7368.750 10351.223 12242.878 11912.259 6968.266 6109.163 9752.907 7177.039 7392.504 8767.150 7526.757 6551.653 15368.455 15019.344 12387.498 9289.073 8260.356 11946.522 5476.271 10181.656 4927.508 7055.015 11647.625 6636.802 12765.023 20820.923 7606.676 13205.427 13932.191 11761.739 7152.276 4022.112 6488.209 15575.179 8221.294 9243.587 8174.906 10536.045 10888.311 17224.357 10739.425 16071.730 14059.406 16518.741 28533.196 10217.685 11586.486 14681.291 0.000 16495.948 3411.612 12588.886 12951.217 14445.098 6917.586 9744.001 17673.988 12846.941 14912.412 12475.054 15384.623 10133.218 10675.336 7221.910 13102.443 10345.062 13137.734 17008.336 14953.664 29428.924 10652.443 17431.993 12972.694 16598.997 13212.814 21488.851 15017.353 6903.678 16427.513 20670.247 2964.250 13696.164 15015.770 4341.652 28927.559 15372.248 10503.282 10909.428
10789.812 20569.427 16224.372 12034.088 15669.914 13667.467 8598.307 15285.400 17150.822 10766.897 13025.574 22664.445 13921.934 9448.862 16786.884 15392.359 12668.840 10043.253 13378.755 16503.875 10929.774 11172.052 8462.899 9265.404 20603.726 19508.624 19159.513 15637.311 16383.537 17090.040 14580.807 12023.662 16617.318 13141.930 12655.058 15925.660 10807.439 15399.307 23529.084 12235.889 25851.567 20367.853 15615.632 11852.414 13087.473 13757.801 2846.758 16578.859 16336.591 12122.199 16971.707 16216.664 4645.425 24718.012 1407.594 15723.157 135.800 15937.282 11665.900 14220.770 3732.479 16529.798 0.000 13891.693 16710.124 6253.935 3985.091 14281.958 23722.587 19845.276 16968.179 4000.864 4425.914 2940.330 24273.621 24815.740 21362.314 25748.583 16784.908 14801.486 1336.461 19093.833 16021.036 14313.746 2072.142 15606.978 20739.166 12084.275 24197.013 2264.775 23425.770 3822.118 23378.409 19486.342 3299.052 2802.606 12730.638 15068.151 2776.196 24643.685 25049.832
5486.716 12095.767 7750.712 3224.725 10353.087 3645.430 6650.543 4011.095 8677.162 5107.226 4477.244 19329.496 3835.466 4974.586 8313.224 10204.880 10115.960 4574.101 3886.524 8030.215 5004.596 5354.506 6372.986 5132.593 9673.934 14741.667 14392.556 10349.500 7909.877 8616.380 10377.616 2939.059 8143.658 2305.121 5017.017 9609.627 4458.407 11196.116 20194.135 5568.678 14577.262 11894.193 9723.741 5114.277 1799.473 4265.570 13181.015 8105.199 7862.931 6136.908 8498.047 8850.313 14830.193 13861.705 13677.566 13432.618 14124.577 26139.032 8421.385 10017.579 12287.127 3322.341 14101.784 0.000 11962.099 10557.053 12050.934 5058.454 12866.281 17047.201 12220.154 12518.248 10080.890 12990.459 13255.499 13797.617 10344.191 14474.278 8311.248 12510.947 14614.172 14326.877 27034.760 9083.536 15037.829 11403.787 15972.209 11013.293 20862.064 12623.189 10218.313 14033.349 20043.460 6278.885 11301.999 12621.606 2391.502 26533.395 12978.084 13625.562 14031.709
11496.006 22252.464 17907.409 12627.663 20509.785 9927.502 14671.906 10315.660 18833.859 14290.110 14727.431 11070.343 10271.014 13753.934 18469.922 20361.577 6096.812 13353.450 14277.875 18186.912 14187.480 14695.265 14184.923 13911.941 18796.555 3270.254 2929.425 20506.197 18066.574 18773.077 19576.187 11955.636 18300.355 10387.161 15173.714 19766.324 13642.967 20394.688 11934.983 15725.375 20881.827 22050.890 19880.438 15270.975 12391.664 14656.921 15265.626 18261.896 18019.628 16265.998 18654.744 19007.010 19435.597 22984.326 17125.095 6910.206 16664.452 19713.535 6625.628 19216.151 15598.360 12260.360 16641.659 11574.848 0.000 14869.721 16348.907 11903.968 21988.902 8788.048 428.548 15385.442 14762.505 15662.610 22378.120 22920.238 19466.812 20778.842 18467.945 5988.535 17041.579 2855.463 21801.884 19152.060 17789.643 20602.359 4509.078 13107.721 12602.911 14614.729 19156.331 14614.348 11784.307 15216.904 15575.621 15524.886 12712.348 25233.236 17583.488 22748.183 23154.330
8189.516 18293.858 13948.803 9566.748 13153.027 11067.171 6130.967 12765.875 14875.253 8525.697 10508.687 21098.360 11321.638 6981.522 14511.316 12875.472 10761.293 7575.913 10988.506 14228.306 8618.538 8930.852 5995.558 6798.063 18328.157 17942.540 17593.428 13120.424 14107.968 14814.471 12063.920 9556.321 14341.749 10674.589 10138.170 13408.773 8340.099 12882.420 21963.000 9719.002 23332.042 18092.284 13098.745 9335.527 10620.133 11367.552 3161.745 14303.290 14061.022 9605.312 14696.138 13699.777 4675.191 22442.443 3522.564 14157.073 3969.575 16131.953 9751.858 11703.883 2216.146 14062.458 3946.782 11424.352 15144.040 0.000 2463.927 11681.661 21447.019 18279.192 15402.094 2274.330 1222.389 2919.478 21998.053 22540.171 19086.745 23229.057 14509.339 13235.401 4871.993 17527.749 17027.681 11796.859 4882.827 13090.091 19173.081 9483.979 22630.929 3036.182 20958.429 4026.270 21812.324 17019.002 1690.640 2550.625 10263.298 16946.388 2823.082 22368.116 22774.263
9073.135 18878.313 14533.258 10317.410 13978.800 11950.789 6881.630 13568.723 15459.708 9075.783 11334.460 20971.925 12205.257 7732.185 15095.770 13701.245 10976.320 8326.575 11687.641 14812.760 9238.660 9480.938 6746.221 7548.726 18912.612 17816.104 17466.993 13946.197 14692.423 15398.926 12889.693 10306.984 14926.203 11425.252 10963.943 14234.546 9090.761 13708.193 21836.564 10544.775 24134.890 18676.739 13924.518 10161.300 11370.795 12066.687 1130.081 14887.745 14645.477 10431.085 15280.593 14525.550 5508.431 23026.897 2646.754 14030.637 2186.111 14244.762 9973.380 12529.656 2015.802 14813.120 2163.317 12175.015 15017.604 4772.644 0.000 12565.280 22031.473 18152.756 15275.659 2308.344 2944.624 1223.652 22582.507 23124.626 19671.200 24031.905 15093.794 13108.966 2563.238 17401.313 15140.489 12622.632 3311.302 13915.864 19046.646 10367.598 22504.493 572.255 21709.092 2105.440 21685.889 17769.664 1582.374 1085.928 11013.960 14496.710 3656.322 22952.571 23358.718
11132.372 19712.836 15367.781 10088.036 17970.157 8948.161 13401.858 6068.895 16294.232 11970.536 12187.803 16483.174 9152.994 11725.900 15930.294 17821.950 8870.017 11325.416 11738.247 15647.284 11867.906 12375.691 13124.300 11883.908 15725.473 11895.345 11546.234 17966.570 15526.946 16233.450 17256.614 9802.370 15760.727 8514.902 12634.086 17226.696 11321.718 18075.114 17347.813 13185.748 16131.870 19511.262 17340.810 12731.347 9894.667 12117.293 18174.428 15722.269 15480.001 13753.977 16115.116 16467.382 21581.507 19913.245 20033.897 10586.296 19573.254 25126.366 9398.833 16896.577 18507.162 9491.103 19550.461 9035.221 9115.777 17308.368 18802.249 0.000 18917.821 14200.879 9373.832 18294.244 16832.205 18571.412 19307.038 19849.156 16395.730 16028.885 15928.317 9664.625 19950.381 11480.555 27214.715 16832.486 20698.445 18282.785 13125.887 15880.926 18015.742 17523.531 15111.389 17523.150 17197.138 11946.663 18053.314 18433.687 10172.721 30378.546 19729.399 19677.101 20083.248
17004.072 13834.365 9612.335 14943.490 12386.809 15286.533 17040.744 14426.341 10424.145 13755.630 13050.214 29753.050 15491.366 15364.787 10137.641 12238.601 21709.026 14835.334 13527.368 9468.019 14137.115 13642.979 16763.186 15522.794 3746.585 25165.222 24816.110 12383.221 9004.185 7959.306 13629.321 15273.038 9968.074 14724.275 13099.931 11539.366 13862.540 13229.808 30617.690 13745.886 22871.377 13632.791 11757.462 13402.751 13818.879 13919.766 23496.260 8046.306 8942.537 14092.803 10269.422 10738.519 25024.427 2528.872 23871.800 23856.173 24318.811 36454.278 20014.452 13886.043 22602.372 10867.868 24296.018 13138.483 22385.653 20872.299 22366.180 16714.353 0.000 27470.755 22643.708 22833.494 20396.136 23305.705 781.750 2530.978 4388.246 22768.392 10044.013 22934.501 24929.418 24750.431 37350.005 17930.350 25232.063 14111.765 26395.764 21403.493 31285.618 22938.435 13363.618 24348.594 30467.014 9649.364 21617.245 22936.852 14138.419 36848.641 23172.318 1132.189 1538.336
15797.063 27015.242 22670.187 17462.550 24966.352 14762.389 18131.146 15150.546 23596.637 18591.167 19562.317 4736.784 15105.900 18054.992 23232.699 24688.797 10416.653 17654.507 19112.761 22949.690 18488.537 18996.322 17566.815 18021.546 23631.441 8674.012 8324.901 24933.749 22829.352 23535.855 23877.245 16757.584 23063.132 15222.047 19804.834 24529.101 17944.024 24695.745 5601.423 20074.041 25716.713 26813.668 24643.215 19663.074 17226.550 19491.807 18524.259 23024.674 22782.406 20567.056 23417.522 23769.788 22839.108 27819.213 20383.727 5759.535 19923.085 13379.976 10945.470 23517.208 18856.992 17095.246 19900.291 16409.734 7720.459 18783.256 19607.540 16738.854 26823.788 0.000 7929.026 18644.074 18676.040 18921.243 27213.006 27755.124 24301.698 25613.728 23230.723 9408.623 20300.212 8259.222 15468.325 23453.117 21048.275 24903.416 9904.554 16396.132 7187.894 17873.362 23991.218 17872.980 6369.290 20051.790 18834.253 18783.518 17547.235 18899.676 20987.000 27583.069 27989.216
11739.288 22495.746 18150.691 12870.946 20753.067 10170.785 14915.188 10558.942 19077.142 14533.392 14970.713 11278.909 10514.296 13997.216 18713.204 20604.859 6340.094 13596.732 14521.157 18430.194 14430.762 14938.547 14428.205 14155.224 19039.837 3478.820 3137.991 20749.479 18309.856 19016.360 19819.469 12198.918 18543.637 10630.443 15416.996 20009.606 13886.249 20637.970 12143.549 15968.658 21125.109 22294.172 20123.720 15514.257 12634.946 14900.203 15508.909 18505.179 18262.911 16509.280 18898.026 19250.292 19678.879 23227.609 17368.377 7153.488 16907.734 19922.101 6868.911 19459.433 15841.642 12503.642 16884.941 11818.130 428.548 15113.003 16592.189 12147.250 22232.184 8996.615 0.000 15628.724 15005.787 15905.892 22621.402 23163.520 19710.094 21022.124 18711.227 6231.817 17284.861 3064.029 22010.450 19395.342 18032.925 20845.641 4717.644 13351.003 12811.477 14858.012 19399.614 14857.630 11992.873 15460.186 15818.903 15768.168 12955.631 25441.802 17826.770 22991.465 23397.612
9221.171 19026.349 14681.294 10464.194 14126.837 12098.826 7028.413 13715.506 15607.744 9223.820 11482.496 20841.106 12353.293 7878.968 15243.807 13849.281 10845.501 8473.359 11835.677 14960.797 9386.697 9628.975 6893.004 7695.509 19060.648 17685.286 17336.174 14094.233 14840.459 15546.962 13037.729 10453.767 15074.240 11572.035 11111.980 14382.582 9237.544 13856.230 21705.746 10692.811 24281.673 18824.775 14072.554 10309.336 11517.579 12214.723 3032.089 15035.781 14793.513 10579.121 15428.629 14673.586 5700.434 23174.934 4547.806 13899.819 4224.065 15156.282 9842.562 12677.693 2389.209 14959.903 4201.272 12321.798 14886.786 4860.512 2468.865 12713.316 22179.510 18021.938 15144.841 0.000 3032.492 3276.241 22730.544 23272.662 19819.236 24178.688 15241.830 12978.147 4601.192 17270.495 16052.009 12770.669 5349.256 14063.901 18915.827 10374.140 22373.675 2231.040 21855.875 3029.425 21555.070 17916.447 1695.578 3010.463 11160.743 16319.816 3848.325 23100.607 23506.754
7140.186 17244.528 12899.473 8517.418 12103.697 10017.841 5081.637 11716.545 13825.923 7476.367 9459.357 21197.616 10272.308 5932.192 13461.986 11826.142 9711.963 6526.583 9939.176 13178.976 7569.208 7881.522 4946.228 5748.733 17278.827 17435.451 17086.340 12071.094 13058.638 13765.141 11014.590 8506.991 13292.419 9625.259 9088.840 12359.443 7290.768 11833.090 22062.256 8669.672 22282.712 17042.954 12049.415 8286.197 9570.803 10318.222 3266.133 13253.960 13011.692 8555.982 13646.808 12650.447 4779.579 21393.113 3626.952 14256.329 4073.964 16303.860 8702.528 10654.553 2320.535 13013.128 4051.170 10375.022 14636.951 2001.080 2635.834 10632.331 20397.689 18378.448 14895.006 2683.076 0.000 3023.867 20948.723 21490.841 18037.415 22179.727 13460.009 13334.657 4976.382 17020.660 17199.588 10747.529 4987.216 12040.761 18665.993 8434.649 22730.185 3208.089 19909.099 4198.177 21911.580 15969.672 1862.547 2655.014 9213.968 17118.295 2927.471 21318.786 21724.933
9905.637 19710.815 15365.760 11149.913 14811.302 12783.291 7714.132 14401.225 16292.210 9908.285 12166.962 21547.262 13037.759 8564.687 15928.272 14533.747 11551.657 9159.077 12520.143 15645.263 10071.162 10313.440 7578.723 8381.228 19745.114 18391.442 18042.330 14778.699 15524.925 16231.428 13722.195 11139.486 15758.706 12257.754 11796.446 15067.048 9923.263 14540.695 22411.902 11377.277 24967.392 19509.241 14757.020 10993.802 12203.298 12899.189 911.645 15720.247 15477.979 11263.587 16113.095 15358.052 6144.921 23859.400 3843.989 14605.975 3383.346 14812.295 10548.718 13362.158 1461.528 15645.622 3360.553 13007.517 15592.942 5009.982 3100.916 13397.782 22863.975 18728.094 15850.996 3123.362 3008.902 0.000 23415.009 23957.128 20503.702 24864.407 15926.296 13684.303 3760.473 17976.651 15708.023 13455.134 4508.537 14748.366 19621.983 11200.100 23079.831 1387.273 22541.594 2484.883 22261.226 18602.166 2414.876 531.654 11846.462 15173.877 4292.812 23785.073 24191.220
17288.429 14118.722 9896.692 15227.847 12671.166 15540.161 17325.101 14679.969 10708.502 14039.987 13334.571 30006.678 15744.993 15649.144 10421.998 12522.958 21962.654 15119.691 13811.725 9752.376 14421.472 13927.337 17047.543 15807.151 3885.718 25418.850 25069.738 12667.578 9288.542 8243.663 13913.679 15526.666 10252.431 14977.903 13384.288 11792.994 14146.897 13483.436 30871.318 14030.243 23125.005 13917.148 12041.819 13687.108 14072.507 14204.123 23780.617 8299.934 9226.894 14377.160 10553.779 10992.147 25308.784 2813.229 24156.157 24109.801 24603.168 36738.635 20268.079 14139.671 22886.730 11121.496 24580.375 13392.111 22639.281 21156.656 22650.537 16967.981 764.676 27724.383 22897.336 23117.851 20680.493 23590.062 0.000 1749.229 4107.999 23022.020 10328.370 23188.129 25213.775 25004.059 37634.362 18214.707 25516.420 14396.122 26649.391 21687.850 31539.246 23222.792 13617.246 24632.951 30720.642 9902.992 21901.602 23221.209 14392.047 37132.998 23456.675 473.982 880.129
16103.605 12938.403 8716.373 14043.023 11457.267 14276.165 16140.277 13415.973 9528.183 12855.163 12149.746 28742.683 14480.998 14464.319 9237.174 11309.060 20698.659 13934.867 12626.901 8567.552 13236.648 12742.512 15862.719 14622.327 2621.722 24154.854 23805.743 11453.680 8103.718 7063.344 12699.780 14262.670 9067.607 13713.907 12199.463 10528.998 12962.073 12219.440 29607.322 12845.419 21861.009 12736.829 10827.920 12502.284 12808.512 13019.299 22595.793 7035.939 8046.575 13192.335 9368.955 9728.151 24123.960 4065.496 22971.332 22845.805 23418.344 35553.810 19004.084 12875.675 21701.905 9857.500 23395.550 12128.116 21375.286 19971.832 21465.713 15703.986 2281.687 26460.388 21633.341 21933.027 19495.669 22405.237 1839.001 0.000 2844.004 21758.024 9148.051 21924.134 24028.950 23740.064 36449.538 17029.882 24331.596 13182.224 25385.396 20503.026 30275.251 22037.967 12353.250 23448.127 29456.646 8638.996 20716.778 22036.384 13128.051 35948.174 22271.851 2209.064 2615.211
14385.333 11230.887 7008.857 12324.752 9738.996 12557.894 14422.005 11697.702 7820.667 11136.891 10431.475 27024.411 12762.726 12746.048 7518.902 9590.788 18980.387 12216.596 10908.630 6849.280 11518.377 11024.241 14144.447 12904.055 914.206 22436.583 22087.471 9735.408 6385.446 5355.828 10981.509 12544.399 7349.335 11995.636 10481.192 8810.727 11243.801 10501.169 27889.050 11127.148 20142.737 11029.313 9109.649 10784.012 11090.240 11301.028 20877.521 5317.667 6339.058 11474.064 7650.684 8009.880 22405.688 5148.979 21253.061 21127.534 21700.072 33835.539 17285.812 11157.403 19983.634 8139.228 21677.279 10409.844 19657.014 18253.560 19747.441 13985.714 4153.555 24742.116 19915.069 20214.755 17777.397 20686.966 4037.040 4579.158 0.000 20039.753 7440.534 20205.862 22310.679 22021.792 34731.267 15311.611 22613.324 11463.953 23667.124 18784.755 28556.979 20319.696 10634.978 21729.856 27738.375 6920.725 18998.506 20318.113 11409.780 34229.902 20553.579 4407.103 4813.250
16488.111 25068.576 20723.521 15443.775 23325.896 14303.901 18757.597 11424.634 21649.971 17326.275 17543.543 28851.256 14508.733 17081.640 21286.033 23177.689 20726.394 16681.155 17093.987 21003.024 17223.645 17731.430 18480.039 17239.647 19483.073 24263.428 23914.316 23322.309 20882.686 21191.775 22612.353 15158.109 21116.466 13870.642 17989.825 22582.435 16677.457 23430.853 29715.896 18541.487 379.100 24867.002 22696.549 18087.086 15250.406 17473.033 25288.068 21078.008 20835.740 19109.716 21470.856 21823.122 26937.247 23670.845 25784.619 22954.379 26231.631 37494.448 19031.819 22252.316 24394.181 14790.704 26208.837 14390.960 21483.859 22664.107 24157.988 15731.721 22675.420 26568.961 21741.914 24625.302 22187.944 25097.513 23064.638 23606.756 20153.330 0.000 21284.057 22032.707 26721.226 23848.637 38769.992 22188.225 27144.883 23638.524 25493.969 22026.949 30383.824 24730.243 11703.273 25747.407 29565.220 14860.095 23409.053 24728.660 15528.460 38640.449 25085.138 23434.701 23840.848
9036.092 4789.273 936.711 6975.510 3455.822 10117.409 9072.763 10631.070 965.043 5787.650 5082.233 25801.474 10307.445 7396.806 1426.864 3307.614 14262.121 6867.354 5559.388 1062.384 6169.135 5674.999 8795.206 7554.814 6762.419 21213.646 20864.535 3452.234 1831.202 2948.328 4681.545 7819.238 1383.644 8588.292 5131.950 2988.429 5894.560 4571.766 26666.114 5777.906 21197.237 4587.699 2826.475 5434.770 7972.647 5951.786 15528.280 2868.090 1089.449 6124.822 1198.255 2984.300 17056.447 10876.705 15903.819 18945.218 16350.831 28486.297 12567.547 5422.422 14634.392 10434.662 16328.037 8262.858 18434.078 12904.319 14398.199 11530.433 9881.281 23067.337 18692.132 14865.514 12428.155 15337.724 10432.315 10974.433 7521.007 21094.252 0.000 18023.546 16961.437 20798.855 29382.025 9962.369 17264.083 5163.989 22444.188 13435.513 27334.043 14970.454 13988.328 16380.614 26515.438 10274.074 13649.265 14968.871 6352.600 28880.660 15204.338 10802.378 11208.525
13091.951 24310.129 19965.074 14718.578 22261.240 12018.417 15461.347 12406.574 20891.524 15886.055 16818.345 7862.959 12361.928 15349.879 20527.587 21983.684 7752.362 14949.394 16368.789 20244.577 15783.424 16291.210 14897.016 15351.748 20887.469 5930.040 5580.929 22228.636 20124.239 20830.742 21172.132 14046.550 20358.020 12478.075 17099.721 21823.989 15238.911 21990.633 8727.599 17368.928 22972.741 24108.555 21938.103 16957.962 14482.578 16747.835 15854.460 20319.561 20077.293 17861.943 20712.409 21064.675 20169.310 25075.241 17713.929 4625.110 17253.286 16506.151 8281.178 20812.096 16187.194 14351.274 17230.493 13665.762 4976.487 16113.457 16937.741 13994.882 24079.816 5577.034 5185.053 15974.276 16006.242 16251.444 24469.034 25011.152 21557.726 22869.756 20525.610 0.000 17630.413 5515.249 18594.500 20748.005 18378.477 22198.304 7160.582 13726.333 9395.527 15203.563 21247.245 15203.182 8576.923 17307.818 16164.454 16113.719 14803.263 22025.852 18317.201 24839.097 25245.244
12484.404 22289.582 17944.527 13728.679 17390.069 15362.058 10292.899 16979.992 18870.977 12487.052 14745.729 24359.036 15616.526 11143.454 18507.039 17112.514 14363.431 11737.844 15098.910 18224.030 12649.929 12892.207 10157.490 10959.995 22323.881 21203.215 20854.104 17357.466 18103.692 18810.195 16300.962 13718.253 18337.472 14836.521 14375.213 17645.815 12502.030 17119.462 25223.676 13956.044 27546.159 22088.008 17335.787 13572.569 14782.065 15477.956 4541.350 18299.014 18056.746 13842.354 18691.862 17936.819 6534.803 26438.167 3125.477 17417.749 2354.552 16273.760 13360.491 15940.925 5427.071 18224.389 2331.758 15586.284 18404.715 8183.913 5679.683 15976.549 25442.742 21539.868 18662.770 5695.456 6355.893 4634.921 25993.776 26535.895 23082.469 27443.174 18505.063 16496.077 0.000 20788.425 14684.576 16033.901 3790.025 17327.133 22433.757 13778.867 25891.604 3959.366 25120.361 5516.709 25073.000 21180.933 4993.643 4497.197 14425.229 13731.690 4800.289 26363.840 26769.987
13944.980 24701.438 20356.383 15076.638 22958.759 12376.477 17120.880 12764.634 21282.834 16739.084 17176.405 11202.355 12719.988 16202.908 20918.896 22810.552 8545.786 15802.424 16726.849 20635.886 16636.454 17144.239 16633.897 16360.916 21245.529 414.791 1029.962 22955.172 20515.548 21222.052 22025.162 14404.610 20749.329 12836.135 17622.688 22215.298 16091.941 22843.662 12066.995 18174.350 23330.801 24499.864 22329.412 17719.949 14840.638 17105.895 17714.601 20710.871 20468.603 18714.973 21103.718 21455.984 21884.571 25433.301 19574.069 7968.136 19113.426 19845.547 9074.603 21665.125 18047.334 14709.334 19090.633 14023.822 2800.108 17318.695 18797.882 14352.942 24437.877 8920.061 3008.674 17834.416 17211.479 18111.584 24827.094 25369.212 21915.786 23227.817 20916.919 8437.509 19490.553 0.000 21933.896 21601.034 20238.617 23051.333 3530.664 15556.695 12734.924 17063.704 21605.306 17063.322 11916.319 17665.878 18024.595 17973.860 15161.323 25365.248 20032.462 25197.157 25603.304
22695.270 33284.033 28938.978 24492.644 28436.846 25572.924 21001.000 27271.628 29865.428 23451.593 25792.505 32051.807 25827.392 21907.418 29501.491 28159.290 22056.202 22497.298 25914.402 29218.481 23544.434 23856.748 20738.888 21723.960 33318.332 28895.986 28546.875 28404.242 29098.143 29804.646 27347.738 24473.101 29331.924 25591.369 25421.989 28692.591 23265.995 28166.239 32916.446 25002.820 37837.795 33082.459 28382.563 24619.345 25536.913 26293.448 15420.428 29293.465 29051.197 24889.130 29686.313 28983.595 16789.268 37432.618 16001.439 25110.519 15908.306 2249.839 21053.262 26987.702 15951.259 28979.238 15885.512 26341.132 26097.486 19230.690 16726.459 26187.415 36437.194 29232.638 26355.541 16027.439 17402.669 15817.412 36988.228 37530.346 34076.920 37734.811 29499.514 24188.848 16297.815 28481.195 0.000 27080.678 15271.224 28373.910 30126.528 23326.977 33584.375 14967.629 35875.209 14769.149 32765.771 31935.782 16040.419 15679.687 25189.194 4236.114 15885.041 37358.291 37764.438
11498.353 21303.531 16958.475 12742.628 16404.018 14376.007 9306.848 15993.941 17884.926 11501.001 13759.678 24335.949 14630.475 10157.403 17520.988 16126.463 14070.130 10751.793 14112.859 17237.978 11663.878 11906.156 9171.439 9973.944 21337.830 21180.128 20831.017 16371.415 17117.640 17824.144 15314.911 12732.202 17351.421 13850.470 13389.161 16659.764 11515.979 16133.411 25200.588 12969.993 26560.108 21101.957 16349.735 12586.518 13796.013 14491.905 5828.748 17312.963 17070.695 12856.303 17705.811 16950.768 7187.915 25452.115 6035.288 17394.661 6482.300 18809.792 13060.694 14954.874 5302.557 17238.338 6459.506 14600.233 18381.628 7138.213 4698.667 14990.498 24456.691 21516.780 18639.683 5189.009 5310.193 5922.319 25007.725 25549.843 22096.417 26457.123 17519.011 16472.990 7261.905 20765.337 19705.520 0.000 7395.552 16341.082 22410.670 12792.816 25868.517 5270.922 24134.310 6704.109 25049.913 20194.882 3972.760 5784.595 13439.178 19181.128 5335.807 25377.789 25783.935
11847.152 21304.887 16959.832 12910.168 16405.375 14724.807 9829.694 16288.295 17886.282 11502.358 13761.034 24127.211 14979.274 10451.757 17522.345 16127.819 14131.606 11046.147 14114.215 17239.335 11665.235 11907.513 9694.285 10274.596 21339.186 20971.390 20622.279 16372.771 17118.997 17825.500 15316.267 13026.556 17352.778 14144.824 13390.518 16661.120 11683.518 16134.768 24991.851 12971.349 26854.462 21103.313 16351.092 12587.874 14090.367 14493.261 4309.525 17314.319 17072.051 12857.659 17707.167 16952.124 4532.729 25453.472 2192.569 17185.924 2099.435 17116.300 13128.666 14956.231 5195.246 17532.692 2076.642 14894.587 18172.890 6989.395 5220.467 15339.298 24458.048 21308.043 18430.945 5463.631 5161.374 4403.096 25009.082 25551.200 22097.774 26751.477 17520.368 16264.252 2488.945 20556.600 15527.116 15049.207 0.000 16342.439 22201.932 13141.615 25659.779 3727.541 24428.664 5284.884 24841.175 20489.236 4556.151 4265.372 13606.717 14574.230 2788.412 25379.145 25785.292
11077.547 9225.302 5023.845 9292.114 2085.058 12593.685 9442.626 13169.885 4282.247 7120.383 8412.948 27927.961 12783.721 8493.472 4101.230 1863.833 16303.577 8391.601 8897.888 4914.973 7311.096 6846.862 9307.217 8465.070 10555.134 23689.922 23340.810 2108.785 5683.791 6947.370 1298.822 10101.701 4464.496 11026.414 8042.432 3180.337 7808.527 3256.329 28792.601 7623.264 23736.052 9023.728 2796.275 7239.789 10999.861 9290.286 14848.834 6530.268 5445.729 7509.574 4227.865 3617.989 16208.002 14669.420 15055.375 20986.674 15502.386 27829.879 14609.002 2533.704 14223.223 13472.213 15479.593 11431.503 20910.353 12493.149 13718.754 13698.635 13673.996 25108.793 21168.408 14209.095 12016.986 14926.555 14157.119 14699.237 11245.811 23633.067 5062.912 20065.002 16281.992 23275.131 28725.607 9038.691 16415.638 0.000 24920.463 14437.273 29460.529 14291.009 17680.402 15724.196 28641.925 13966.148 12992.846 14557.702 9521.244 28115.939 14355.893 14527.182 14933.329
15537.548 26294.007 21948.952 16669.206 24551.327 13969.045 18713.448 14357.203 22875.402 18331.652 18768.974 12794.924 14312.557 17795.477 22511.464 24403.120 10138.354 17394.992 18319.418 22228.455 18229.022 18736.808 18226.465 17953.484 22838.098 4012.958 3663.847 24547.740 22108.117 22814.620 23617.730 15997.179 22341.898 14428.703 19215.257 23807.867 17684.509 24436.231 13659.563 19766.918 24923.370 26092.433 23921.981 19312.517 16433.206 18698.464 19307.169 22303.439 22061.171 20307.541 22696.287 23048.553 23477.139 27025.869 21166.638 9560.704 20705.995 21438.116 10667.171 23257.694 19639.902 16301.902 20683.201 15616.391 4392.676 18911.263 20390.450 15945.510 26030.445 10512.629 4601.242 19426.985 18804.048 19704.153 26419.662 26961.781 23508.355 24820.385 22509.488 10030.077 21083.122 3598.168 23526.465 23193.602 21831.186 24643.902 0.000 17149.263 14327.492 18656.272 23197.874 18655.890 13508.888 19258.446 19617.163 19566.428 16753.891 26957.816 21625.030 26789.726 27195.873
6296.562 17759.767 13414.712 8839.850 14042.500 9351.018 6563.811 11049.722 14341.162 8122.798 10310.385 19010.705 9605.485 6671.855 13977.225 13764.945 8195.401 6762.902 10380.157 13694.215 8020.168 8527.953 5999.480 6454.211 17794.066 15854.884 15505.773 14009.897 13573.877 14280.380 12953.393 8277.017 13807.658 9721.888 9989.706 14298.246 7741.729 13771.893 19875.344 9605.672 21615.889 17558.193 13988.218 9194.705 9779.461 10759.203 11119.704 13769.199 13526.931 10077.508 14162.047 14514.313 13221.192 21908.352 12068.565 12069.417 12175.734 22849.041 6874.211 12593.356 10150.414 13052.798 12152.941 10583.681 13056.384 8661.508 9989.623 9943.488 20912.928 16191.536 13314.439 10036.866 8470.359 11140.521 21463.962 22006.080 18552.654 21512.904 13975.248 11147.746 12552.861 15440.093 23744.768 12669.467 13300.925 13979.564 17085.426 0.000 20543.273 10561.878 19948.770 10722.184 19724.669 16009.342 9216.336 10771.668 9536.399 24384.334 11369.083 21834.025 22240.172
19973.567 31191.745 26846.690 21606.651 29142.856 18906.490 22342.963 19294.647 27773.141 22767.671 23706.418 3237.096 19250.001 22231.495 27409.203 28865.300 14633.978 21831.011 23256.862 27126.193 22665.041 23172.826 21778.632 22233.364 27775.542 12818.113 12469.002 29110.253 27005.855 27712.359 28053.748 20934.088 27239.636 19366.148 23981.338 28705.605 22120.528 28872.249 2583.560 24250.544 29860.814 30990.171 28819.719 23839.578 21370.651 23635.908 22736.077 27201.178 26958.909 24743.559 27594.025 27946.291 27050.926 31963.314 24595.545 11074.619 24134.902 10853.525 15162.794 27693.712 23068.810 21239.347 24112.109 20553.835 11864.560 22995.073 23819.357 20882.955 30967.889 7197.019 12073.126 22855.892 22887.858 23133.060 31357.107 31899.225 28445.799 29757.829 27407.226 13585.127 24512.029 12403.322 12941.874 27629.621 25260.093 29079.920 14048.655 20607.949 0.000 22085.180 28135.318 22084.798 1470.641 24195.891 23046.071 22995.336 21691.336 16373.226 25198.817 31727.170 32133.317
9239.036 19044.214 14699.159 10483.311 14144.701 12116.690 7047.531 13734.624 15625.609 9241.684 11500.361 20399.670 12371.158 7898.086 15261.671 13867.146 10404.065 8492.476 11853.542 14978.662 9404.561 9646.839 6912.122 7714.627 19078.513 17243.849 16894.738 14112.098 14858.324 15564.827 13055.594 10472.885 15092.105 11591.153 11129.845 14400.447 9256.662 13874.094 21264.309 10710.676 24300.791 18842.640 14090.419 10327.201 11536.697 12232.588 1410.962 15053.646 14811.378 10596.986 15446.494 14691.451 5674.332 23192.799 3185.850 13458.382 2725.207 13672.507 9401.125 12695.557 1659.910 14979.021 2702.414 12340.916 14445.349 4938.545 2434.315 12731.181 22197.374 17580.501 14703.404 1736.089 3110.525 1777.383 22748.408 23290.527 19837.101 24197.806 15259.695 12536.711 3102.334 16829.058 14568.234 12788.533 3850.398 14081.765 18474.391 10471.344 21932.238 0.000 21874.993 1566.823 21113.634 17935.565 1748.275 1639.659 11179.861 14698.688 3822.223 23118.472 23524.619
13745.601 16842.361 12620.331 11869.963 15349.568 11561.390 15502.212 8722.940 13432.140 13737.174 13066.237 26108.746 11766.223 13826.255 13129.475 15201.361 17983.884 13425.770 12566.668 12459.853 13634.544 13850.009 15224.655 13984.262 9258.599 21520.918 21171.806 15345.981 11996.019 10967.301 16592.081 11933.776 12959.908 11128.131 13512.520 14421.299 13094.307 16111.741 26973.385 14064.181 12028.357 16640.787 14720.221 13609.780 10479.617 12945.714 22032.684 10928.240 11950.532 14632.411 13261.256 13620.452 23681.862 13446.371 22529.235 20211.869 22976.246 34751.938 16289.309 16767.976 21138.796 7528.606 22953.453 9896.669 18741.349 19408.722 20902.603 12989.211 12450.946 23826.451 18999.404 21369.917 18932.559 21842.128 12840.164 13382.282 9928.856 11925.372 13052.008 19290.197 23465.841 21106.127 35886.429 17109.948 23889.498 17074.525 22751.459 19284.438 27641.314 21474.858 0.000 22885.018 26822.710 3604.142 20153.668 21473.275 10799.157 35385.064 21829.753 13210.227 13616.374
9448.260 19940.863 15595.807 11245.634 15041.350 12325.914 7753.990 14024.619 16522.258 10138.333 12397.009 19906.295 12580.382 8660.409 16158.320 14763.795 9910.690 9250.288 12667.392 15875.310 10297.424 10543.488 7491.878 8476.950 19975.162 16750.474 16401.363 15008.747 15754.972 16461.476 13952.243 11226.092 15988.753 12344.360 12026.493 15297.096 10018.985 14770.743 20770.934 11607.325 24590.786 19739.288 14987.067 11223.850 12289.903 13046.438 1762.743 15950.295 15708.027 11493.635 16343.142 15588.100 6570.981 24089.447 4082.499 12965.007 3621.856 13295.019 8907.750 13592.206 2546.490 15732.228 3599.063 13094.123 13951.974 5835.194 3330.963 12940.405 23094.023 17087.126 14210.029 2622.670 4007.173 2159.727 23645.057 24187.175 20733.749 24487.801 16156.343 12043.336 3998.983 16335.683 14190.746 13685.182 4747.047 14978.414 17981.016 10079.967 21438.863 1425.402 22628.200 0.000 20620.259 18688.772 2644.924 2022.002 11942.184 14840.980 4718.872 24015.121 24421.267
19098.100 30316.278 25971.223 20731.183 28267.389 18031.022 21467.496 18419.180 26897.673 21892.204 22830.951 2411.986 18374.534 21356.028 26533.736 27989.833 13758.511 20955.544 22381.395 26250.726 21789.574 22297.359 20903.165 21357.897 26900.075 11942.646 11593.535 28234.785 26130.388 26836.891 27178.281 20058.621 26364.169 18490.681 23105.870 27830.138 21245.061 27996.782 2275.430 23375.077 28985.347 30114.704 27944.252 22964.111 20495.184 22760.441 21860.609 26325.710 26083.442 23868.092 26718.558 27070.824 26175.459 31087.846 23720.078 10249.509 23259.435 10385.591 14287.327 26818.245 22193.343 20363.880 23236.642 19678.368 10989.093 22119.606 22943.890 20007.488 30092.422 6371.909 11197.659 21980.425 22012.391 22257.593 30481.640 31023.758 27570.332 28882.362 26531.759 12709.660 23636.562 11527.855 12473.941 26754.154 24384.626 28204.453 13173.188 19732.482 1352.187 21209.712 27259.851 21209.331 0.000 23320.424 22170.604 22119.869 20815.868 15905.292 24323.350 30851.703 31257.850
10527.339 13456.912 9234.881 8265.821 11964.119 8343.129 11898.070 7202.306 10046.691 10133.032 9462.095 22809.646 8547.961 10222.113 9744.025 11815.912 14765.622 9821.628 8962.526 9074.404 10030.402 10245.867 11620.513 10380.120 5873.150 18221.818 17872.706 11960.532 8610.570 7581.852 13206.632 8329.634 9574.459 7780.871 9908.378 11035.850 9490.165 12726.292 23674.286 10460.039 15006.599 13255.338 11334.772 10005.638 6875.475 9341.572 18428.542 7542.790 8565.083 11028.269 9875.807 10235.003 20077.720 10060.921 18925.093 16912.769 19372.104 31386.559 13071.047 13382.527 17534.654 3924.464 19349.311 6298.483 15442.249 15804.580 17298.461 9770.949 9065.497 20527.351 15700.304 17765.775 15328.417 18237.986 9454.714 9996.833 6543.407 14903.614 9666.559 15991.097 19861.699 17807.027 32282.287 13505.806 20285.356 13689.076 19452.359 16066.177 24342.214 17870.716 4193.852 19280.876 23523.610 0.000 16549.526 17869.133 7195.015 31780.922 18225.611 9824.778 10230.925
7525.593 17330.771 12985.716 8769.869 12431.258 10403.247 5334.088 12021.181 13912.166 7528.241 9786.918 21583.023 10657.715 6184.643 13548.228 12153.703 10097.370 6779.033 10140.099 13265.219 7691.118 7933.396 5198.679 6001.184 17365.070 17820.858 17471.746 12398.655 13144.881 13851.384 11342.151 8759.442 13378.662 9877.710 9416.402 12687.004 7543.219 12160.651 22447.662 8997.233 22587.348 17129.197 12376.976 8613.758 9823.254 10519.145 6261.447 13340.203 13097.935 8883.543 13733.051 12978.008 7889.191 21479.356 6736.564 14641.735 7183.575 19255.902 9087.934 10982.114 5315.848 13265.578 7160.782 10627.473 15022.358 3673.923 5167.804 11017.738 20483.931 18763.854 15280.412 5635.118 3109.611 6019.180 21034.965 21577.084 18123.658 22484.363 13546.252 13720.064 7731.042 17406.067 20151.630 11075.090 8096.827 12368.322 19051.399 8820.056 23115.591 5740.059 20161.550 7150.219 22296.987 16222.122 0.000 5650.327 9466.418 19650.265 6037.082 21405.029 21811.176
9765.117 19598.519 15253.464 11037.616 14699.006 12642.771 7601.836 14288.929 16179.914 9795.989 12054.666 21434.966 12897.239 8452.391 15815.976 14421.451 11439.361 9046.781 12407.847 15532.967 9958.866 10201.144 7466.427 8268.932 19632.818 18279.146 17930.034 14666.403 15412.629 16119.132 13609.899 11027.190 15646.410 12145.458 11684.150 14954.752 9810.967 14428.399 22299.606 11264.981 24855.096 19396.945 14644.724 10881.506 12091.002 12786.893 799.349 15607.951 15365.683 11151.291 16000.799 15245.756 5760.949 23747.104 3731.693 14493.679 3271.050 14699.999 10436.422 13249.862 1118.103 15533.326 3248.257 12895.221 15480.646 4626.010 2955.262 13257.262 22751.679 18615.798 15738.700 2990.308 2624.930 557.083 23302.713 23844.832 20391.406 24752.111 15814.000 13572.007 3648.177 17864.355 15595.727 13342.838 4396.241 14636.070 19509.687 11059.580 22967.535 1274.977 22429.298 2372.587 22148.930 18489.870 2290.945 0.000 11734.166 15061.581 3908.841 23672.777 24078.924
4313.240 10095.401 5750.346 1070.806 8352.721 3990.578 5081.292 4522.744 6676.796 2938.017 2570.368 19674.644 4180.614 3405.335 6312.858 8204.514 9303.014 2875.883 2120.812 6029.849 2835.387 3343.172 4803.735 3563.342 10129.700 15086.815 14737.704 8349.134 5909.511 6616.014 8224.095 1792.385 6143.291 2379.274 3016.650 7609.261 2295.150 9042.595 20539.283 3568.312 15088.911 9893.827 7723.374 3113.911 1742.307 2499.858 11536.809 6104.833 5862.565 4136.542 6497.681 6849.947 13185.901 14243.986 12033.273 13777.766 12480.285 24494.826 7608.439 7864.058 10642.921 4193.998 12457.491 2221.270 12307.247 8912.847 10406.728 5403.602 13248.561 17392.349 12565.302 10874.042 8436.684 11346.253 13799.595 14341.714 10888.288 14985.927 6310.882 12856.095 12969.966 14672.025 25390.554 7641.510 13393.537 9250.266 16317.357 9444.042 21207.212 10978.983 11089.970 12389.143 20388.607 7150.542 9657.793 10977.400 0.000 24889.189 11333.792 14169.659 14575.806
22966.476 32771.654 28426.599 24210.752 27872.141 25844.130 20774.971 27462.064 29353.049 22969.125 25227.801 33102.438 26098.598 21625.526 28989.111 27594.586 23106.833 22219.917 25580.982 28706.102 23132.001 23374.280 20639.562 21442.067 32805.953 29946.617 29597.506 27839.538 28585.764 29292.267 26783.034 24200.325 28819.545 25318.593 24857.285 28127.887 22984.102 27601.535 33967.078 24438.116 38028.231 32570.080 27817.859 24054.641 25264.137 25960.028 15042.694 28781.086 28538.818 24324.426 29173.934 28418.891 15898.790 36920.239 15110.961 26161.150 15017.828 5692.157 22103.893 26422.997 15928.415 28706.461 14995.034 26068.356 27148.117 18665.985 16161.755 26458.621 35924.815 30283.269 27406.172 16277.454 16837.965 15136.266 36475.849 37017.967 33564.541 37925.246 28987.135 25239.479 15407.337 29531.827 4260.546 26515.973 14380.746 27809.206 31177.159 24151.255 34635.006 14541.365 35602.433 14071.288 33816.402 31663.005 15475.715 14998.541 24907.301 0.000 14994.563 36845.912 37252.059
9463.102 18920.837 14575.782 10526.117 14021.324 12340.757 7445.644 13904.245 15502.232 9118.307 11376.984 22892.279 12595.224 8067.706 15138.294 13743.769 12034.879 8662.097 11730.165 14855.285 9281.184 9523.463 7310.235 7890.546 18955.136 19736.458 19387.347 13988.721 14734.947 15441.450 12932.217 10642.506 14968.728 11760.774 11006.468 14277.070 9299.468 13750.718 23756.919 10587.299 24470.412 18719.263 13967.042 10203.824 11706.317 12109.211 3964.288 14930.269 14688.001 10473.609 15323.117 14568.074 2737.724 23069.422 1671.815 15950.992 2118.827 17003.078 11025.444 12572.180 3018.689 15148.642 2096.033 12510.537 16937.958 4605.345 2836.417 12955.247 22073.997 20073.111 17196.013 3382.294 2777.324 3722.021 22625.031 23167.150 19713.724 24367.427 15136.318 15029.320 3021.245 19321.668 16419.988 12665.156 3032.079 13958.389 20967.000 10757.565 24424.847 3408.672 22044.614 4897.395 23606.243 18105.186 2172.100 3353.168 11222.667 15467.103 0.000 22995.095 23401.242
17645.403 14475.697 10253.667 15584.822 13028.140 15897.135 17682.075 15036.943 11065.477 14396.962 13691.545 30363.653 16101.968 16006.118 10778.973 12879.933 22319.629 15476.666 14168.700 10109.351 14778.447 14284.311 17404.518 16164.126 4242.692 25775.824 25426.713 13024.553 9645.517 8600.638 14270.653 15883.641 10609.406 15334.877 13741.262 12149.968 14503.872 13840.410 31228.292 14387.218 23481.979 14274.123 12398.793 14044.082 14429.482 14561.098 24137.592 8656.909 9583.868 14734.134 10910.754 11349.121 25665.758 3170.203 24513.131 24466.775 24960.143 37095.609 20625.054 14496.645 23243.704 11478.470 24937.349 13749.086 22996.256 21513.630 23007.511 17324.956 1121.650 28081.358 23254.311 23474.826 21037.467 23947.036 495.523 2125.639 4464.974 23378.995 10685.344 23545.104 25570.749 25361.034 37991.337 18571.681 25873.395 14753.097 27006.366 22044.825 31896.221 23579.766 13974.220 24989.926 31077.617 10259.967 22258.577 23578.183 14749.022 37489.972 23813.650 0.000 406.147
18074.181 14904.474 10682.444 16013.599 13456.917 16325.913 18110.853 15465.721 11494.254 14825.739 14120.323 30792.430 16530.745 16434.895 11207.750 13308.710 22748.406 15905.443 14597.477 10538.128 15207.224 14713.088 17833.295 16592.903 4671.470 26204.602 25855.490 13453.330 10074.294 9029.415 14699.430 16312.418 11038.183 15763.655 14170.039 12578.746 14932.649 14269.188 31657.069 14815.995 23910.756 14702.900 12827.571 14472.860 14858.259 14989.875 24566.369 9085.686 10012.646 15162.911 11339.531 11777.899 26094.536 3598.981 24941.909 24895.553 25388.920 37524.386 21053.831 14925.422 23672.481 11907.247 25366.126 14177.863 23425.033 21942.408 23436.289 17753.733 1550.428 28510.135 23683.088 23903.603 21466.245 24375.813 924.300 2554.416 4893.751 23807.772 11114.121 23973.881 25999.526 25789.811 38420.114 19000.458 26302.172 15181.874 27435.143 22473.602 32324.998 24008.543 14402.997 25418.703 31506.394 10688.744 22687.354 24006.961 15177.799 37918.750 24242.427 428.777 0.000
NODE_COORD_SECTION
1 1438.942575 -1211.855723
2 939.158778 -11531.868099
3 2142.106030 -8218.374716
4 2352.380656 -3395.599907
5 -612.822743 -7834.551377
6 4292.047124 -1265.489382
7 77.496783 -2260.990907
8 5843.925895 -1958.182873
9 1341.120703 -8492.364950
10 1064.730310 -4565.508184
11 2428.259185 -5565.076025
12 807.320126 10603.021714
13 4366.068450 -591.668719
14 751.071667 -2886.391631
15 1135.412396 -8236.530602
16 -781.275824 -7760.041969
17 2844.425478 2192.634833
18 972.867694 -3306.263017
19 2831.202955 -5273.831785
20 2137.073368 -8118.770210
21 1162.484312 -4625.065240
22 951.608241 -4907.873216
23 -56.870542 -1813.212673
24 497.277146 -2733.975518
25 6420.243642 -7784.623827
26 7333.143994 8094.424466
27 7450.568068 7713.914141
28 -734.896877 -7902.968621
29 2731.781905 -7869.647298
30 3460.597680 -7711.373782
31 -1728.629456 -7549.659314
32 2950.887162 -2414.620834
33 1650.430894 -8323.731675
34 3725.747249 -2019.673597
35 1937.377083 -5806.091845
36 111.141581 -7814.918860
37 1322.754172 -3873.740896
38 -1291.427586 -7534.520196
39 1142.938388 11014.151094
40 1280.456270 -6205.489853
41 11637.408454 3146.482613
42 1779.237300 -11861.835569
43 -345.460474 -7756.303899
44 1510.541706 -5504.299636
45 3689.195135 -3012.485751
46 2924.074524 -5337.508979
47 -4768.561372 1063.762217
48 3153.570737 -7394.894815
49 2497.853685 -8262.482261
50 1090.048387 -6068.969058
51 1242.905609 -8521.008912
52 472.586913 -7627.062863
53 -5959.056795 -2382.751663
54 7043.656749 -10551.259614
55 -6140.783966 -34.879118
56 4643.951558 6124.159060
57 -5737.387521 960.408825
58 -5136.459514 8886.300591
59 2099.239907 1876.588291
60 -1841.346635 -6902.527357
61 -4376.077185 79.144782
62 6494.992315 -4283.263570
63 -5635.508566 940.483453
64 4586.985795 -2629.680134
65 6528.846455 5854.996958
66 -3509.730537 -116.877073
67 -4314.104218 1099.020184
68 3902.790818 167.230100
69 8230.449009 -9827.031378
70 4076.458403 8762.592586
71 6603.485344 6002.595017
72 -3316.556730 1121.076982
73 -3628.904395 -761.537810
74 -4567.144707 868.364766
75 8712.998828 -9544.330600
76 8161.407706 -8164.675820
77 7181.154797 -7702.856729
78 11579.939728 3027.354702
79 1815.112860 -8784.587814
80 4962.105160 5853.774410
81 -6757.745935 858.854680
82 7634.525802 8088.988791
83 -7150.002003 8767.049182
84 -1747.498830 -2322.516625
85 -6406.969505 614.789550
86 -1999.843362 -7901.904908
87 8007.794993 5982.249805
88 -812.425339 1586.916973
89 2879.968550 11644.377281
90 -4068.851646 1352.947297
91 10006.703741 -5429.226013
92 -4166.532546 2083.073014
93 2371.174511 11327.197739
94 8443.040420 -5776.709396
95 -3601.394954 195.527556
96 -4710.934791 857.821470
97 3037.633157 -3691.397022
98 -10148.686692 9701.872500
99 -5140.661415 -800.388374
100 9042.730381 -9501.775337
101 9392.285565 -9588.150580
DEMAND_SECTION
1 0
2 63
3 4
4 8
5 8
6 7
7 5
8 1
9 6
10 5
11 6
12 7
13 1
14 2
15 4
16 7
17 10
18 3
19 6
20 10
21 5
22 6
23 4
24 8
25 6
26 8
27 3
28 8
29 72
30 4
31 2
32 56
33 6
34 9
35 5
36 3
37 9
38 61
39 6
40 9
41 1
42 64
43 9
44 4
45 5
46 10
47 57
48 88
49 10
50 8
51 6
52 2
53 4
54 1
55 4
56 10
57 2
58 7
59 2
60 10
61 2
62 7
63 1
64 69
65 9
66 82
67 7
68 3
69 73
70 7
71 2
72 1
73 1
74 1
75 8
76 10
77 5
78 51
79 8
80 4
81 4
82 2
83 8
84 2
85 1
86 3
87 1
88 1
89 7
90 2
91 1
92 67
93 1
94 2
95 5
96 8
97 6
98 6
99 6
100 7
101 1
DEPOT_SECTION
1
-1
EOF
