NAME : mamut-paris-n10-hyb
COMMENT : Mamut2026 shortest metric; city paris; 3-decimal seconds/meters; ENU ref in mamut-paris-n10-hyb.vrp.json
TYPE : CVRP
DIMENSION : 11
EDGE_WEIGHT_TYPE : EXPLICIT
EDGE_WEIGHT_FORMAT : FULL_MATRIX
CAPACITY : 172
EDGE_WEIGHT_SECTION
0.000 2731.469 9436.798 4350.399 5035.187 1505.444 6545.030 3544.948 7374.161 4280.270 5577.135
3270.357 0.000 11761.710 1809.877 2303.718 4381.601 5678.481 3018.110 6442.535 4414.118 6492.530
8927.066 11244.695 0.000 12277.818 13342.410 9163.354 9675.354 9166.641 16180.667 7516.133 13189.086
4641.863 1686.673 12817.670 0.000 1532.818 5753.107 5541.037 3565.304 5903.165 5257.719 7558.747
5469.321 2514.131 13750.229 1683.099 0.000 6580.564 6297.776 4796.658 4704.764 6355.995 8199.746
1576.871 4308.340 9352.940 5927.270 6612.058 0.000 7749.835 5028.506 8228.832 4926.329 4444.745
6114.128 5468.805 10278.841 4784.421 5751.943 7550.342 0.000 2577.385 9916.169 4006.348 11275.641
3616.741 3389.789 9252.366 3279.495 4701.419 5052.956 3037.444 0.000 8953.184 1692.415 8778.255
7908.055 6531.703 17049.262 5966.980 4650.416 8195.384 10424.060 9080.398 0.000 10546.119 7082.208
4204.696 5340.382 7611.876 5514.198 6871.218 5140.773 4047.182 2320.063 11019.408 0.000 9585.518
4853.427 6239.679 13154.526 7453.966 7772.159 3801.586 10985.167 7947.723 6990.957 8727.915 0.000
NODE_COORD_SECTION
1 -500.874011 70.822412
2 204.844649 -2048.531555
3 -8173.220824 2231.991929
4 211.356527 -3429.149073
5 1164.497986 -4043.880396
6 -15.266374 1335.414020
7 -3805.380107 -3591.508254
8 -2347.624106 -2030.626921
9 4983.648261 -3650.532722
10 -3362.947156 -786.627030
11 3425.238281 1785.987140
DEMAND_SECTION
1 0
2 9
3 5
4 5
5 1
6 3
7 3
8 9
9 76
10 6
11 5
DEPOT_SECTION
1
-1
EOF
