NAME : mamut-lyon-n100-poi
COMMENT : Mamut2026 shortest metric; city lyon; 3-decimal seconds/meters; ENU ref in mamut-lyon-n100-poi.vrp.json
TYPE : CVRP
DIMENSION : 101
EDGE_WEIGHT_TYPE : EXPLICIT
EDGE_WEIGHT_FORMAT : FULL_MATRIX
CAPACITY : 190
EDGE_WEIGHT_SECTION
0.000 2991.143 1462.974 2183.779 1544.349 4254.966 742.222 3475.335 2938.744 5452.314 3757.456 1949.467 4455.174 5553.530 2338.407 3031.619 4615.164 4162.898 1287.306 1669.705 3806.490 4821.342 594.886 850.847 4336.640 3437.636 434.636 3075.221 2701.180 1428.866 4979.822 4050.340 756.906 2747.090 820.561 5717.305 1906.741 870.909 2490.642 7450.513 1523.561 1395.845 1328.058 2647.406 1149.166 1303.809 2701.896 3618.421 3042.630 1268.031 4204.947 3210.008 6419.107 5757.688 7618.104 2219.559 1224.677 5412.560 5024.785 905.129 1390.479 1839.880 4390.488 2525.052 1019.751 1672.961 1146.030 2358.273 692.355 2213.423 3355.966 960.252 3340.293 3504.600 2624.747 2793.769 5730.442 3633.823 3191.312 2374.564 909.795 1585.287 1848.559 1556.809 2857.876 3273.697 2899.189 4091.891 4953.898 4622.269 1789.919 1875.118 2867.211 1140.089 3849.100 1463.942 808.382 3055.451 4750.783 3218.482 1547.814
2906.603 0.000 2706.213 2093.365 1681.220 6234.544 2920.405 3843.720 5498.373 3713.939 6075.069 2507.262 1858.692 5999.648 3209.369 3543.759 2018.682 2600.185 2832.290 4472.593 815.348 5539.374 3139.566 3298.752 4792.927 2991.425 3179.378 453.265 2069.055 3037.675 2252.737 4870.921 2893.355 1365.424 2790.600 4259.190 1317.641 2857.391 4470.220 9221.841 4326.449 3143.427 2705.298 535.967 3952.054 4106.697 3572.858 640.165 1882.462 3692.091 6184.525 613.526 7928.805 6224.647 8074.391 3110.915 3648.738 8014.806 7627.030 2831.335 2907.942 2029.841 5483.261 3396.014 3161.864 2886.117 2487.698 3229.235 2928.430 936.316 1535.614 3319.164 3708.679 4717.756 3465.425 3586.206 7501.770 5998.481 2998.355 1863.201 2879.833 2807.735 2739.914 3501.902 1476.210 2113.529 5501.434 6075.568 2357.416 6393.596 2681.275 2766.473 4240.829 3942.977 3105.400 2322.597 3256.287 458.969 2154.301 1398.130 2437.732
1338.247 2937.303 0.000 3099.667 1490.510 5584.728 1151.220 4805.097 3042.807 4645.827 5050.145 781.861 4401.335 6883.292 1082.374 1775.585 4561.325 3735.887 510.690 2164.124 3594.727 6151.105 1141.313 2180.609 3310.183 2181.603 934.106 3021.382 2274.168 726.769 4840.313 3023.883 661.374 2693.250 558.619 4461.271 1628.447 625.411 3820.404 6982.228 2017.981 850.535 644.419 2593.567 1746.279 1908.084 1445.863 3321.296 3648.975 1372.093 5534.709 3156.169 5950.822 4731.231 6591.647 888.844 1328.740 6122.594 5734.819 809.598 516.019 2755.768 3371.946 1269.019 2349.513 646.503 871.333 1102.240 1159.245 2159.584 3302.127 2290.014 4670.056 2478.143 1368.714 1537.735 5262.156 4926.512 4521.074 2320.725 647.852 254.572 517.844 2886.572 2804.036 3880.042 3188.886 5384.580 4900.059 4153.983 459.204 544.402 4196.974 1744.364 4762.719 2400.896 2138.145 3001.612 4696.944 3164.642 380.208
2312.646 2318.254 3208.971 0.000 1772.490 4242.284 2343.253 2655.910 4620.988 6032.193 4082.809 3556.536 3648.460 4753.047 4084.405 4777.616 3670.655 4646.587 3033.303 3374.131 3133.601 4124.094 2494.851 1710.676 6083.409 4504.236 2334.602 2402.332 3581.866 3255.052 4306.933 5846.593 2553.159 1834.092 2616.814 6577.444 2206.084 2667.162 2477.960 9245.989 3227.988 3295.810 2920.647 2030.816 2907.222 2987.687 4447.893 2958.418 1672.540 3167.996 4192.265 2537.119 8104.479 7515.129 9364.873 3965.557 3124.643 6678.484 6290.709 2701.382 3136.477 485.496 6194.657 4271.050 1542.873 3469.214 2703.047 4104.270 2351.278 1596.833 2284.215 1691.884 2520.869 5300.853 4370.744 4539.766 7525.918 4090.897 1924.099 1461.566 2706.048 3331.285 3594.556 1530.581 1944.878 1919.314 4362.979 4083.308 4281.009 6417.744 3535.916 3621.115 2248.570 2898.146 2333.758 915.912 2016.588 2382.562 4077.894 2146.731 3293.811
1277.149 1604.075 1709.365 1771.934 0.000 4647.835 1307.756 3707.889 4098.652 4841.697 4440.894 1919.686 3068.107 5786.084 2584.799 3278.010 3228.097 3155.283 1533.697 2859.943 2419.423 5053.896 1526.917 1648.446 4399.040 3012.932 1624.875 1688.154 2090.562 1812.316 3592.754 4403.856 1501.008 1365.518 1398.253 5151.518 638.036 1465.044 2883.510 8362.201 2713.800 1936.081 1406.705 1260.339 2339.405 2491.032 2948.288 2231.354 2320.115 2427.939 4597.815 1822.941 7330.795 5830.760 7680.504 2465.951 2384.585 6385.352 5997.576 1438.988 1642.426 1428.036 4751.920 2771.444 1480.644 2026.477 1189.105 2604.665 1315.780 826.356 1973.266 1637.945 3572.847 3858.116 2871.139 2998.630 6642.130 4317.261 3265.876 992.993 1487.486 1831.679 2094.950 1820.682 1476.304 2551.182 3871.980 4488.859 3566.830 5533.956 2036.311 2121.509 3099.765 2330.328 3434.986 1073.634 1613.577 1668.384 3363.716 1835.782 1794.205
4574.012 5800.707 5401.572 4573.147 4547.227 0.000 4620.001 3816.261 3760.841 9099.651 1028.322 5877.298 7264.739 4526.193 6277.005 6970.217 7307.593 7413.237 5225.904 4268.194 6616.055 2323.404 4533.483 3574.521 7674.295 7270.885 4373.234 5884.785 6348.516 5272.226 7789.386 7368.778 4695.503 5260.246 4759.159 9409.472 4919.032 4809.506 2605.707 7986.892 4122.051 5239.205 5205.837 5456.971 4021.639 3864.580 6640.494 6427.986 5122.702 5111.391 300.233 6019.572 8712.738 9609.507 10315.140 6158.157 5068.038 4276.300 3888.524 4843.727 5329.077 4229.248 6869.719 6463.650 3338.200 5524.779 5023.809 6296.871 4628.026 5022.988 5934.630 3258.673 4208.589 7356.418 6563.345 6732.366 7199.565 1151.955 4551.868 4887.721 4848.393 5523.885 5787.157 2649.086 5371.032 5406.231 3090.215 703.559 7763.462 6996.760 5728.517 5813.715 2783.468 4012.562 5273.158 3853.310 3555.259 5865.016 7560.348 5797.146 5486.411
638.772 2807.096 1181.381 2705.531 1360.303 4771.879 0.000 3997.087 2887.344 5268.268 4234.209 1667.874 4271.128 6075.282 2056.815 2750.026 4431.118 3978.852 1005.713 1648.635 3622.444 5343.095 315.608 1372.600 4055.048 3156.043 413.566 2891.174 2517.133 1177.207 4795.775 3768.747 475.313 2563.043 538.969 5435.712 1722.695 589.316 3007.554 7399.113 1502.491 1300.972 1026.549 2463.360 1128.096 1282.739 2420.304 3434.374 3518.768 1216.630 4721.859 3025.961 6367.706 5476.096 7336.512 1937.967 1173.277 5391.490 5003.715 623.536 1108.887 2361.632 4116.811 2243.460 1541.503 1391.368 844.521 2076.681 104.471 2029.377 3171.919 1482.004 3862.046 3223.007 2343.155 2512.176 5679.041 4110.576 3713.065 2190.518 628.202 1303.695 1566.966 2078.562 2673.829 3749.835 2878.119 4568.644 4769.851 4570.868 1508.327 1593.525 3388.964 1119.019 4370.853 1985.694 1330.135 2871.405 4566.737 3034.435 1266.221
3596.377 3448.711 4433.916 2103.928 3285.201 4043.692 3640.043 0.000 5691.965 7162.650 4220.865 4856.481 3823.501 2768.883 5309.349 6002.561 3845.695 6048.896 4258.248 4445.108 4231.575 2600.575 3565.828 2781.652 7307.582 6093.691 3405.578 3430.380 5171.321 4399.808 5334.981 7021.282 3727.848 3472.462 3791.503 7707.901 3718.794 3841.851 3456.305 10316.966 4298.964 4366.787 4220.591 3386.872 3978.199 4058.663 5672.838 4088.876 2175.232 4238.973 4016.714 3565.167 9175.456 8728.630 10589.046 5190.501 4195.620 7454.346 7066.571 3876.071 4361.422 2085.375 7332.437 5495.994 2613.850 4643.903 4002.991 5329.215 3648.068 3184.010 2987.161 2762.861 392.328 6475.542 5595.689 5764.711 8596.894 4344.498 889.109 3099.937 3880.737 4556.229 4819.501 2601.558 3583.248 2458.762 5433.956 4221.365 5309.057 7488.721 4760.861 4846.060 2792.197 3969.122 1551.327 2500.768 3087.565 3410.611 5105.943 2849.676 4518.756
3438.609 5725.882 3757.789 4903.942 4279.088 3714.059 3287.947 5427.719 0.000 7933.253 2825.501 4069.287 7189.913 6626.825 4369.800 5063.012 7349.903 6856.410 3631.213 1919.501 6541.229 5163.274 2942.597 3243.579 5019.697 5469.029 2782.348 5809.960 5394.691 3090.270 7714.561 4714.180 3104.618 5481.829 3168.273 7748.698 4641.480 3218.621 3186.048 7199.650 1838.640 3057.249 3754.336 5382.145 1870.307 1731.053 4733.289 6353.160 5648.457 2467.862 3548.161 5944.747 6064.333 7248.706 7666.735 4176.271 2502.202 3620.930 3233.155 3252.841 3734.387 4560.043 4215.121 4556.445 3454.880 3342.823 3676.641 4389.666 3040.067 4948.162 6090.705 3244.877 5372.369 5068.756 4656.140 4825.161 5479.578 2701.868 5223.387 5109.303 3257.507 3535.382 3805.270 3147.622 5592.615 5931.986 687.221 3166.794 7688.637 4371.405 3746.630 3831.829 3678.661 1879.383 6309.676 4184.105 3224.317 5790.191 7485.522 5953.221 3667.634
4488.083 3562.825 4065.098 5389.409 3945.511 8593.346 4501.885 7139.764 7079.853 0.000 8217.525 3843.494 4802.326 9295.692 4545.601 3138.246 4962.316 2736.287 4191.175 6054.073 3187.021 8835.418 4721.046 5310.916 6021.582 2610.074 4760.858 3467.785 2130.587 4396.560 2773.665 6099.576 4474.835 4581.314 4372.080 1752.238 3507.231 4438.871 6829.022 10580.726 5907.929 4502.312 4064.183 3751.857 5533.534 5688.177 3434.903 3300.293 5178.507 5050.976 8543.327 3844.318 8984.821 5031.877 9130.407 4469.800 5007.623 9596.286 9208.510 4412.815 4266.827 5170.982 6689.987 3629.036 5426.155 4245.002 3846.583 4565.466 4509.910 4152.206 4831.658 5420.321 7004.723 6032.971 3656.085 4089.525 8860.654 8093.892 6294.399 4735.939 4461.313 4166.620 4098.799 5766.194 4692.100 5409.573 7082.914 8434.370 3652.567 7752.481 4040.159 4125.358 7045.277 5524.457 6401.444 4923.863 5268.451 3487.554 3498.709 4694.174 3796.616
4263.748 5644.477 5091.308 4416.917 4390.997 1041.263 4309.737 4017.275 2868.112 8943.420 0.000 5567.034 7108.509 4727.207 5966.741 6659.953 7151.363 7257.006 4915.640 3528.195 6459.825 2524.418 4223.219 3264.257 6934.295 7065.970 4062.970 5728.555 6192.285 4907.528 7633.156 6628.778 4385.240 5104.016 4448.895 9253.242 4762.802 4499.243 2449.477 7094.162 3382.051 4874.508 4895.573 5300.741 3281.639 3124.581 6330.230 6271.755 4966.472 4382.460 741.030 5863.342 7972.738 9163.305 9575.141 5847.893 4416.800 3383.570 2995.795 4533.463 5018.813 4073.018 6129.719 6153.386 3155.648 5160.082 4713.545 5986.607 4317.762 4866.758 5778.400 3018.119 4409.604 6983.354 6253.081 6422.102 6306.835 123.633 4486.816 4731.491 4538.129 5213.621 5476.893 2492.856 5214.802 5250.001 2197.485 341.292 7607.232 6104.030 5418.253 5503.451 2915.919 3272.563 5474.173 3697.080 3244.995 5708.786 7404.118 5640.916 5176.148
1712.134 2812.693 1096.813 3412.186 1724.268 5958.616 1725.936 5178.984 3870.868 4282.567 5461.106 0.000 4276.725 7257.179 968.048 1661.260 4436.714 3211.174 1293.213 2992.185 3070.013 6524.992 1945.097 2554.497 3584.762 1818.342 1762.167 2896.771 1749.455 1072.641 4315.600 3298.462 1489.435 3005.769 1386.680 4238.416 1287.715 1453.472 4194.291 7256.807 2846.042 1178.393 1288.234 2371.280 2574.340 2736.145 1331.537 2796.583 3961.494 1727.057 5908.596 3031.558 6225.401 4926.870 6866.226 999.334 1683.704 6820.337 6432.561 1636.866 1298.542 3068.287 3646.525 1154.693 2723.400 921.083 1070.634 987.914 1733.961 2402.554 3614.646 2663.901 5043.943 2752.722 958.163 1344.885 5536.735 5337.473 4894.962 2633.244 1475.914 874.405 628.333 3260.459 3116.555 4192.561 4016.947 5795.541 4691.445 4428.562 569.694 654.892 4570.861 2572.425 5075.238 2713.415 2512.032 2877.002 4473.752 3477.161 1006.658
4321.351 1645.960 4352.173 3237.746 3095.968 7398.145 4335.153 3929.771 6913.121 5091.424 7238.670 4153.222 0.000 5336.619 4855.329 5173.402 159.990 3703.892 4340.793 5887.341 2247.911 6002.976 4554.314 4690.366 6422.570 4621.067 4594.127 1627.629 3698.698 4619.411 2875.520 6500.563 4308.103 2780.172 4205.348 5636.675 2963.601 4272.140 5633.821 10867.802 5741.198 4743.177 4213.801 2181.927 5366.802 5521.445 5218.818 2128.567 2442.636 5242.407 7348.126 1564.818 9558.448 7854.289 9704.034 4756.875 5199.054 9429.554 9041.779 4246.083 4449.522 3174.222 7112.903 5041.974 4522.564 4532.077 3996.201 4875.195 4343.178 2351.065 1468.587 4679.864 3794.729 6363.716 5111.385 5232.166 9147.730 7246.758 3915.678 3251.586 4294.581 4453.696 4385.875 4686.442 2890.958 2445.414 6916.183 7239.169 2039.871 8039.557 4327.235 4412.433 5404.430 5357.726 2475.417 3682.105 4671.036 1607.860 2115.761 1570.023 4083.692
5991.326 5767.825 6828.865 4505.961 5680.150 4499.846 6034.992 2489.280 7178.135 9481.764 4677.020 7251.430 5124.136 0.000 7704.299 8397.510 4964.147 8368.010 6653.197 6074.164 6550.690 3056.729 5960.777 4906.098 9623.183 8488.640 5800.528 5749.494 7566.270 6794.757 7485.839 9317.666 6122.797 5867.411 6186.453 10027.015 6113.744 6236.800 4752.881 11621.093 5928.020 6761.736 6615.541 5788.905 5607.255 5687.719 8067.788 6407.990 4103.428 6633.922 4472.868 5884.281 10661.626 11123.580 12264.028 7585.451 6590.569 7910.501 7522.726 6271.020 6756.371 4487.408 8818.607 7890.944 4658.535 7038.852 6397.941 7724.164 6043.017 5586.043 4915.356 4617.553 2846.620 8870.491 7990.639 8159.660 10083.064 4800.653 3345.502 5494.886 6275.686 6951.179 7214.450 4205.181 5978.197 4386.958 6724.416 4677.519 6725.662 8974.891 7155.810 7241.009 3710.708 5598.178 3114.153 4895.717 5111.354 5729.725 7058.832 4777.872 6913.705
2608.146 3781.940 1538.651 4369.566 2693.515 6854.627 2421.119 6074.996 4312.706 4536.202 6320.044 1115.759 5245.971 8153.191 0.000 1510.230 5405.961 4180.421 1735.051 3434.023 4039.260 7421.004 2411.212 3450.508 3586.495 2071.977 2204.005 3866.018 2718.702 1514.479 5284.846 3549.238 1931.273 3963.149 1828.518 4234.289 2256.962 1895.310 5090.303 7698.645 3287.880 1620.231 1868.779 3340.527 3016.178 3177.983 1336.237 3765.830 4918.874 2168.895 6804.608 4000.805 6549.734 4092.313 6695.320 1441.172 2125.542 7392.493 7004.718 2079.497 1740.380 4025.667 3897.302 1144.532 3619.412 1362.921 2039.880 19.866 2429.144 3371.801 4572.026 3559.913 5939.955 3003.498 1224.189 744.815 5978.573 6196.411 5790.973 3590.624 1917.752 1316.243 1070.171 4156.471 4073.935 5149.941 4458.785 6654.479 5660.691 4870.400 1011.532 1096.730 5466.873 3014.263 6032.618 3670.795 3408.044 3846.249 5442.999 4434.541 1448.496
3674.532 3930.373 2882.490 4985.205 3415.836 7921.014 3688.334 7047.366 5656.545 3162.052 7423.504 2379.337 5273.639 9144.504 1945.789 0.000 5433.629 3270.324 3078.890 4777.862 3941.270 8469.732 3755.051 4516.895 3414.446 763.630 3547.844 3835.332 1600.911 2858.318 4395.096 3492.439 3275.112 4578.789 3172.357 2724.059 2977.555 3239.149 6156.689 9042.484 4631.719 2964.070 3212.618 3806.306 4360.018 4521.822 1059.507 3667.840 5533.386 3512.734 7870.994 4211.865 6377.684 3920.264 6523.270 2785.011 3469.381 8736.332 8348.557 3423.336 3084.219 4641.307 4082.850 725.024 4685.799 2706.760 3033.032 1965.654 3696.359 3840.611 5186.538 4626.300 6912.325 3425.835 1030.757 1100.437 7322.412 7299.871 6479.147 4206.264 3261.591 2660.082 2414.010 5222.857 4689.575 5764.453 5802.624 7757.939 5273.999 6214.239 2355.371 2440.569 6515.601 4358.102 6648.257 4394.187 4474.430 3855.101 5106.359 5049.053 2792.335
4481.341 1805.950 4512.163 3354.789 3255.958 7286.103 4495.143 3769.781 7073.111 5251.414 7280.063 4313.212 159.990 5176.629 5015.319 5333.391 0.000 3863.882 4500.782 6047.331 2407.901 5842.986 4714.304 4850.356 6582.560 4781.057 4754.116 1787.619 3858.687 4779.401 3035.510 6660.553 4468.093 2940.162 4365.338 5796.665 3123.591 4432.129 5675.214 11027.791 5901.187 4903.166 4373.790 2341.917 5526.792 5681.435 5378.808 2288.557 2559.679 5402.397 7259.125 1724.808 9718.437 8014.279 9864.024 4916.865 5359.044 9589.544 9201.768 4406.073 4609.511 3291.265 7272.893 5201.964 4682.553 4692.067 4156.190 5035.185 4503.168 2511.054 1628.577 4839.854 3634.740 6523.706 5271.375 5392.156 9307.720 7288.152 3755.689 3411.576 4454.571 4613.685 4545.864 4727.836 3050.948 2548.515 7076.172 7280.563 1962.679 8199.546 4487.225 4572.423 5445.824 5517.715 2315.428 3842.095 4831.025 1767.849 2275.751 1730.013 4243.682
4015.802 2577.633 3640.169 4404.216 3042.547 7690.382 4029.604 6154.571 6607.572 2730.006 7314.561 3441.218 3750.731 8310.500 4143.325 3275.095 3910.721 0.000 3766.246 5581.792 2201.828 7850.225 4248.765 4407.952 5260.386 2722.760 4288.578 2482.592 1800.391 3971.631 1385.550 5338.380 4002.554 3596.121 3899.799 3275.257 2604.266 3966.591 5926.057 10155.797 5435.649 4077.383 3639.254 2766.664 5061.253 5215.897 3404.316 2315.100 4193.314 4626.047 7640.362 2859.125 8396.264 5961.404 8541.850 4044.871 4582.694 9124.005 8736.230 3940.534 3841.898 4271.560 5950.719 3793.948 4523.191 3820.073 3421.654 4163.191 4037.629 3167.013 3846.465 4517.356 6019.530 5396.588 3629.005 4254.437 8435.726 7190.928 5309.207 3836.517 3989.032 3741.691 3673.870 4863.229 3706.907 4424.381 6610.634 7531.406 2264.453 7327.552 3615.231 3700.429 6142.312 5052.177 5363.049 4024.441 4365.487 2502.361 2171.879 3708.981 3371.688
1420.633 2642.734 439.626 3137.696 1528.539 5667.114 1395.176 4887.483 3464.906 4514.613 5169.604 687.226 4106.766 6965.678 1076.166 1769.378 4266.756 3225.197 0.000 2586.223 3084.036 6233.491 1385.268 2262.995 3389.046 2175.395 1178.062 2726.812 1763.478 876.925 4329.623 3102.746 892.038 2731.280 789.283 4455.064 1117.756 856.075 3902.790 7061.091 2440.080 982.677 306.633 2201.321 2168.378 2330.183 1439.655 2810.606 3687.004 1531.341 5617.095 2861.599 6029.685 4810.094 6670.510 958.756 1487.988 6451.382 6063.606 1040.261 641.356 2793.797 3450.810 1262.811 2431.899 725.367 697.914 1096.032 1403.201 2197.613 3340.156 2372.400 4752.442 2557.006 1362.506 1531.528 5341.019 5045.971 4603.460 2358.754 878.516 541.149 587.755 2968.958 2842.066 3918.071 3610.985 5504.040 4605.489 4232.846 529.116 614.314 4279.360 2166.463 4800.748 2438.925 2220.531 2707.043 4402.375 3202.671 285.573
2225.311 4512.584 2544.491 3712.856 3065.790 3946.685 2074.649 4424.031 1374.676 6719.955 3409.016 2855.989 5976.615 5623.137 3156.502 3849.714 6136.605 5643.112 2417.915 0.000 5327.931 4629.104 1729.299 2239.892 3819.724 4255.731 1569.050 4596.662 4181.393 1876.972 6501.263 3514.207 1891.319 4268.531 1954.975 6535.400 3428.182 2005.322 2182.361 5999.677 625.342 1843.951 2541.038 4168.847 657.009 517.755 3519.991 5139.862 4571.708 1267.890 3896.666 4731.449 4864.360 6048.734 6466.763 2962.973 1302.229 4423.378 4035.602 2039.543 2521.089 3368.958 3015.148 3343.147 2451.193 2129.525 2463.343 3176.368 1826.769 3734.864 4877.407 2241.190 4368.681 3868.784 3442.842 3611.863 4279.605 3285.383 4219.700 3896.005 2044.208 2322.084 2591.972 2143.935 4379.317 4802.775 1489.669 3743.451 6475.339 3171.432 2533.332 2618.531 2674.973 666.085 5305.988 2993.020 2220.629 4576.892 6272.224 4739.923 2454.336
3339.266 441.796 3015.699 2535.161 2113.882 6667.207 3353.068 4285.516 5931.036 3472.329 6507.731 2816.748 1785.063 6441.444 3518.855 3561.901 1945.053 2358.575 3141.776 4905.255 0.000 5981.170 3572.229 3731.415 4811.069 3009.566 3612.041 346.756 2087.197 3347.162 1935.376 4889.062 3326.018 1798.087 3223.262 4017.580 1750.304 3290.054 4902.882 9531.328 4759.112 3452.914 3014.784 968.630 4384.717 4539.360 3691.122 517.066 2252.777 4001.578 6617.187 723.289 7946.947 6242.788 8092.533 3420.401 3958.225 8447.468 8059.693 3263.998 3217.428 2471.637 5501.402 3705.501 3594.526 3195.603 2797.184 3538.721 3361.092 1368.979 1776.140 3751.827 4150.475 4947.271 3774.911 3895.692 7811.256 6431.143 3440.151 2295.863 3312.496 3117.222 3049.401 3934.565 1908.873 2483.844 5934.097 6508.231 2074.125 6703.083 2990.761 3075.959 4673.492 4375.640 3397.380 2755.260 3688.950 366.525 1871.011 1640.934 2747.218
4549.373 5234.174 5376.933 3854.392 4259.999 1881.990 4595.363 2351.511 4777.186 8897.254 2059.164 5826.297 6080.582 3061.443 6252.367 6945.578 6102.777 7210.840 5201.265 4493.431 6049.522 0.000 4508.845 3468.998 8042.449 7068.489 4348.596 5277.569 6146.119 5247.587 7182.170 7736.932 4670.865 4925.075 4734.521 9207.075 4693.593 4784.868 3172.148 9003.237 4347.287 5214.567 5181.198 5121.800 4026.522 4106.986 6615.856 5874.339 4158.563 5086.752 1855.012 5412.356 9080.892 9584.869 10683.295 6133.519 5043.399 5292.645 4904.869 4819.089 5304.439 3835.839 7237.873 6439.012 3221.434 5500.141 4972.808 6272.233 4603.387 4687.817 4970.491 3180.452 2743.839 7331.780 6538.707 6707.728 8215.910 2182.797 3134.259 4552.550 4823.754 5499.247 5762.518 2624.448 5035.861 4442.092 4106.560 2059.663 7156.246 7394.157 5703.879 5789.077 1603.983 4017.445 3808.408 3548.778 3530.620 5257.800 6953.132 4833.007 5461.773
779.384 2947.708 1032.512 2899.995 1500.914 4764.876 509.773 4191.551 2880.341 5371.456 4227.207 1519.005 4411.739 6269.746 1907.945 2601.156 4571.729 4082.040 856.843 1641.632 3763.055 5447.296 0.000 1567.063 3906.178 3007.174 406.564 3031.786 2620.322 1028.337 4936.387 3619.877 326.443 2703.655 390.099 5286.842 1863.306 440.446 3000.552 7392.110 1495.489 1152.103 979.967 2603.971 1121.094 1275.737 2271.434 3574.986 3659.379 1209.627 4714.857 3166.573 6360.704 5327.226 7187.642 1789.097 1166.274 5384.488 4996.713 474.667 960.017 2556.096 3967.941 2094.590 1735.967 1242.498 902.271 1927.811 97.469 2169.988 3312.531 1676.468 4056.510 3074.137 2194.285 2363.306 5672.039 4103.574 3907.528 2331.129 479.332 1154.825 1418.097 2273.026 2814.441 3890.446 2871.117 4561.642 4910.463 4563.866 1359.457 1444.655 3493.165 1112.017 4565.317 2180.158 1524.599 3012.016 4707.348 3175.046 1117.351
1690.525 3294.060 2528.064 2113.745 1973.561 3701.059 1736.514 3048.883 3420.431 6402.627 3203.549 2974.761 4758.092 5025.786 3403.497 4096.709 4918.081 4829.609 2352.396 2095.772 4109.408 4293.599 1659.975 0.000 5401.730 4502.726 1499.726 3378.138 3651.492 2493.955 5282.739 5115.430 1821.996 2753.599 1885.651 6712.448 2337.515 1935.999 1936.735 8062.082 1949.628 2460.935 2322.349 2950.324 1628.863 1709.327 3766.986 3921.338 2858.260 2333.120 3651.040 3512.925 6926.765 6822.778 8529.168 3284.649 2289.767 5597.991 5210.216 1970.219 2455.569 1769.846 5077.553 3590.142 593.299 2738.050 2121.272 3423.363 1744.539 2516.341 3568.565 400.600 2913.842 4569.690 3689.837 3858.858 6342.010 3079.916 2764.861 2381.073 1974.885 2650.377 2913.649 1002.903 2864.385 3141.789 3084.620 3537.985 5256.815 5233.837 2855.009 2940.207 2339.468 1619.786 3519.479 1393.908 664.419 3358.369 5053.701 3431.081 2612.904
4215.762 4940.325 3146.268 5946.262 4174.328 7704.832 4028.736 7682.613 5275.622 6313.297 7167.162 3312.951 6283.591 9381.284 2797.890 3347.004 6443.581 5092.383 3342.667 4674.500 4951.222 8387.251 4018.829 5058.125 0.000 3977.557 3811.622 4845.284 3607.303 3122.096 6196.809 558.132 3538.890 5539.846 3436.135 5181.454 3736.047 3502.927 5940.507 6982.627 4777.284 3227.848 3476.396 4816.259 4623.795 4669.697 3466.148 4677.792 6494.443 3776.512 7654.812 5221.817 3634.777 2460.277 4153.216 2748.675 3733.159 7387.164 7705.587 3687.114 3347.997 5602.363 906.196 2981.307 5227.029 2970.537 3688.949 2817.755 4036.761 4850.563 6147.594 5167.530 7547.572 280.327 3388.999 2432.893 5262.555 7043.529 7398.590 5167.321 3525.368 2923.860 2749.858 5764.088 5650.632 6725.509 5432.000 7501.597 6572.654 4154.382 2854.985 2776.417 6433.120 4621.880 7609.314 5247.962 5015.661 4865.053 6354.961 6010.110 3056.113
3382.537 3354.502 2959.552 4409.335 2839.966 7487.800 3396.339 6471.496 5812.059 2500.538 7111.979 2534.851 4697.769 8568.633 2409.608 760.483 4857.759 2694.454 3085.629 4933.376 3365.400 7893.862 3615.500 4205.370 3886.642 0.000 3655.312 3259.462 1025.041 3013.832 3819.226 3964.636 3369.289 4002.919 3266.534 2456.387 2401.685 3333.325 5723.476 9197.998 4787.233 3119.584 2958.637 3230.436 4427.988 4582.631 965.088 3091.970 4957.516 3668.248 7437.781 3635.995 6849.881 4392.461 6995.467 2940.525 3624.895 8490.740 8102.964 3307.269 3161.281 4065.436 4555.047 1159.221 4320.610 2862.273 2741.037 2429.474 3404.364 3264.740 4610.667 4314.775 6336.455 3898.032 1186.270 1619.710 7477.926 6988.346 5903.276 3630.394 3355.767 2815.596 2569.524 4660.648 4113.705 5188.582 5958.138 7328.824 4698.128 6369.753 2510.885 2596.083 5939.731 4418.911 6072.387 3818.317 4162.906 3279.231 4530.489 4473.183 2691.071
1852.722 3646.571 1661.749 3340.267 2199.777 5107.203 1702.060 4631.823 2504.108 5837.213 4569.533 1973.247 5110.602 6710.018 2273.760 2966.971 5270.592 4760.370 1535.173 1625.425 4461.918 5789.622 1356.710 2007.336 3910.462 3372.989 0.000 3730.649 3298.651 994.229 5635.250 3624.162 1370.642 3402.518 1267.887 5652.657 2562.169 1334.678 3342.878 7015.877 1479.282 961.209 1658.296 3302.834 1207.580 1369.385 2637.249 4273.849 4199.119 833.394 5057.183 3865.436 5984.471 5331.510 7191.926 2080.230 790.041 5583.895 5196.120 1518.865 1638.346 2996.368 3955.852 2460.405 2176.239 1246.783 1580.600 2293.626 1454.179 2868.851 4011.394 2116.741 4496.782 3078.422 2560.100 2729.121 5295.806 4445.900 4347.801 3029.992 1357.120 1439.342 1709.230 2713.298 3513.304 4430.186 2650.187 4903.968 5609.326 4187.632 1650.590 1735.788 3835.491 1205.665 5005.589 2620.430 1964.871 3710.879 5406.211 3873.910 1571.594
3074.006 167.403 2873.615 2260.768 1848.622 6401.947 3087.808 4011.123 5665.776 3751.634 6242.471 2674.665 1704.843 6167.051 3376.772 3711.162 1864.832 2637.880 2999.693 4639.995 801.195 5706.777 3306.969 3466.155 4960.330 3158.827 3346.781 0.000 2236.458 3205.078 1938.280 5038.324 3060.757 1532.827 2958.002 4296.885 1485.044 3024.794 4637.622 9389.244 4493.852 3310.830 2872.701 703.370 4119.457 4274.100 3740.261 680.219 2049.865 3859.494 6351.927 474.619 8096.208 6392.050 8241.794 3278.317 3816.141 8182.208 7794.433 2998.738 3075.345 2197.244 5650.663 3563.417 3329.266 3053.520 2655.101 3396.637 3095.832 1103.719 1673.221 3486.567 3876.081 4885.159 3632.828 3753.609 7669.172 6165.883 3165.758 2030.603 3047.236 2975.138 2907.317 3669.305 1643.613 2280.932 5668.837 6242.971 2024.370 6560.999 2848.677 2933.876 4408.232 4110.380 3272.802 2490.000 3423.690 19.769 1821.256 1538.015 2605.134
2357.496 3458.055 1934.510 4057.548 2369.630 6603.978 2371.298 5824.346 4949.266 4051.362 6106.468 1712.907 4909.803 7902.541 2415.014 2774.932 5069.792 2906.487 2060.588 3923.486 3577.434 7170.354 2590.459 3199.858 4413.931 2222.597 2630.271 3471.495 0.000 2265.973 4031.259 4491.794 2344.248 3651.131 2241.493 4361.184 1933.077 2308.284 4839.653 8450.139 3777.342 2371.725 1933.596 3016.642 3402.947 3557.590 2778.502 3304.004 4606.856 2920.389 6553.958 3676.920 7418.733 5845.651 7695.395 2339.212 2877.036 7465.698 7077.923 2282.228 2136.240 3713.649 4839.857 2601.659 3368.762 2114.415 1715.996 2434.879 2379.322 3047.916 4260.008 3309.263 5689.305 3946.054 2671.070 2791.850 6730.067 5982.835 5540.323 3278.606 2330.726 2036.033 1968.212 3905.821 3761.917 4837.923 4952.327 6440.903 4910.162 5621.894 1909.572 1994.771 5216.223 3393.870 5720.599 3358.777 3157.394 3491.265 4742.523 4122.523 1666.029
1860.873 3459.930 791.378 3622.294 2013.137 5768.319 1673.847 5292.940 3165.225 4966.843 5230.650 1102.877 4923.962 7371.135 1403.390 2096.601 5083.952 4152.220 987.778 2286.542 4011.060 6450.739 1663.940 2668.452 3040.092 2502.618 1456.733 3544.008 2690.502 0.000 5256.646 2753.792 1184.001 3215.877 1081.246 4782.287 2074.641 1148.038 4003.995 6549.949 2140.398 123.766 1121.507 3116.194 1868.697 2030.501 1766.879 3737.630 4171.602 670.170 5718.300 3678.795 5518.543 4461.140 6321.556 1209.860 626.817 6245.012 5857.237 1332.224 993.108 3278.395 3101.855 1590.035 2837.356 376.412 1382.323 1423.255 1681.872 2682.211 3824.754 2777.857 5157.899 2208.052 1689.730 1858.751 4829.878 5107.017 5008.917 2843.352 1170.479 568.971 838.860 3374.415 3326.663 4402.669 3311.303 5565.085 5422.685 3721.705 780.220 865.418 4496.608 1866.782 5285.345 2923.523 2625.988 3524.239 5219.571 3687.269 701.224
5341.083 2547.713 4965.449 4602.973 4228.932 8763.372 5354.885 5811.370 7932.853 3239.836 8603.897 4766.498 2744.699 7702.986 5468.606 4628.460 2904.689 1549.161 5091.526 6907.073 2418.391 7820.313 5574.046 5733.232 6585.667 4076.126 5613.858 2416.118 3153.756 5296.912 0.000 6663.660 5327.835 3913.137 5225.080 3785.087 3865.354 5291.871 6999.048 11481.078 6760.929 5402.664 4964.534 3083.680 6386.534 6541.177 4757.682 2674.100 3892.631 5951.328 8713.353 2466.570 9721.544 6471.234 9867.131 5370.151 5907.975 10449.286 10061.510 5265.815 5167.178 4539.449 7276.000 5147.314 5709.576 5145.353 4746.934 5488.471 5362.910 3484.029 3126.169 5842.637 5676.328 6721.868 4982.371 5607.803 9761.006 8516.208 5507.964 4410.913 5314.313 5066.972 4999.151 6049.614 4023.923 3961.008 7935.914 8604.396 1100.300 8652.833 4940.511 5025.709 6769.657 6377.457 4357.016 4870.310 5690.767 2435.887 1007.726 3085.618 4696.968
4287.718 5012.280 3218.223 6018.217 4246.283 7328.606 4100.691 7754.568 4899.397 6430.393 6790.937 3384.906 6355.546 9005.058 2869.845 3418.959 6515.536 5164.338 3414.622 4298.275 5023.178 8011.025 4090.784 5130.080 305.517 4049.512 3883.577 4917.239 3679.258 3194.051 6268.764 0.000 3610.845 5611.801 3508.090 5335.529 3808.002 3574.882 5564.282 6606.402 4401.058 3299.803 3548.351 4888.214 4432.725 4293.472 3538.103 4749.747 6566.398 3656.857 7278.587 5293.772 3258.551 2614.352 3595.083 2820.630 3613.504 7010.939 7329.362 3759.069 3419.952 5674.318 612.340 3053.262 5298.984 3042.493 3760.904 2889.710 4108.716 4922.518 6219.549 5239.485 7619.527 434.402 3460.954 2504.848 4886.330 6667.304 7470.545 5239.276 3597.323 2995.815 2821.813 5525.856 5722.587 6797.464 5055.775 7125.372 6644.609 3778.157 2926.940 2848.372 6056.894 4441.802 7681.269 5319.917 5087.616 4937.008 6426.916 6082.065 3128.068
676.872 2646.759 870.003 2809.122 1199.965 4923.354 690.674 4143.723 3006.127 5052.601 4425.844 1356.496 4110.791 6221.918 1745.436 2438.648 4270.780 3763.185 694.335 2127.444 3462.107 5489.730 894.339 1519.235 3814.433 2844.665 687.132 2730.837 2301.466 936.592 4635.438 3528.132 0.000 2402.706 298.354 5124.334 1562.358 365.146 3159.030 7486.477 1981.300 1060.357 658.484 2303.023 1697.058 1851.701 2108.925 3274.037 3358.431 1335.413 4873.335 2865.624 6455.071 5235.481 7095.897 1626.588 1292.060 5785.075 5397.300 339.089 797.508 2465.224 3876.196 1932.081 1688.139 1150.753 580.789 1765.302 698.699 1869.040 3011.582 1628.640 4008.681 2982.392 2031.776 2200.798 5766.406 4302.211 3859.700 2030.181 387.587 992.316 1255.588 2225.197 2513.492 3589.498 3152.205 4760.279 4609.514 4658.233 1196.948 1282.147 3535.599 1687.981 4472.174 2110.352 1476.770 2711.068 4406.400 2874.098 954.843
1674.572 1724.615 2570.897 1271.557 1122.552 4869.120 1705.179 3349.421 4496.076 5438.554 4709.645 2918.462 3188.646 5446.558 3446.330 4139.542 3348.636 3996.649 2395.229 3257.367 2539.962 4817.605 1924.340 1965.434 5433.471 3854.298 2022.298 1808.693 2931.928 2616.978 3713.294 5208.519 1915.085 0.000 1978.740 5983.805 1556.146 2029.088 3104.796 9007.845 3111.223 2740.744 2282.573 1380.878 2736.828 2888.455 3809.819 2351.893 2130.409 2825.362 4819.101 1943.480 7976.439 6865.191 8714.935 3327.482 2782.009 6782.775 6395.000 2063.308 2498.402 927.658 5556.582 3632.975 1797.632 2831.139 2064.973 3466.196 1713.204 946.895 2018.404 1954.933 3214.380 4662.779 3732.670 3901.692 7287.773 4634.249 2767.768 811.628 2067.974 2693.210 2956.482 2137.670 110.786 2361.476 4269.404 4710.144 3687.370 6179.600 2897.842 2983.041 2875.405 2727.751 2936.879 957.173 2011.000 1788.923 3484.255 1880.920 2655.737
848.787 2747.945 812.215 2910.308 1301.152 5095.268 675.052 4315.637 2707.773 5151.160 4573.977 1298.709 4211.977 6393.832 1687.649 2380.860 4371.967 3861.744 636.547 1829.090 3563.293 5661.645 665.144 1691.149 3516.079 2786.877 457.938 2832.023 2400.025 638.238 4736.624 3229.778 171.914 2503.892 0.000 5066.546 1663.544 66.792 3330.944 7188.124 1682.946 762.004 759.670 2404.209 1411.245 1573.049 2051.138 3375.224 3459.617 1037.059 5045.249 2966.810 6156.717 4937.127 6797.543 1568.801 993.706 5731.258 5343.482 320.138 739.721 2566.410 3577.842 1874.294 1860.053 852.399 681.975 1707.515 683.077 1970.226 3112.769 1800.554 4180.596 2684.038 1973.989 2143.010 5468.052 4450.344 4031.614 2131.367 89.233 934.529 1197.800 2397.112 2614.678 3690.684 2853.851 4908.412 4710.700 4359.879 1139.161 1224.359 3707.514 1409.330 4573.360 2211.538 1648.685 2812.254 4507.586 2975.284 897.055
6068.135 4530.842 5645.150 6357.426 5525.564 10173.399 6081.937 8107.781 8659.905 1847.456 9797.578 5423.546 5770.343 10263.709 5457.113 3562.557 5930.332 3704.304 5771.227 7634.125 4155.038 9803.435 6301.098 6890.968 5814.002 3187.764 6340.911 4435.801 3710.640 5976.613 3741.682 5891.996 6054.887 5549.331 5952.132 0.000 5087.283 6018.924 8409.074 12160.779 7487.982 6082.365 5644.235 4719.874 7113.586 7268.229 4012.592 4268.310 6146.523 6631.029 10123.379 4812.335 8777.241 4238.284 8922.827 5988.029 6587.675 11176.338 10788.563 5992.867 5846.879 6293.902 6482.407 4206.726 7006.208 5825.054 5426.635 5476.978 6089.962 5120.223 5799.675 7000.373 7972.739 5825.391 4233.775 4662.994 10440.707 9673.945 7262.416 6047.107 6041.365 5746.673 5617.028 7346.246 5660.117 6377.590 8662.967 10014.423 4620.584 9332.534 5558.389 5643.587 8424.736 7104.510 7369.461 6503.915 6848.504 4455.571 4466.726 5662.190 5376.669
1967.492 1525.452 1751.345 2232.256 774.728 5422.563 1981.294 4294.417 4559.262 4330.664 5215.623 1552.394 2989.483 6391.555 2254.501 2947.712 3149.473 2644.250 1877.422 3533.481 2012.523 5762.601 2200.455 2359.641 4031.748 2501.898 2240.267 1609.530 1579.529 2082.807 3448.123 4109.742 1954.244 1825.840 1851.488 4640.485 0.000 1918.280 3658.239 8266.973 3387.338 2188.559 1750.430 1084.039 3012.943 3167.586 2617.990 1739.093 2780.437 2737.223 5372.544 1744.317 7167.626 5463.468 7313.212 2156.047 2693.870 7075.694 6687.919 1892.224 1953.074 1888.358 4656.692 2441.146 2255.373 1931.249 1532.830 2274.367 1989.318 1116.888 2433.589 2412.673 4159.376 3762.888 2510.557 2631.338 6546.902 5091.989 3726.198 1453.315 1940.722 1852.867 1785.046 2595.411 1936.626 3011.504 4562.323 5263.587 3488.207 5438.728 1726.406 1811.605 3820.402 3003.866 3895.308 1533.956 2317.176 1589.760 3285.092 2296.104 1482.864
849.080 2814.006 878.276 2976.369 1367.212 5095.562 675.346 4315.931 2640.981 5217.221 4574.271 1364.769 4278.038 6394.126 1753.710 2446.921 4438.027 3927.805 702.608 1762.298 3629.354 5661.938 665.438 1691.443 3582.870 2852.938 458.231 2898.084 2466.086 705.029 4802.685 3296.570 172.208 2569.953 66.792 5132.607 1729.605 0.000 3331.238 7152.751 1616.155 828.795 825.731 2470.270 1344.454 1506.258 2117.199 3441.284 3525.678 970.268 5045.543 3032.871 6121.344 5003.918 6864.334 1634.862 926.914 5720.768 5332.993 320.431 805.782 2632.470 3644.634 1940.355 1860.347 919.191 748.036 1773.575 683.370 2036.287 3178.829 1800.848 4180.889 2750.830 2040.050 2209.071 5432.679 4450.638 4031.908 2197.428 156.025 1000.590 1263.861 2397.405 2680.739 3756.745 2787.060 4908.706 4776.761 4324.506 1205.221 1290.420 3707.807 1342.538 4639.421 2277.598 1648.978 2878.315 4573.647 3041.345 963.116
3249.314 4165.477 4076.874 2891.798 2959.940 3164.746 3295.303 2315.400 4297.342 7597.195 3208.948 4526.238 5352.609 3514.506 4952.308 5645.519 5374.804 5910.781 3901.206 3193.372 4980.825 2520.473 3208.786 2168.938 6742.390 5768.430 3048.537 4249.555 4846.060 3947.528 6154.156 6436.873 3370.806 3625.016 3434.462 7907.016 3393.534 3484.809 0.000 8922.343 3047.228 3914.508 3881.139 3821.741 2726.463 2806.927 5315.797 4792.756 3241.657 3786.693 3114.727 4384.342 7780.833 8284.809 9383.236 4833.460 3743.340 6086.744 5698.969 3519.029 4004.380 2547.899 5937.814 5138.953 1921.375 4200.082 3672.749 4972.173 3303.328 3387.758 4053.585 1880.393 2707.728 6031.721 5238.648 5407.669 7202.271 3221.000 2608.008 3252.491 3523.695 4199.188 4462.459 1324.388 3735.802 3525.186 4182.220 3209.448 6128.232 6094.098 4403.820 4489.018 566.342 2717.386 3661.038 2248.719 2230.561 4229.786 5925.118 3916.101 4161.714
8259.955 9859.012 7874.190 9808.051 8412.219 8194.830 8072.929 10670.843 7580.103 12049.655 7306.273 8185.689 11323.044 11846.834 8486.201 9179.413 11483.033 10972.811 7747.614 7162.626 10674.360 9644.045 7824.494 8475.120 7191.796 9585.430 7664.245 9943.090 9511.092 7206.671 11847.691 6886.279 7583.083 9614.959 7480.328 11865.099 8774.611 7547.120 8429.173 0.000 7081.765 7173.650 7870.737 9515.276 7113.431 6974.178 8849.690 10486.290 10570.684 6476.837 8028.933 10077.877 5192.385 9043.001 8610.337 8292.672 6433.484 4272.436 5308.593 7731.306 7850.788 9464.153 6387.220 8672.846 8644.024 7459.224 7793.042 8506.067 7921.964 9081.293 10223.835 8488.002 10615.493 7240.856 8772.541 8941.563 2415.962 7182.640 10466.512 9242.434 7569.561 7651.783 7921.671 8390.747 9725.745 10801.751 7094.936 7647.565 11821.767 3283.362 7863.032 7948.230 8921.786 7122.508 11473.373 9088.215 8432.655 9923.321 11618.653 10086.351 7784.035
2180.967 4475.877 2568.678 3658.729 3029.083 4092.828 2045.939 4570.175 1520.820 6857.485 3555.159 2993.519 5939.908 5769.281 3294.032 3987.244 6099.898 5618.206 2393.009 146.143 5291.224 4775.248 1700.589 2325.798 3965.868 4393.261 1540.340 4559.955 4156.488 2014.502 6464.555 3660.351 1862.609 4231.824 1926.265 6672.930 3391.475 1976.612 2328.504 6145.821 0.000 1981.481 2516.133 4132.140 592.423 450.866 3657.521 5103.155 4517.581 1414.033 4042.809 4694.742 5010.504 6194.877 6612.906 3100.503 1448.373 4569.521 4181.746 2010.833 2496.183 3314.830 3161.292 3480.677 2494.701 2267.055 2438.437 3313.898 1798.059 3698.157 4840.700 2387.333 4514.824 4014.927 3580.372 3749.393 4425.749 3431.526 4365.843 3859.298 2015.498 2459.614 2729.502 2290.078 4342.610 4748.648 1635.812 3889.594 6438.632 3317.576 2670.862 2756.061 2821.117 601.499 5324.051 2938.892 2283.333 4540.185 6235.517 4703.215 2591.866
1984.639 3583.696 915.144 3746.059 2136.902 5661.718 1797.613 5186.339 3058.624 5090.608 5124.049 1226.643 5047.728 7264.534 1527.155 2220.367 5207.717 4275.986 1111.544 2179.940 4134.826 6344.137 1787.705 2561.851 3163.858 2626.384 1580.499 3667.774 2814.267 123.766 5380.412 2877.557 1307.767 3339.643 1205.012 4906.053 2198.407 1271.803 3897.393 6669.637 2033.797 0.000 1245.273 3239.960 1762.096 1923.900 1890.644 3861.396 4295.368 563.569 5611.698 3802.561 5638.231 4584.906 6445.322 1333.626 520.216 6138.410 5750.635 1455.990 1116.873 3402.160 3225.621 1713.800 2730.755 500.178 1506.089 1547.021 1805.638 2805.977 3948.519 2671.256 5051.297 2331.817 1813.495 1982.517 4949.565 5000.416 4902.316 2967.118 1294.245 692.737 962.625 3267.813 3450.429 4526.434 3204.702 5458.484 5546.451 3841.392 903.985 989.184 4390.006 1760.180 5409.111 3047.288 2519.386 3648.005 5343.337 3811.035 824.989
1578.325 2800.427 597.319 3295.389 1686.232 5824.807 1552.869 5045.176 3622.599 4672.306 5327.297 844.919 4264.459 7123.371 1233.859 1927.071 4424.448 3382.890 157.693 2743.916 3241.729 6391.183 1542.961 2420.688 3546.739 2333.088 1335.755 2884.505 1921.171 1034.618 4487.316 3260.439 1049.731 2888.973 946.976 4612.757 1275.449 1013.768 4060.483 7218.784 2597.773 1140.370 0.000 2359.014 2326.071 2487.876 1597.348 2968.299 3844.697 1689.034 5774.788 3019.292 6187.378 4967.787 6828.203 1116.449 1645.681 6609.074 6221.299 1197.954 799.048 2951.490 3608.502 1420.504 2589.592 883.059 855.607 1253.725 1560.894 2355.306 3497.849 2530.093 4910.135 2714.699 1520.199 1689.221 5498.712 5203.664 4761.153 2516.447 1036.209 698.842 745.448 3126.651 2999.758 4075.764 3768.678 5661.732 4763.182 4390.539 686.809 772.007 4437.053 2324.156 4958.441 2596.618 2378.224 2864.736 4560.068 3360.364 443.266
2370.636 627.530 2565.746 1769.740 1145.253 5698.577 2384.438 3798.213 4962.406 4319.310 5539.102 2533.682 2091.562 5954.142 3235.789 3735.443 2251.552 3205.556 2390.077 3936.626 1442.878 5326.947 2603.599 2762.785 4984.611 3183.109 2643.411 711.608 2260.739 2668.696 2616.209 5062.605 2357.388 829.457 2254.633 4864.561 1112.876 2321.424 3934.253 9218.581 3790.482 2792.461 2263.085 0.000 3416.087 3570.730 3599.278 1224.456 1836.956 3291.692 5648.558 846.395 8120.489 6416.331 8266.075 3137.335 3248.339 7478.839 7091.063 2295.368 2498.806 1706.216 5608.300 3422.434 2625.897 2882.857 2045.485 3255.655 2392.463 400.349 1490.107 2783.197 3663.172 4714.496 3491.845 3612.626 7498.510 5462.514 2952.849 1327.234 2343.866 2688.059 2766.335 2965.935 940.243 2068.023 4965.467 5539.601 2590.285 6390.336 2707.695 2792.893 3704.862 3407.010 3059.893 1786.630 2720.320 691.839 2387.171 1352.623 2464.152
1604.178 3891.451 1976.255 3091.724 2444.658 4043.565 1453.517 4383.280 1857.433 6315.200 3505.895 2462.748 5355.483 5720.017 2851.689 3544.900 5515.473 5025.784 1800.587 532.773 4706.799 4725.984 1108.167 1758.792 4319.131 3950.917 947.917 3975.529 3564.065 1669.793 5880.130 4013.614 1270.187 3647.398 1333.843 6230.586 2807.050 1384.190 2279.240 6499.083 386.630 1636.772 1923.710 3547.715 0.000 172.796 3215.178 4518.729 3950.576 1508.958 3993.545 4110.316 5363.767 6007.074 6966.169 2732.841 1465.605 4663.176 4275.401 1418.410 1903.761 2747.825 3514.555 3038.334 1927.696 1922.346 1846.015 2871.554 1205.636 3113.732 4256.274 1868.197 4248.239 3753.986 3138.029 3307.050 4779.012 3382.262 4099.257 3274.873 1423.076 2098.569 2361.840 2240.814 3758.184 4181.643 2003.511 3840.331 5854.206 3670.839 2303.200 2388.399 2771.853 9.077 4757.046 2371.887 1716.328 3955.760 5651.092 4118.790 2061.095
1730.101 4025.011 2130.898 3207.863 2578.217 3882.159 1608.160 4359.505 1728.273 6469.843 3344.489 2617.391 5489.042 5558.611 3006.332 3699.543 5649.032 5180.427 1955.230 403.614 4840.359 4564.578 1262.810 1874.932 4189.971 4105.560 1102.561 4109.089 3718.708 1824.436 6013.690 3884.454 1424.830 3780.958 1488.486 6385.229 2940.609 1538.833 2117.834 6369.924 257.470 1791.416 2078.353 3681.275 172.796 0.000 3369.821 4652.289 4066.715 1638.136 3832.139 4243.876 5234.607 6161.717 6837.010 2887.484 1620.248 4501.770 4113.995 1573.053 2058.404 2863.965 3385.395 3192.977 2043.836 2076.990 2000.658 3026.197 1360.279 3247.292 4389.834 1984.337 4304.155 3908.629 3292.672 3461.693 4649.852 3220.856 4155.173 3408.433 1577.719 2253.212 2516.483 2079.408 3891.744 4297.782 1874.351 3678.924 5987.766 3541.679 2457.843 2543.042 2610.447 163.720 4873.185 2488.027 1832.467 4089.320 5784.652 4252.350 2215.738
2752.853 3853.413 2110.206 4452.905 2764.987 6999.335 2766.655 6219.704 4884.261 3340.674 6501.825 1607.053 5305.160 8297.899 1481.811 1161.566 5465.150 3301.845 2306.605 4005.578 3972.791 7565.711 2982.767 3595.216 4319.733 876.450 2775.560 3866.853 1695.585 2086.034 4426.617 4282.476 2502.828 4046.489 2400.073 3296.524 2328.435 2466.865 5235.011 8270.200 3859.435 2191.786 2328.953 3412.000 3587.733 3749.538 0.000 3699.361 5002.214 2740.450 6949.316 4072.278 7238.794 4825.552 7428.558 2012.727 2697.097 7861.056 7473.281 2651.052 2311.935 4109.006 4630.540 654.999 3764.120 1934.476 2111.353 1501.676 2774.680 3443.274 4655.365 3704.621 6084.662 3736.736 224.689 1086.915 6550.128 6378.192 5935.681 3673.963 2489.306 1887.798 1641.726 4301.178 4157.275 5233.280 5030.340 6836.260 5305.520 5441.955 1583.087 1668.285 5611.580 3585.818 6115.957 3754.134 3552.751 3886.622 5137.880 4517.881 2020.051
2822.199 726.128 2621.809 2221.304 1596.816 6150.141 2836.001 4175.187 5413.969 4012.243 5990.665 2422.859 2190.160 6331.116 3124.966 3459.356 2350.149 2898.489 2747.886 4388.189 1190.819 5778.511 3055.162 3214.349 4708.524 2907.021 3094.975 810.206 1984.652 2953.272 2626.419 4786.517 2808.951 1281.021 2706.196 4557.494 1233.238 2772.988 4385.816 9137.438 4242.046 3059.024 2620.894 451.564 3867.651 4022.294 3488.454 0.000 2213.930 3607.688 6100.121 944.993 7844.402 6140.243 7989.988 3026.511 3564.335 7930.402 7542.627 2746.931 2823.538 2157.780 5398.857 3311.611 3077.460 2801.713 2403.294 3144.831 2844.026 851.913 1867.081 3234.761 4040.146 4633.353 3381.022 3501.802 7417.366 5914.077 3329.823 1778.797 2795.430 2723.332 2655.511 3417.498 1391.807 2444.997 5417.031 5991.165 2688.883 6309.193 2596.871 2682.070 4156.426 3858.574 3436.867 2238.194 3171.884 790.437 2485.769 1729.597 2353.328
2772.946 1876.053 3669.271 851.010 2232.790 5011.409 2803.553 2475.751 5390.113 5589.992 4851.933 4016.836 2601.163 4631.680 4544.705 5237.916 2623.358 4476.238 3493.603 4115.850 2658.917 4297.018 3022.714 2378.584 6526.065 4724.562 3002.510 1857.722 3802.193 3715.352 3762.323 6306.893 3013.459 2294.392 3077.115 6135.243 2666.384 3127.462 3247.084 10015.113 3969.706 3839.118 3380.947 2028.591 3648.941 3729.405 4908.194 2516.218 0.000 3835.904 4961.389 1992.509 8873.604 7957.785 9807.529 4425.857 3792.551 7447.608 7059.833 3161.682 3596.777 787.486 6654.957 4731.350 2210.782 3929.514 3163.347 4564.570 2811.578 1825.730 1236.919 2368.082 2340.710 5761.153 4831.045 5000.066 8295.042 4860.022 1756.000 1921.866 3166.348 3791.585 4054.856 2299.706 2405.178 708.520 5104.698 4852.433 3614.029 7186.869 3996.216 4081.415 3017.694 3639.864 1737.431 1376.212 2684.497 1837.953 3514.109 1099.434 3754.111
1936.118 3535.174 1550.352 3484.214 2088.381 5251.149 1749.091 4775.770 2648.055 5725.817 4713.480 1861.851 4999.206 6853.965 2162.364 2855.575 5159.196 4648.973 1423.776 1769.371 4350.522 5933.568 1500.657 2151.282 3799.066 3261.592 1340.407 3619.253 3187.255 882.833 5523.853 3512.766 1259.245 3291.122 1156.490 5541.261 2450.773 1223.282 3486.825 6197.890 1623.228 849.812 1546.900 3191.438 1351.527 1513.331 2525.853 4162.453 4246.846 0.000 5201.130 3754.040 5166.484 5220.114 7062.636 1968.834 47.040 5727.841 5340.066 1407.469 1526.950 3140.315 3137.865 2349.009 2320.186 1135.386 1469.204 2182.229 1598.126 2757.455 3899.998 2260.687 4640.728 2967.026 2448.704 2617.725 4477.818 4589.847 4491.747 2918.596 1245.724 1327.945 1597.834 2857.245 3401.907 4477.913 2794.133 5047.915 5497.930 3369.645 1539.194 1624.392 3979.437 1349.611 5149.536 2764.377 2108.818 3599.483 5294.815 3762.513 1460.198
4527.237 5753.933 5354.797 4526.373 4500.453 300.233 4573.226 3769.487 3592.160 9052.876 741.030 5830.524 7217.964 4479.419 6230.231 6923.442 7260.819 7366.462 5179.129 4221.420 6569.281 2276.630 4486.709 3527.746 7627.520 7224.111 4326.460 5838.011 6301.741 5225.451 7742.612 7322.003 4648.729 5213.472 4712.385 9362.697 4872.258 4762.732 2558.932 7818.211 4075.276 5192.431 5159.062 5410.197 3974.864 3817.806 6593.720 6381.211 5075.928 5064.616 0.000 5972.798 8665.963 9562.732 10268.366 6111.383 5021.263 4107.619 3719.843 4796.952 5282.303 4182.474 6822.944 6416.876 3291.426 5478.005 4977.035 6250.097 4581.251 4976.214 5887.856 3211.899 4161.815 7309.644 6516.571 6685.592 7030.884 864.663 4505.093 4840.946 4801.618 5477.111 5740.382 2602.311 5324.258 5359.457 2921.534 403.326 7716.688 6828.079 5681.743 5766.941 2736.693 3965.788 5226.384 3806.536 3508.484 5818.242 7513.574 5750.372 5439.637
3107.601 200.998 2907.211 2294.363 1882.218 6435.542 3121.403 4044.718 5699.371 3914.937 6276.067 2708.260 1887.510 6200.646 3410.367 3744.757 2047.499 2801.183 3033.288 4673.591 983.862 5740.372 3340.564 3499.750 4993.925 3192.423 3380.376 182.667 2270.053 3238.674 2120.947 5071.919 3094.353 1566.422 2991.598 4460.188 1518.639 3058.389 4671.218 9422.839 4527.447 3344.426 2906.296 736.965 4153.052 4307.695 3773.856 841.163 2083.461 3893.089 6385.523 0.000 8129.803 6425.645 8275.389 3311.913 3849.736 8215.804 7828.028 3032.333 3108.940 2230.839 5684.259 3597.012 3362.862 3087.115 2688.696 3430.233 3129.428 1137.314 1736.612 3520.162 3909.677 4918.754 3666.423 3787.204 7702.768 6199.479 3199.353 2064.199 3080.831 3008.734 2940.912 3702.900 1677.208 2314.527 5702.432 6276.566 2207.037 6594.595 2882.273 2967.471 4441.827 4143.975 3306.398 2523.596 3457.286 162.898 2003.923 1599.128 2638.730
7060.698 7946.365 6152.308 8608.794 7180.368 8657.001 6873.671 9134.347 6227.791 9063.311 8119.331 6318.991 9289.632 10333.453 5803.930 6300.276 9449.622 8098.423 6348.708 5626.669 7957.263 9339.420 6625.237 6950.207 3310.089 6930.829 6464.987 7851.324 6613.344 6007.413 9202.849 3388.083 6383.825 8415.702 6281.070 7931.468 6742.088 6347.862 6892.676 5052.315 5729.453 5974.392 6482.437 7822.299 5761.119 5621.866 6472.188 7683.833 9355.085 5277.580 8606.981 8227.857 0.000 4781.731 3501.842 5754.716 5234.227 7875.739 8657.756 6532.049 6354.037 8264.895 3198.638 5987.347 7161.508 5976.578 6593.784 5823.796 6722.706 7856.603 9024.578 6951.505 9078.997 3590.416 6395.039 5438.933 3681.326 7995.698 8930.015 8043.176 6370.304 5929.901 5755.899 6854.250 8526.488 9602.493 6384.169 8453.766 9578.694 3666.571 5861.025 5782.457 7385.289 5770.196 10016.303 7888.957 6930.945 7871.094 9361.001 8887.093 6062.153
5444.024 6380.872 4374.529 7205.444 5596.287 9389.649 5256.997 8910.874 6960.440 4807.189 8851.980 4541.212 7724.139 10989.069 3818.440 3558.658 7884.129 6532.930 4570.929 6269.901 6391.770 10072.068 5247.090 6286.386 1983.049 4189.211 5039.883 6285.831 4870.247 4350.357 6701.414 2061.043 4767.151 6799.028 4664.396 3421.192 5176.595 4731.188 7625.324 8644.413 6123.758 4456.109 4704.657 6256.806 5852.057 6013.861 4485.088 6118.340 7754.752 5004.773 9339.629 6662.364 4946.288 0.000 5091.874 3976.936 4961.420 9071.982 9390.405 4915.375 4576.258 6861.545 2651.454 4001.857 6455.290 4198.799 4965.473 3838.306 5265.022 6265.361 7407.904 6395.791 8775.833 1994.439 4409.550 3453.444 6947.373 8728.347 8626.851 6426.502 4753.630 4152.121 3978.119 6992.349 6909.814 7985.819 7116.818 9186.415 7580.317 5839.200 4083.246 4004.678 8117.937 5850.141 8868.496 6506.673 6243.922 6305.601 7426.458 7270.419 4284.374
8576.551 9301.113 7507.056 10036.631 8535.117 10083.062 8389.525 10560.408 7653.852 10172.495 9545.392 7673.739 10644.380 11759.514 7158.678 7655.025 10804.370 9453.172 7703.456 7052.730 9312.011 10765.481 8259.471 8376.268 4664.838 8285.577 8099.222 9206.073 7968.092 7482.885 10557.598 4742.831 7899.679 9900.635 7796.924 8786.498 8096.836 7863.716 8318.737 8033.576 7155.514 7588.637 7837.185 9177.047 7187.181 7047.928 7826.936 9038.581 10781.146 7041.859 10033.042 9582.606 3674.864 5560.208 0.000 7109.464 6998.506 10395.940 10083.817 8047.902 7708.785 9692.732 4901.711 7342.095 8587.569 7331.326 8049.738 7178.544 8356.941 9211.351 10508.383 8377.567 10505.058 4945.165 7749.788 6793.682 6662.587 9421.759 10356.076 9528.109 7886.157 7284.649 7110.647 8280.311 10011.421 11064.675 7810.231 9879.828 10933.442 6567.163 7215.774 7137.206 8811.350 7196.257 11442.365 9316.794 8357.006 9225.842 10715.750 10370.899 7416.901
1662.275 3261.332 592.780 3423.696 1814.539 5908.757 1475.249 5129.126 3366.836 4486.716 5374.174 629.136 4725.364 7207.321 923.263 1616.475 4885.354 3840.310 789.180 2488.153 3699.149 6475.133 1465.342 2504.638 3080.730 2022.492 1258.135 3345.410 2378.591 568.609 4944.736 2794.430 985.403 3017.279 882.648 4302.161 1876.043 949.440 4144.433 6752.775 2342.010 674.361 922.909 2917.596 2070.308 2232.113 1286.752 3425.719 3973.004 1223.025 5858.738 3480.197 5721.369 4501.778 6362.194 0.000 1179.672 6446.623 6058.848 1133.626 794.510 3079.797 3142.493 1109.908 2673.542 417.050 1183.725 943.129 1483.274 2483.613 3626.156 2614.043 4994.085 2248.690 1209.603 1378.624 5032.703 5250.541 4845.103 2644.754 971.881 370.373 229.810 3210.601 3128.065 4204.071 3512.915 5708.609 5224.087 3924.530 171.170 256.369 4521.003 2068.393 5086.747 2724.925 2462.174 3325.641 5020.973 3488.671 502.625
1889.078 3488.135 1503.313 3437.174 2041.341 5204.109 1702.051 4728.730 2601.015 5678.777 4666.440 1814.811 4952.166 6806.925 2115.324 2808.535 5112.156 4601.933 1376.736 1722.331 4303.482 5886.528 1453.617 2104.242 3752.026 3214.552 1293.367 3572.213 3140.215 835.793 5476.813 3465.726 1212.205 3244.082 1109.450 5494.221 2403.733 1176.242 3439.785 6225.836 1576.188 802.772 1499.860 3144.398 1304.487 1466.291 2478.813 4115.413 4199.806 43.353 5154.090 3707.000 5194.430 5173.074 7033.490 1921.794 0.000 5680.802 5293.026 1360.429 1479.910 3093.275 3165.811 2301.969 2273.146 1088.346 1422.164 2135.189 1551.086 2710.415 3852.958 2213.647 4593.688 2919.986 2401.664 2570.685 4505.764 4542.807 4444.707 2871.556 1198.684 1280.905 1550.794 2810.205 3354.868 4430.873 2747.093 5000.875 5450.890 3397.591 1492.154 1577.352 3932.397 1302.571 5102.496 2717.337 2061.778 3552.443 5247.775 3715.473 1413.158
5611.683 7906.593 6439.243 7048.199 6459.799 4160.246 5657.672 7102.318 3730.978 10367.765 3271.688 6914.970 9370.624 7812.250 7254.068 7947.279 9530.614 9078.348 6263.575 4964.666 8721.940 5609.461 5571.155 5387.836 7369.103 8353.297 5410.905 7990.671 7616.630 5974.537 9895.272 7063.586 5733.175 7662.540 5796.831 10632.965 6822.191 5847.178 5330.305 4186.692 4818.522 5941.517 6243.508 7562.856 4718.110 4561.052 7617.557 8533.871 7792.714 5318.837 3994.348 8125.458 7277.517 9598.112 10489.298 7060.538 5353.177 0.000 1036.156 5881.398 6366.749 6704.300 6564.527 7440.713 5599.137 6227.091 6061.480 7273.934 5665.697 7128.873 8271.416 5389.135 7494.646 7418.162 7540.408 7709.429 4368.067 3148.055 7367.645 7290.014 5886.064 6419.650 6689.538 5291.879 7773.326 8076.244 3060.351 3612.981 9869.348 4271.852 6630.898 6716.097 5822.918 4709.034 8453.933 6328.362 5368.574 7970.902 9666.233 8133.932 6524.083
5476.662 7771.571 6304.222 6913.178 6324.778 4025.225 5522.651 6967.297 3595.957 10232.743 3136.667 6779.948 9235.603 7677.229 7119.047 7812.258 9395.593 8943.327 6128.554 4829.644 8586.919 5474.440 5436.133 5252.815 7735.650 8218.275 5275.884 7855.650 7481.608 5839.516 9760.250 7430.133 5598.154 7527.518 5661.809 10497.944 6687.170 5712.157 5195.284 5119.823 4683.501 5806.495 6108.487 7427.835 4583.089 4426.031 7482.536 8398.850 7657.693 5183.816 3859.327 7990.437 8210.647 9964.660 10382.689 6925.517 5218.155 933.131 0.000 5746.377 6231.727 6569.279 6931.074 7305.692 5464.116 6092.069 5926.459 7138.912 5530.676 6993.852 8136.395 5254.113 7359.625 7784.710 7405.387 7574.408 5301.198 3013.034 7232.623 7154.993 5751.043 6284.628 6554.516 5156.858 7638.304 7941.222 2925.330 3477.959 9734.327 5204.983 6495.877 6581.075 5687.897 4574.012 8318.911 6193.341 5233.553 7835.880 9531.212 7998.910 6389.062
831.994 2540.986 748.559 2703.349 1094.193 5078.476 845.796 4298.845 2962.550 4946.828 4580.966 1235.052 4005.018 6377.040 1623.992 2317.204 4165.008 3657.412 572.890 2083.867 3356.334 5644.852 850.762 1674.357 3694.825 2723.221 643.556 2625.064 2195.693 816.984 4529.665 3408.524 357.532 2296.933 254.777 5002.890 1456.585 321.569 3314.152 7366.869 1937.724 940.749 552.711 2197.250 1653.481 1808.124 1987.481 3168.265 3252.658 1291.836 5028.457 2759.851 6335.463 5115.872 6976.289 1505.144 1248.483 5916.876 5529.100 0.000 676.064 2359.451 3756.588 1810.637 1843.261 1031.145 475.016 1643.858 853.821 1763.267 2905.809 1783.762 4163.803 2862.784 1910.332 2079.353 5646.798 4457.333 4014.822 1924.408 344.011 870.872 1134.144 2380.320 2407.719 3483.725 3108.629 4915.401 4503.741 4538.624 1075.504 1160.702 3690.722 1644.405 4366.401 2004.579 1631.893 2605.295 4300.627 2768.325 833.398
1212.433 2811.490 875.760 2973.853 1364.696 5458.915 1025.407 4679.284 2916.994 5214.705 4924.332 1362.253 4275.522 6757.479 1751.194 2444.405 4435.511 3925.289 700.092 2038.311 3626.838 6025.291 1015.499 2054.796 3478.797 2850.422 808.293 2895.568 2463.570 600.956 4800.169 3192.496 535.561 2567.437 432.806 5130.091 1727.089 499.597 3694.591 7150.841 1892.167 724.721 823.215 2467.754 1620.466 1782.270 2114.683 3438.768 3523.162 1246.280 5408.896 3030.355 6119.435 4899.845 6760.261 1632.346 1202.927 5996.781 5609.006 683.784 0.000 2629.954 3540.560 1937.839 2223.700 815.117 745.520 1771.059 1033.432 2033.771 3176.313 2164.201 4544.242 2646.756 2037.534 2206.555 5430.770 4800.699 4395.261 2194.912 522.039 998.074 1261.345 2760.758 2678.223 3754.228 3063.072 5258.767 4774.245 4322.596 1202.705 1287.904 4071.160 1618.551 4636.905 2275.082 2012.331 2875.799 4571.131 3038.829 960.600
1985.461 1832.758 2881.786 343.899 1445.305 4371.251 2016.067 2626.825 4653.023 5546.696 4211.776 3229.351 3162.964 4723.962 3757.219 4450.431 3185.159 4319.401 2706.117 3328.364 2648.105 4095.009 2235.228 1591.099 5756.224 4177.050 2215.024 1916.836 3254.681 2927.867 3821.436 5519.407 2225.973 1506.906 2289.629 6091.947 1878.898 2339.976 2606.927 9230.902 3182.221 3051.632 2593.461 1703.631 2861.455 2941.920 4120.708 2472.922 1202.751 3048.419 4321.232 2051.623 8159.357 7187.943 9037.688 3638.371 3005.066 6807.451 6419.675 2374.197 2809.291 0.000 5867.471 3943.864 1423.296 3142.028 2375.861 3777.085 2024.092 1269.648 1798.719 1580.597 2491.784 4973.667 4043.559 4212.580 7510.830 4219.864 1840.110 1134.381 2378.862 3004.099 3267.371 1659.548 1617.692 1433.818 4317.212 4212.275 3795.513 6402.657 3208.731 3293.929 2377.536 2852.379 2009.221 588.727 1897.011 1897.066 3592.398 1661.235 2966.625
4900.057 5624.619 3830.562 6489.012 4858.623 6829.547 4713.031 7306.893 4400.338 6999.886 6291.878 3997.245 6967.886 8505.999 3482.184 4031.299 7127.876 5776.678 4026.962 3799.216 5635.517 7511.966 4505.455 5122.753 917.857 4661.852 4345.206 5529.579 4291.598 3806.391 6881.103 612.340 4223.185 6224.141 4120.430 5868.043 4420.342 4187.222 5065.223 6107.343 3901.999 3854.611 4160.691 5500.553 3933.666 3794.413 4150.442 5362.087 7178.737 3157.798 6779.528 5906.112 3025.155 3146.866 4207.423 3432.970 3114.445 6511.880 6830.303 4371.408 4032.291 6145.114 0.000 3665.601 5324.985 3654.832 4373.244 3502.050 4602.925 5534.857 6831.889 5124.052 7251.543 966.916 4073.293 3117.188 4387.271 6168.245 7102.562 5851.615 4209.663 3608.155 3434.153 5026.797 6334.927 7409.804 4556.716 6626.313 7256.948 3279.098 3539.279 3460.712 5557.835 3942.743 8154.334 5769.176 5103.491 5549.348 7039.256 6694.404 3740.407
3480.618 4566.990 2688.576 5180.670 3492.752 7727.100 3494.420 6947.469 5462.632 3816.972 7229.590 2185.423 5910.257 9025.664 1405.050 733.434 6070.247 3906.941 2884.976 4583.948 4577.888 8293.476 3561.137 4322.981 3792.516 1352.748 3353.930 4471.949 2237.529 2664.404 5031.714 3755.259 3081.199 4774.254 2978.443 3457.494 3056.200 3045.235 5962.776 8848.570 4437.805 2770.156 3018.705 4139.765 4166.104 4327.908 913.992 4304.458 5729.979 3318.820 7677.081 4800.043 6755.755 4298.335 6901.341 2591.097 3275.467 8542.418 8154.643 3229.422 2890.305 4836.771 4103.323 0.000 4491.885 2512.846 2839.118 1424.915 3502.445 4171.039 5383.130 4432.386 6812.427 3209.519 836.843 559.698 7128.499 7105.957 6663.446 4401.728 3067.677 2466.169 2220.097 5028.943 4885.040 5961.045 5608.710 7564.025 5910.616 6020.325 2161.457 2246.655 6339.345 4164.188 6843.722 4481.899 4280.516 4491.719 5742.977 5245.646 2598.421
1652.687 3141.517 2490.226 1913.957 1888.037 3522.342 1698.676 2849.096 3241.714 6364.790 3024.832 2936.924 4605.549 4847.069 3365.660 4058.871 4755.217 4754.047 2314.558 1917.054 3956.865 4114.881 1622.138 259.550 5363.892 4464.888 1461.888 3225.595 3613.655 2456.118 5130.196 5077.592 1784.158 2601.056 1847.814 6674.611 2259.842 1898.161 1758.017 7883.364 1770.911 2423.097 2284.512 2797.781 1450.146 1530.610 3729.149 3768.796 2658.473 2295.283 3472.322 3360.382 6748.048 6784.940 8350.450 3246.812 2251.930 5419.274 5031.499 1932.381 2417.732 1570.058 4898.836 3552.305 0.000 2700.213 2083.434 3385.525 1706.701 2363.798 3368.778 221.883 2714.054 4531.852 3652.000 3821.021 6163.293 2901.199 2565.073 2228.531 1937.047 2612.540 2875.811 824.185 2711.842 2942.002 2905.903 3359.267 5104.272 5055.120 2817.171 2902.370 2160.750 1441.069 3319.691 1194.120 485.702 3205.826 4901.158 3231.293 2575.066
1753.120 3352.177 683.625 3514.540 1905.384 5980.196 1566.094 5219.971 3377.102 4859.090 5442.527 995.124 4816.209 7298.166 1295.637 1988.848 4976.199 4044.467 880.025 2498.419 3903.307 6565.978 1556.187 2595.483 2773.777 2394.865 1348.980 3436.255 2582.749 227.631 5148.893 2487.476 1076.248 3108.124 973.493 4674.534 1966.888 1040.285 4215.872 6411.797 2352.276 333.383 1013.754 3008.441 2080.574 2242.378 1659.125 3629.877 4063.849 882.047 5930.177 3571.042 5380.391 4194.825 6055.241 1102.107 838.694 6448.110 6069.114 1224.471 885.354 3170.642 2835.540 1482.282 2764.387 0.000 1274.570 1315.502 1574.119 2574.458 3717.000 2704.888 5084.929 1941.736 1581.976 1750.998 4691.725 5318.894 4935.948 2735.599 1062.726 461.218 731.106 3301.446 3218.910 4294.916 3523.180 5776.962 5314.932 3583.552 672.467 757.665 4611.847 2078.659 5177.592 2815.770 2553.019 3416.486 5111.818 3579.516 593.470
997.331 2580.352 560.915 2742.715 1133.558 5243.813 1011.133 4464.182 3282.738 4654.191 4746.303 1002.445 4044.383 6542.377 1436.348 2129.560 4204.373 3364.774 385.247 2404.055 3223.614 5810.189 1189.052 1839.694 3738.839 2535.577 981.845 2664.430 1903.056 966.699 4469.200 3452.538 695.822 2336.299 593.067 4815.246 1257.334 659.858 3479.489 7410.884 2257.911 1090.465 260.074 2236.615 1986.210 2146.414 1799.837 2950.184 3292.023 1612.024 5193.794 2799.217 6379.478 5159.887 7020.303 1317.500 1568.671 6105.534 5717.759 633.802 489.996 2398.816 3800.602 1622.993 2008.598 1075.159 0.000 1456.214 1019.158 1802.632 2945.175 1949.099 4329.141 2906.798 1722.688 1891.709 5690.812 4622.670 4180.159 1963.773 682.300 683.228 946.500 2545.657 2447.085 3523.090 3428.816 5080.738 4543.107 4582.639 887.860 973.058 3856.059 1982.694 4405.767 2043.944 1797.230 2644.660 4339.992 2807.691 645.755
2628.011 3801.806 1558.516 4389.431 2713.380 6874.493 2440.985 6094.862 4332.572 4556.067 6339.910 1135.625 5265.837 8173.057 19.866 1530.096 5425.827 4200.286 1754.916 3453.889 4059.126 7440.869 2431.078 3470.374 3606.361 2091.843 2223.871 3885.884 2738.568 1534.345 5304.712 3569.104 1951.139 3983.015 1848.384 4254.155 2276.828 1915.176 5110.169 7718.511 3307.746 1640.097 1888.645 3360.393 3036.044 3197.849 1356.103 3785.696 4938.740 2188.761 6824.474 4020.671 6569.599 4112.179 6715.186 1461.038 2145.408 7412.359 7024.584 2099.362 1760.245 4045.533 3917.167 1164.398 3639.278 1382.786 2059.746 0.000 2449.010 3391.667 4591.891 3579.779 5959.820 3023.364 1244.054 764.681 5998.439 6216.277 5810.839 3610.490 1937.617 1336.109 1090.037 4176.337 4093.801 5169.807 4478.651 6674.345 5680.557 4890.266 1031.397 1116.596 5486.738 3034.129 6052.483 3690.661 3427.910 3866.114 5462.864 4454.407 1468.361
826.097 2994.421 1079.225 2802.526 1547.627 4667.407 556.486 4094.082 2782.872 5418.169 4129.738 1565.718 4458.452 6172.277 1954.658 2647.870 4618.442 4128.753 903.556 1544.163 3809.768 5349.826 211.136 1469.594 3952.891 3053.887 309.095 3078.499 2667.035 1075.050 4983.100 3666.590 373.156 2750.368 436.812 5333.555 1910.019 487.159 2903.083 7294.641 1398.020 1198.816 1026.680 2650.684 1023.624 1178.267 2318.147 3621.699 3661.378 1112.158 4617.388 3213.286 6263.235 5373.939 7234.355 1835.810 1068.805 5287.019 4899.243 521.380 1006.730 2458.627 4014.654 2141.303 1638.498 1289.211 948.984 1974.524 0.000 2216.701 3359.244 1578.999 3959.040 3120.850 2240.998 2410.019 5574.570 4006.105 3810.059 2377.842 526.045 1201.538 1464.810 2175.557 2861.154 3892.445 2773.647 4464.173 4957.176 4466.396 1406.170 1491.368 3395.696 1014.548 4467.848 2082.689 1427.130 3058.729 4754.061 3221.759 1164.064
2252.876 777.719 2447.985 1651.980 1027.493 5589.701 2266.678 3741.004 4844.646 4491.658 5430.225 2633.422 2241.751 5838.141 3323.419 3835.183 2401.741 3377.904 2272.317 3818.866 1593.067 5209.187 2485.839 2645.025 5084.351 3282.849 2525.651 861.797 2360.479 2550.936 2766.398 5142.476 2239.628 979.646 2136.873 5036.909 1212.616 2203.664 3825.376 9100.821 3672.722 2674.701 2145.325 433.983 3298.327 3452.970 3686.908 1404.998 1987.145 3173.932 5539.681 996.584 8069.415 6516.071 8365.815 3204.571 3130.579 7361.078 6973.303 2177.608 2381.046 1588.456 5490.540 3510.064 2508.137 2765.097 1927.725 3343.285 2274.702 0.000 1640.297 2665.437 3605.962 4596.736 3591.585 3712.366 7380.750 5344.754 2954.288 1209.473 2226.106 2570.299 2833.570 2848.175 1090.432 2218.212 4847.707 5430.725 2740.474 6272.576 2774.931 2860.129 3595.986 3289.250 3123.399 1677.412 2602.560 842.028 2537.360 1502.812 2532.825
3111.819 1518.974 3584.400 1849.280 1986.984 6009.679 3142.426 3042.057 5933.323 5043.805 5850.204 3818.549 1364.245 5034.720 4459.833 4921.317 1386.440 3903.696 3408.731 4694.614 2200.292 4916.252 3361.587 3376.855 6170.485 4368.983 3459.545 1500.643 3446.613 3687.350 2871.307 6248.479 3352.332 2030.438 3273.287 5589.056 2420.578 3340.078 4245.355 10237.235 4548.470 3811.115 3281.739 1687.413 4174.075 4325.702 4823.322 2080.949 1054.170 4262.609 5959.660 1437.832 9205.829 7602.205 9451.949 4340.985 4219.256 8220.022 7832.247 3314.022 3517.460 1785.756 6626.954 4646.478 3209.052 3901.511 3064.139 4479.699 3150.451 1533.773 0.000 3366.353 2907.016 5733.150 4746.173 4897.493 8517.164 5858.292 2725.518 1963.902 3362.520 3706.713 3969.984 3297.976 2141.224 1056.948 5706.651 5850.703 2553.395 7408.990 3911.345 3996.543 4015.964 4164.998 1688.750 2374.483 3448.247 1480.874 2453.475 181.557 3669.239
1813.446 3430.133 2641.006 2202.573 2176.653 3300.459 1859.435 3007.447 3082.163 6569.527 2802.949 3116.733 4894.164 4625.186 3516.439 4209.651 5043.833 5042.662 2465.338 1757.503 4245.481 3892.999 1772.918 678.708 5427.893 4615.668 1612.668 3514.211 3818.393 2511.660 5418.812 5141.593 1934.938 2889.672 1998.593 6879.349 2548.458 2048.941 1536.135 7723.813 1611.360 2478.639 2445.271 3086.397 1290.594 1371.059 3879.928 4057.411 2947.088 2350.825 3250.440 3648.998 6588.496 6848.941 8190.899 3397.591 2307.472 5259.723 4871.947 2083.161 2568.511 1858.674 4739.284 3703.084 753.511 2764.213 2263.243 3536.305 1867.460 2652.414 3657.393 0.000 2872.406 4595.853 3802.779 3971.801 6003.742 2679.316 2723.425 2517.146 2087.827 2763.319 3026.591 602.303 3000.458 3230.617 2746.351 3137.384 5392.888 4895.568 2967.951 3053.150 1938.868 1281.518 3608.307 1482.736 661.180 3494.442 5189.774 3519.909 2725.846
3947.656 3799.991 4785.195 2455.207 3636.480 3651.363 3991.322 351.279 5717.489 7513.930 3828.537 5207.760 4174.780 2502.661 5660.629 6353.840 4196.975 6400.176 4609.527 4613.519 4582.855 2208.247 3917.107 3132.932 7658.862 6444.970 3756.858 3781.660 5522.600 4751.087 5686.260 7372.561 4079.127 3823.741 4142.783 8059.181 4070.074 4193.130 3292.236 10342.490 4467.375 4718.066 4571.871 3738.151 4146.610 4227.074 6024.118 4440.155 2526.512 4590.252 3624.385 3916.447 9200.980 9079.910 10803.383 5541.781 4546.899 7062.018 6674.243 4227.350 4712.701 2436.655 7357.961 5847.274 2965.130 4995.182 4354.271 5680.495 3999.347 3535.290 3338.440 3114.141 0.000 6826.821 5946.969 6115.990 8622.418 3952.170 1240.389 3451.216 4232.016 4907.509 5170.780 2744.535 3934.527 2810.041 5602.367 3829.037 5660.337 7514.245 5112.141 5197.339 2541.805 4137.533 1902.606 2852.047 3438.845 3761.890 5457.222 3200.956 4870.035
4008.574 4733.136 2939.079 5739.073 3967.139 7692.439 3821.547 7475.424 5263.230 6106.108 7154.770 3105.762 6076.403 9368.891 2590.701 3139.815 6236.392 4885.194 3135.479 4662.108 4744.034 8374.858 3811.640 4850.936 832.041 3770.368 3604.433 4638.095 3400.114 2914.907 5989.620 545.740 3331.701 5332.657 3228.946 4974.266 3528.858 3295.738 5928.115 6970.235 4688.308 3020.659 3269.208 4609.070 4416.607 4578.411 3258.959 4470.604 6287.254 3569.323 7642.420 5014.628 3622.385 2253.089 4113.505 2541.486 3525.970 7374.772 7693.195 3479.925 3140.808 5395.175 893.804 2774.118 5019.840 2763.349 3481.761 2610.567 3829.572 4643.374 5940.405 4960.341 7340.383 0.000 3181.810 2225.704 5250.163 7031.137 7191.401 4960.132 3318.180 2716.671 2542.669 5556.899 5443.443 6518.321 5419.608 7489.205 6365.465 4141.990 2647.796 2569.228 6420.728 4414.691 7402.125 5040.773 4808.472 4657.865 6147.772 5802.921 2848.924
2677.559 3778.118 1885.516 4377.610 2689.693 6924.040 2691.361 6144.409 4659.572 3547.524 6426.530 1382.364 5242.149 8222.604 1257.121 1030.757 5402.139 3340.282 2081.916 3780.889 4011.229 7490.417 2758.077 3519.921 4188.924 1083.300 2550.871 3862.196 1734.022 1861.345 4465.054 4087.165 2278.139 3971.194 2175.384 3503.373 2253.140 2242.175 5159.716 8045.511 3634.745 1967.097 2215.645 3336.705 3363.044 3524.848 448.613 3737.799 4926.919 2515.761 6874.021 3996.983 7014.104 4694.743 7297.749 1788.037 2472.407 7739.359 7351.584 2426.362 2087.245 4033.712 4435.229 524.190 3688.825 1709.786 2036.058 1276.987 2699.385 3367.979 4580.070 3629.326 6009.368 3541.425 0.000 956.106 6325.439 6302.897 5860.386 3598.669 2264.617 1663.109 1417.037 4225.884 4081.980 5157.986 4805.650 6760.965 5343.957 5217.266 1358.397 1443.596 5536.286 3361.129 6040.662 3678.840 3477.457 3842.427 5176.317 4442.586 1795.361
3236.896 4337.456 2285.280 4936.948 3249.031 7483.378 3167.749 6703.747 5059.336 4008.889 6985.868 1862.388 5801.487 8781.942 845.351 914.111 5961.477 4098.858 2481.680 4180.652 4594.776 8049.754 3157.841 4079.259 3232.818 1544.664 2950.634 4421.534 2429.445 2261.108 5223.630 3195.561 2677.903 4530.532 2575.148 3638.171 2812.478 2641.939 5719.054 8445.274 4034.509 2366.860 2615.409 3896.043 3762.808 3924.612 1033.255 4321.346 5486.257 2915.524 7433.359 4556.321 6196.057 3738.637 6341.643 2187.801 2872.171 8139.123 7751.347 2826.126 2487.009 4593.050 3543.625 548.414 4248.163 2109.550 2595.396 865.217 3175.773 3927.317 5139.408 4188.664 6568.706 2649.821 956.106 0.000 6725.203 6862.235 6419.724 4158.007 2664.381 2062.873 1816.801 4785.222 4641.318 5717.324 5205.414 7320.303 6102.533 5617.029 1758.161 1843.359 6095.624 3760.892 6600.000 4238.178 4036.795 4401.765 5934.893 5001.924 2195.125
6240.247 7839.304 5854.482 7788.343 6392.510 7373.431 6053.221 8691.682 5600.942 10029.946 6484.873 6165.981 9303.336 9890.788 6466.493 7159.705 9463.325 8953.103 5727.906 5183.464 8654.652 8822.645 5804.786 6455.412 5172.088 7565.722 5644.537 7923.382 7491.384 5186.963 9827.983 4866.571 5563.375 7595.251 5460.620 9845.391 6754.903 5527.412 6450.011 1720.072 5102.603 5153.942 5851.029 7495.568 5134.270 4995.017 6829.982 8466.582 8550.976 4457.129 7207.533 8058.169 2961.584 6812.200 6379.536 6272.964 4413.776 4936.096 5724.811 5711.598 5831.080 7444.445 4367.512 6653.138 6624.316 5439.516 5773.334 6486.359 5902.255 7061.585 8204.127 6508.841 8636.332 5221.147 6752.833 6921.854 0.000 6361.240 8487.351 7222.726 5549.853 5632.075 5901.963 6411.585 7706.037 8782.043 5757.320 6826.165 9802.059 1746.175 5843.323 5928.522 6942.624 5143.347 9453.665 7068.507 6412.947 7903.613 9598.945 8066.643 5764.327
4140.115 5656.529 4967.675 4428.969 4403.049 1164.896 4186.104 4140.908 2744.479 8896.196 123.633 5443.401 7120.561 4850.841 5843.108 6536.320 7163.415 7269.058 4792.007 3404.562 6471.877 2648.051 4099.586 3140.624 6810.662 6942.337 3939.337 5740.607 6145.061 4783.895 7645.208 6505.145 4261.607 5116.068 4325.262 9206.017 4774.854 4375.610 2461.529 6970.529 3258.418 4750.875 4771.940 5312.793 3158.006 3000.948 6206.597 6283.807 4978.524 4258.827 864.663 5875.394 7849.105 9039.672 9451.508 5724.260 4293.167 3259.937 2872.162 4409.830 4895.180 4085.070 6006.086 6029.753 3032.015 5036.449 4589.912 5862.974 4194.129 4878.810 5790.452 2894.486 4533.237 6859.721 6129.448 6298.469 6183.202 0.000 4498.868 4743.543 4414.496 5089.988 5353.260 2504.908 5226.854 5262.053 2073.852 464.925 7619.284 5980.397 5294.620 5379.818 2927.971 3148.930 5597.806 3709.132 3121.362 5720.838 7416.170 5652.968 5052.515
2707.267 2559.602 3544.807 1214.819 2396.092 4315.195 2750.934 1326.419 4802.856 6273.541 4172.045 3967.371 3533.217 3543.206 4420.240 5113.452 3555.412 5159.787 3369.138 3555.999 3342.466 3106.307 2676.718 1892.543 6418.473 5204.581 2516.469 2541.271 4282.212 3510.698 4445.872 6132.173 2838.738 2583.353 2902.394 6818.792 2829.685 2952.741 2567.196 9427.857 3409.855 3477.678 3331.482 2497.762 3089.090 3169.554 4783.729 3199.767 1422.265 3349.863 4265.176 2676.058 8286.347 7839.521 9699.937 4301.392 3306.510 6860.352 6472.576 2986.962 3472.312 1196.266 6443.328 4606.885 1724.741 3754.793 3113.882 4440.106 2758.958 2294.901 2234.193 1873.752 1191.378 5586.432 4706.580 4875.601 7707.785 4184.097 0.000 2210.827 2991.627 3667.120 3930.392 1712.449 2694.139 1705.794 4544.847 4172.544 4419.948 6599.612 3871.752 3956.950 2231.767 3080.013 1841.645 1611.659 2198.456 2521.502 4216.833 2096.709 3629.646
2047.098 2097.140 2943.422 1644.082 1495.078 5241.645 2077.704 3721.947 4868.601 5811.079 5082.170 3290.987 3561.172 5819.084 3818.856 4512.067 3721.161 4369.174 2767.754 3629.892 2912.488 5190.130 2296.865 2337.960 5805.997 4226.823 2394.824 2181.218 3304.454 2989.504 4085.819 5581.044 2287.610 372.525 2351.266 6356.330 1928.671 2401.613 3477.321 9380.370 3483.749 3113.269 2655.098 1753.404 3109.353 3260.981 4182.345 2724.418 2502.934 3197.887 5191.626 2316.005 8348.964 7237.716 9087.461 3700.008 3154.534 7155.300 6767.525 2435.833 2870.928 1300.183 5929.108 4005.501 2170.157 3203.665 2437.498 3838.722 2085.729 1319.421 2390.929 2327.458 3586.905 5035.304 4105.196 4274.217 7660.299 5006.774 3140.293 0.000 2440.499 3065.736 3329.007 2510.195 483.311 2734.001 4641.929 5082.669 4059.895 6552.125 3270.368 3355.566 3247.931 3100.277 3309.404 1329.699 2383.525 2161.449 3856.781 2253.445 3028.262
938.020 2658.712 722.982 2821.075 1211.918 5184.502 764.285 4404.870 2797.006 5061.927 4663.210 1209.475 4122.744 6483.065 1598.416 2291.627 4282.733 3772.511 547.314 1918.323 3474.060 5750.878 754.378 1780.383 3426.846 2697.644 547.171 2742.790 2310.792 549.005 4647.391 3140.545 261.148 2414.659 89.233 4977.313 1574.311 156.025 3420.177 7098.890 1772.180 672.770 670.437 2314.976 1500.478 1662.283 1961.905 3285.990 3370.384 1126.292 5134.482 2877.577 6067.484 4847.894 6708.310 1479.568 1082.939 5820.491 5432.716 409.371 650.488 2477.176 3488.609 1785.061 1949.286 763.166 592.742 1618.281 772.310 1880.993 3023.535 1889.787 4269.829 2594.805 1884.756 2053.777 5378.819 4539.577 4120.848 2042.134 0.000 845.296 1108.567 2486.345 2525.445 3601.450 2943.085 4997.645 4621.467 4270.645 1049.927 1135.126 3796.747 1498.563 4484.127 2122.304 1737.918 2723.021 4418.353 2886.051 807.822
1359.984 2959.041 1023.311 3121.404 1512.247 5606.466 1172.958 4826.834 3064.545 5362.256 5071.883 1509.804 4423.072 6905.029 1898.745 2591.956 4583.062 4072.840 847.643 2185.862 3774.389 6172.842 1163.050 2202.347 3626.347 2997.973 955.844 3043.119 2611.121 748.506 4947.720 3340.047 683.112 2714.988 580.357 5277.642 1874.639 647.148 3842.141 7298.392 2039.718 872.272 970.766 2615.305 1768.017 1929.821 2262.233 3586.319 3670.713 1393.831 5556.446 3177.906 6266.986 5047.395 6907.811 1779.896 1350.478 6144.332 5756.556 831.335 950.817 2777.505 3688.111 2085.390 2371.251 962.668 893.070 1918.610 1180.983 2181.322 3323.864 2311.752 4691.793 2794.307 2185.084 2354.106 5578.320 4948.250 4542.812 2342.462 669.590 0.000 1408.896 2908.309 2825.774 3901.779 3210.623 5406.318 4921.796 4470.147 1350.256 1435.455 4218.711 1766.102 4784.456 2422.633 2159.882 3023.350 4718.682 3186.380 1108.151
1907.037 3506.094 837.543 3668.458 2059.301 6153.519 1720.011 5373.888 3611.598 4861.806 5618.936 1004.226 4970.126 7452.083 1298.353 1991.564 5130.116 4198.385 1033.942 2732.915 4057.224 6719.896 1710.104 2749.400 3325.492 2397.581 1502.897 3590.172 2736.666 813.371 5302.810 3039.192 1230.165 3262.041 1127.410 4677.250 2120.805 1194.202 4389.195 6997.537 2586.772 919.123 1167.671 3162.358 2315.070 2476.875 1661.842 3783.794 4217.766 1467.787 6103.500 3724.959 5966.131 4746.540 6606.956 439.950 1424.434 6691.385 6303.610 1378.389 1039.272 3324.559 3387.255 1484.998 2918.304 661.812 1428.487 1318.218 1728.036 2728.375 3870.918 2858.805 5238.847 2493.452 1584.693 1753.714 5277.465 5495.303 5089.865 2889.516 1216.643 615.135 0.000 3455.363 3372.827 4448.833 3757.677 5953.371 5468.849 4169.292 546.260 26.559 4765.765 2313.155 5331.509 2969.687 2706.936 3570.403 5265.735 3733.433 747.388
2290.942 3385.866 3128.482 2120.570 2138.564 2827.153 2336.932 2523.736 3488.082 6712.957 2667.677 3556.370 4747.927 4141.474 4003.915 4697.126 4770.121 5026.543 2952.813 2342.820 4201.213 3321.658 2260.393 1199.070 5933.130 4884.192 2100.144 3469.944 3961.822 3094.373 5374.545 5627.613 2422.413 2845.405 2486.069 7022.778 2532.338 2536.416 1062.828 8113.083 2196.676 3061.352 2920.480 3042.129 1875.911 1956.375 4367.404 4013.144 2585.231 2933.538 2777.133 3604.731 6971.573 7423.196 8573.976 3885.067 2890.185 5434.053 5046.277 2570.637 3055.987 1776.672 5128.554 4190.560 951.507 3338.468 2702.880 4023.781 2344.956 2608.146 3397.159 871.979 2388.694 5170.107 4290.255 4459.276 6393.011 2679.729 2239.713 2472.879 2575.302 3250.795 3514.066 0.000 2956.191 2868.760 3331.668 2668.177 5348.621 5284.838 3455.427 3540.625 1367.527 1866.834 3246.449 1427.343 1380.009 3450.175 5145.506 3259.674 3213.321
1732.969 1783.011 2629.293 1329.953 1180.949 4927.516 1763.575 3407.818 4554.472 5496.950 4768.041 2976.858 3247.043 5504.955 3504.727 4197.938 3407.033 4055.045 2453.625 3315.763 2598.359 4876.001 1982.736 2023.831 5491.868 3912.694 2080.695 1867.089 2990.325 2675.375 3771.690 5266.915 1973.481 1242.550 2037.137 6042.201 1614.542 2087.484 3163.192 9066.241 3169.620 2799.140 2340.969 1439.275 2795.224 2946.852 3868.216 2410.290 2188.805 2883.758 4877.497 2001.876 8034.835 6923.587 8773.332 3385.879 2840.405 6841.171 6453.396 2121.704 2556.799 986.055 5614.979 3691.372 1856.028 2889.536 2123.369 3524.593 1771.600 1005.292 2076.800 2013.329 3272.776 4721.175 3791.067 3960.088 7346.170 4692.645 2826.164 870.025 2126.370 2751.607 3014.878 2196.067 0.000 2419.872 4327.800 4768.541 3745.766 6237.996 2956.239 3041.437 2933.802 2786.148 2995.275 1015.570 2069.396 1847.320 3542.652 1939.316 2714.133
3917.347 2798.255 4813.671 1995.410 3264.766 5918.417 3947.953 2553.795 6297.121 6427.306 5758.942 5096.330 2130.117 4445.411 5689.105 6199.098 2152.312 5261.090 4638.003 5050.264 3581.119 4609.391 4167.114 3386.808 7448.267 5646.764 4010.734 2779.924 4724.394 4859.753 4254.808 7451.293 4157.859 3308.219 4221.515 6972.557 3698.359 4271.862 4154.093 10922.122 4904.120 4971.943 4525.347 2965.194 4583.355 4663.819 6052.594 3438.420 1144.400 4844.128 5868.397 2818.872 9780.612 8879.986 10729.731 5570.257 4800.775 8354.617 7966.841 4306.082 4741.177 1931.886 7799.357 5875.750 3219.006 5073.914 4307.747 5708.971 3955.978 2811.554 1531.975 3368.017 2418.754 6905.553 5975.445 6144.466 9202.050 5767.030 2418.657 3066.267 4310.748 4935.985 5199.256 3206.714 3419.005 0.000 6039.112 5759.441 3597.069 8093.877 5140.617 5225.815 3924.702 4574.278 1099.442 2520.612 3692.721 2760.154 3672.959 1546.841 4898.511
3306.021 5600.931 3739.073 4783.783 4154.137 3360.955 3216.335 5628.446 670.627 8062.103 2472.397 4225.567 7064.962 6827.552 4570.528 5263.739 7224.952 6772.686 3563.405 2120.229 6416.278 4810.169 2870.985 3444.307 5220.424 5669.757 2710.736 5685.009 5310.968 3290.997 7589.610 4914.907 3033.005 5356.878 3096.661 7949.425 4516.529 3147.008 3386.776 6978.417 2002.903 3257.977 3686.528 5257.194 1902.491 1745.432 4934.017 6228.209 5642.635 2668.590 3195.057 5819.796 6265.060 7449.434 7867.463 4376.998 2702.929 3267.825 2880.050 3181.229 3666.579 4439.885 4415.848 4757.173 3619.755 3543.551 3608.833 4590.394 2968.454 4823.211 5965.754 3445.605 5573.096 5269.484 4856.868 5025.889 5680.306 2348.764 5424.115 4984.352 3185.894 3736.110 4005.998 3348.350 5467.664 5873.702 0.000 2813.689 7563.686 4572.132 3947.358 4032.556 3879.389 1893.414 6449.105 4063.947 3408.387 5665.239 7360.571 5828.270 3823.913
4418.281 5644.976 5245.841 4417.416 4391.496 703.559 4464.270 4017.775 3209.404 8943.920 341.292 5721.568 7109.008 4727.707 6121.274 6814.486 7151.862 7257.506 5070.173 3869.487 6460.324 2524.918 4377.753 3418.790 7275.587 7115.155 4217.503 5729.055 6192.785 5116.495 7633.655 6970.070 4539.773 5104.515 4603.428 9253.741 4763.301 4653.776 2449.976 7435.454 3723.343 5083.474 5050.106 5301.240 3622.931 3465.873 6484.763 6272.255 4966.971 4723.753 403.326 5863.842 8314.030 9453.776 9916.433 6002.426 4758.092 3724.862 3337.087 4687.996 5173.346 4073.518 6471.011 6307.919 3182.469 5369.048 4868.078 6141.140 4472.295 4867.257 5778.900 3102.942 4410.103 7200.687 6407.614 6576.636 6648.127 464.925 4487.315 4731.990 4692.662 5368.154 5631.426 2493.355 5215.301 5250.501 2538.777 0.000 7607.732 6445.322 5572.786 5657.985 2916.419 3613.855 5474.672 3697.580 3399.528 5709.285 7404.617 5641.415 5330.681
5028.187 2121.585 4827.797 4176.845 3802.804 8337.244 5041.989 5351.655 7619.957 3829.193 8177.769 4628.847 1920.752 7243.271 5330.954 5217.817 2080.742 2138.518 4953.874 6594.177 2360.535 7360.598 5261.150 5420.337 6771.665 4665.483 5300.963 2053.938 3743.114 5159.260 1310.146 6849.659 5014.939 3487.009 4912.184 4374.444 3439.226 4978.976 6572.920 11343.426 6448.034 5265.012 4826.882 2657.552 6073.639 6228.282 5347.039 2477.662 3466.503 5813.676 8287.225 2040.442 9907.543 7060.591 10053.129 5232.499 5770.323 10136.390 9748.615 4952.919 5029.526 4113.321 7461.998 5517.599 5283.448 5007.701 4609.282 5350.819 5050.014 3057.901 2666.454 5440.749 5216.613 6839.341 5571.728 5707.790 9623.354 8120.065 5081.836 3984.785 5001.418 4929.320 4861.499 5623.486 3597.795 3501.293 7623.019 8178.268 0.000 8515.181 4802.859 4888.058 6343.530 6064.562 3897.301 4444.182 5377.872 2073.707 897.241 2625.903 4559.316
5114.662 6713.719 4728.897 6662.758 5266.925 6657.257 4927.636 7566.097 4475.356 8904.361 5768.699 5040.395 8177.750 8765.203 5340.908 6034.119 8337.740 7827.518 4602.321 4057.879 7529.066 7771.170 4679.201 5329.826 4046.503 6440.136 4518.951 6797.797 6365.799 4061.377 8702.398 3740.986 4437.790 6469.666 4335.034 8719.805 5629.317 4401.826 5324.426 3226.514 3977.018 4028.357 4725.444 6369.982 4008.685 3869.431 5704.397 7340.997 7425.390 3331.544 6491.359 6932.584 3679.542 6275.512 6652.299 5147.378 3288.191 4219.923 5008.638 4586.013 4705.494 6318.859 3241.927 5527.553 5498.730 4313.931 4647.748 5360.774 4776.670 5935.999 7078.542 5383.255 7510.746 4095.562 5627.248 5796.269 1678.093 5645.066 7361.765 6097.140 4424.268 4506.489 4776.378 5286.000 6580.452 7656.457 4631.734 6109.992 8676.474 0.000 4717.738 4802.936 5817.039 4017.761 8328.080 5942.921 5287.362 6778.027 8473.359 6941.058 4638.742
1965.677 3402.255 896.182 3727.097 2117.940 6212.159 1778.651 5432.528 3670.238 4447.142 5677.576 589.562 4866.286 7510.723 883.689 1576.900 5026.276 3800.735 1092.582 2791.555 3659.575 6778.535 1768.743 2808.040 3384.132 1982.917 1561.537 3486.333 2339.017 872.011 4905.161 3097.831 1288.805 3320.681 1186.050 4262.586 1877.277 1252.841 4447.835 7056.177 2645.411 977.763 1226.311 2960.842 2373.710 2535.514 1247.178 3386.145 4276.406 1526.427 6162.140 3621.120 6024.770 4805.180 6665.596 498.590 1483.074 6750.025 6362.250 1437.028 1097.911 3383.198 3445.895 1070.334 2976.944 720.452 1487.127 903.554 1786.676 2787.015 3929.557 2917.445 5297.486 2552.091 1170.029 1339.050 5336.105 5553.943 5148.505 2948.156 1275.283 673.775 58.640 3514.002 3431.467 4507.472 3816.316 6012.011 5281.006 4227.932 0.000 85.198 4824.404 2371.795 5390.149 3028.326 2765.575 3466.563 5063.314 3792.073 806.027
1880.479 3479.536 810.984 3641.899 2032.742 6126.961 1693.453 5347.329 3585.040 4835.247 5592.378 977.667 4943.567 7425.524 1271.794 1965.005 5103.557 4171.826 1007.384 2706.356 4030.665 6693.337 1683.545 2722.842 3298.933 2371.023 1476.338 3563.614 2710.107 786.812 5276.252 3012.633 1203.607 3235.483 1100.851 4650.691 2094.247 1167.643 4362.636 6970.978 2560.213 892.564 1141.113 3135.799 2288.512 2450.316 1635.283 3757.235 4191.207 1441.228 6076.941 3698.401 5939.572 4719.981 6580.398 413.392 1397.875 6664.826 6277.051 1351.830 1012.713 3298.000 3360.697 1458.439 2891.745 635.254 1401.928 1291.660 1701.477 2701.816 3844.359 2832.246 5212.288 2466.893 1558.134 1727.155 5250.907 5468.745 5063.307 2862.957 1190.085 588.577 458.979 3428.804 3346.269 4422.274 3731.118 5926.813 5442.291 4142.733 519.701 0.000 4739.206 2286.596 5304.951 2943.128 2680.377 3543.844 5239.176 3706.875 720.829
2945.391 3861.554 3772.951 2554.394 2656.017 3279.874 2991.380 1932.309 3993.419 7293.272 3173.014 4222.315 4969.518 3131.415 4648.384 5341.596 4991.713 5606.858 3597.283 2889.448 4676.901 2432.878 2904.862 1865.015 6438.467 5464.506 2744.613 3945.632 4542.137 3643.605 5850.233 6132.950 3066.883 3321.093 3130.538 7603.093 3089.610 3180.886 1568.165 8618.420 2743.305 3610.584 3577.216 3517.817 2422.539 2503.004 5011.873 4488.832 2858.566 3482.770 3229.855 4080.419 7476.910 7980.886 9079.312 4529.536 3439.417 5939.389 5551.614 3215.106 3700.456 2243.976 5633.891 4835.029 1617.452 3896.158 3368.825 4668.250 2999.405 3083.834 3670.494 1576.470 2324.637 5727.797 4934.724 5103.745 6898.348 3185.066 2224.917 2948.567 3219.772 3895.264 4158.536 1020.465 3431.879 3142.095 3878.296 3173.514 5824.309 5790.175 4099.896 4185.094 0.000 2413.463 3277.946 1944.796 1926.638 3925.862 5621.194 3533.010 3857.791
1595.102 3882.375 1967.179 3082.647 2435.581 4034.488 1444.440 4374.203 1866.509 6306.123 3496.819 2453.672 5346.406 5710.940 2842.612 3535.823 5506.396 5016.707 1791.510 541.850 4697.722 4716.907 1099.090 1749.716 4328.207 3941.841 938.841 3966.453 3554.989 1660.717 5871.054 4022.690 1261.110 3638.322 1324.766 6221.509 2797.973 1375.113 2270.164 6508.160 395.707 1627.696 1914.634 3538.638 9.077 163.720 3206.101 4509.653 3941.499 1499.881 3984.469 4101.240 5372.843 5997.998 6975.246 2723.764 1456.528 4654.100 4266.324 1409.334 1894.684 2738.749 3523.631 3029.257 1918.619 1913.270 1836.938 2862.478 1196.559 3104.655 4247.198 1859.121 4239.162 3744.909 3128.952 3297.973 4788.088 3373.186 4090.181 3265.796 1413.999 2089.492 2352.764 2231.738 3749.108 4172.566 2012.588 3831.254 5845.130 3679.915 2294.124 2379.322 2762.776 0.000 4747.969 2362.810 1707.251 3946.683 5642.015 4109.713 2052.018
3987.898 3091.004 4884.222 2065.961 3447.741 4970.675 4018.504 1454.353 6153.790 6760.581 5147.849 5231.787 2272.174 3345.969 5759.656 6452.867 2294.369 5532.810 4708.554 4906.932 3873.869 3527.559 4027.652 3243.477 7741.016 5939.514 3867.403 3072.673 5017.144 4861.632 4588.082 7483.106 4189.672 3509.343 4253.328 7305.831 3881.335 4303.675 4010.761 10778.790 4760.789 4828.611 4595.898 3243.543 4440.024 4520.488 6123.145 3731.169 1320.825 4700.797 4943.697 3158.116 9637.281 9172.736 11022.480 5640.808 4657.444 8211.285 7823.510 4337.896 4811.728 2002.437 7794.262 5946.301 3075.675 5105.727 4378.298 5779.522 4026.529 3040.681 1814.915 3224.686 1319.312 6937.366 6045.996 6215.017 9058.719 5271.482 1769.570 3136.818 4342.561 5006.536 5269.807 3063.383 3620.129 1604.354 5895.781 5148.348 3868.789 7950.546 5211.168 5296.366 3781.371 4430.947 0.000 2591.163 3549.390 3052.904 3944.679 1916.352 4969.062
1695.027 1974.057 2591.351 719.837 1177.750 4100.401 1725.633 2778.026 4233.992 5687.996 3940.926 2938.916 3438.089 4875.163 3466.785 4159.996 3561.097 4128.591 2415.683 2909.333 2789.405 4246.209 1944.794 1172.067 5488.669 3986.240 1795.993 2058.135 3063.870 2637.433 3962.736 5228.973 1935.539 1433.596 1999.195 6124.826 1611.343 2049.542 2336.077 8811.870 2763.189 2757.201 2303.027 1630.321 2442.424 2522.888 3830.274 2601.336 1578.689 2629.387 4050.382 2192.922 7740.326 6920.388 8770.133 3347.937 2586.034 6411.552 6023.777 2083.762 2518.857 375.938 5577.037 3653.430 1004.265 2851.594 2085.427 3486.651 1733.658 1196.338 2174.657 1161.565 2642.985 4683.233 3753.125 3922.146 7091.798 3833.564 2216.048 1061.071 2088.428 2713.665 2976.936 1273.249 1544.382 1809.756 3898.181 3941.425 3936.812 5983.625 2918.297 3003.495 2304.010 2433.347 2385.159 0.000 1477.980 2038.366 3733.698 2037.173 2676.191
1487.295 3360.209 2314.856 2214.166 2039.711 3446.584 1533.285 3153.572 2756.012 6243.377 2949.074 2790.582 4824.241 4771.310 3190.289 3883.500 4984.230 4895.758 2139.187 1431.353 4175.557 4039.123 1446.767 504.838 5101.743 4289.518 1286.518 3444.287 3492.242 2185.510 5348.888 4815.442 1608.787 2819.748 1672.443 6553.198 2403.664 1722.790 1682.259 7397.663 1285.209 2152.489 2119.120 3016.473 964.444 1044.908 3553.778 3987.487 3073.018 2024.675 3396.564 3579.074 6262.346 6522.791 7864.749 3071.441 1981.321 4933.572 4545.797 1757.011 2242.361 1870.267 4413.134 3376.934 899.636 2438.063 1937.093 3210.155 1541.309 2582.490 3653.998 506.136 3018.530 4269.702 3476.629 3645.650 5677.591 2825.441 2869.549 2447.223 1761.676 2437.169 2700.441 748.427 2930.534 3304.085 2420.201 3283.509 5322.964 4569.418 2641.801 2726.999 2084.992 955.367 3754.431 1494.329 0.000 3424.518 5119.850 3516.514 2399.695
3054.236 147.633 2853.846 2240.998 1828.853 6382.177 3068.038 3991.353 5646.006 3771.403 6222.702 2654.895 1724.612 6147.281 3357.002 3691.392 1884.602 2657.649 2979.923 4620.226 820.965 5687.007 3287.199 3446.385 4940.561 3139.058 3327.012 19.769 2216.688 3185.309 1958.049 5018.554 3040.988 1513.057 2938.233 4316.654 1465.274 3005.025 4617.853 9369.475 4474.083 3291.061 2852.931 683.600 4099.687 4254.330 3720.491 699.988 2030.096 3839.725 6332.158 494.388 8076.438 6372.280 8222.025 3258.548 3796.372 8162.439 7774.664 2978.968 3055.575 2177.474 5630.894 3543.647 3309.497 3033.750 2635.331 3376.868 3076.063 1083.950 1683.247 3466.798 3856.312 4865.389 3613.058 3733.839 7649.403 6146.114 3145.989 2010.834 3027.466 2955.369 2887.548 3649.535 1623.843 2261.163 5649.068 6223.201 2044.139 6541.230 2828.908 2914.106 4388.463 4090.611 3253.033 2470.231 3403.921 0.000 1841.025 1545.763 2585.365
4900.596 1993.994 4658.635 4049.254 3675.213 8209.653 4914.398 5257.651 7492.366 3732.813 8050.178 4459.684 2190.980 7149.267 5161.791 5106.713 2350.970 2042.138 4784.712 6466.586 1904.293 7266.594 5133.559 5292.746 6454.005 4554.379 5173.372 1891.624 3632.009 4990.098 1213.766 6531.998 4887.348 3359.418 4784.593 4278.064 3311.635 4851.385 6445.329 11174.264 6320.443 5095.850 4657.720 2529.961 5946.048 6100.691 5235.934 2160.002 3338.912 5644.514 8159.634 1912.851 9589.882 6964.212 9735.469 5063.337 5601.161 10008.799 9621.024 4825.328 4860.364 3985.730 7144.338 5348.436 5155.857 4838.539 4440.120 5181.657 4922.423 2930.310 2572.450 5313.158 5122.609 6590.207 5417.847 5538.628 9454.192 7992.474 4954.245 3857.194 4873.827 4760.158 4692.337 5495.895 3470.204 3407.289 7495.428 8050.677 919.980 8346.019 4633.697 4718.895 6215.939 5936.971 3803.297 4316.591 5250.281 1911.394 0.000 2531.899 4390.154
3117.370 1524.524 3589.950 1854.831 1992.535 6015.229 3147.976 3047.608 5938.873 5049.355 5855.754 3824.099 1501.729 5172.204 4465.383 4926.867 1523.924 3909.246 3414.282 4700.164 2205.842 4921.803 3367.137 3382.405 6176.036 4374.533 3465.096 1506.193 3452.163 3692.900 2876.857 6254.029 3357.882 2035.988 3278.837 5594.606 2426.128 3345.629 4250.905 10242.786 4554.021 3816.666 3287.290 1692.963 4179.625 4331.253 4828.872 2086.499 1059.720 4268.159 5965.210 1443.382 9211.379 7607.755 9457.500 4346.535 4224.806 8225.572 7837.797 3319.572 3523.011 1791.306 6632.504 4652.028 3214.603 3907.061 3069.690 4485.249 3156.001 1539.323 137.484 3371.903 2912.566 5738.700 4751.723 4903.043 8522.714 5863.842 2731.068 1969.452 3368.070 3712.263 3975.535 3303.526 2146.774 1062.498 5712.201 5856.253 2558.945 7414.541 3916.895 4002.093 4021.515 4170.549 1826.235 2380.033 3453.797 1486.424 2459.025 0.000 3674.790
1797.836 2898.396 750.329 3497.888 1809.970 6044.318 1632.798 5264.687 3524.385 4354.047 5531.723 401.653 4362.427 7342.882 790.594 1483.805 4522.417 3450.997 946.729 2645.702 3309.837 6610.694 1622.891 2640.199 3238.279 1889.822 1415.684 2982.474 1989.278 726.158 4555.423 2951.979 1142.952 3091.472 1040.197 4169.491 1373.418 1106.989 4279.994 6910.324 2499.559 831.910 1080.458 2456.983 2227.857 2389.662 1154.083 3036.406 4047.197 1380.574 5994.299 3117.261 5878.918 4659.327 6519.743 673.183 1337.221 6604.172 6216.397 1291.175 952.058 3153.989 3300.042 977.239 2809.103 574.599 1156.336 810.459 1640.823 2488.257 3700.348 2749.604 5129.645 2406.238 1076.934 1245.955 5190.252 5408.090 4980.664 2718.947 1129.430 527.922 302.183 3346.161 3202.258 4278.263 3670.464 5866.158 4861.151 4082.079 243.543 328.741 4656.563 2225.942 5160.940 2799.117 2597.734 2962.704 4658.036 3562.864 0.000
NODE_COORD_SECTION
1 135.757630 21.597263
2 1973.412920 1380.877369
3 -231.997549 830.581082
4 1734.483753 -285.438272
5 841.044327 685.153662
6 237.100614 -3460.512592
7 67.151967 147.591932
8 2563.748142 -1524.267905
9 -1513.703071 -1614.218021
10 1352.713566 3794.758334
11 -362.969805 -3120.010774
12 -23.012282 1355.723092
13 3587.583354 1267.039794
14 3745.571850 -3245.612173
15 -730.713229 1336.293041
16 -597.841554 2482.314721
17 3742.205228 1225.973214
18 1678.844761 3090.675987
19 -56.314718 994.540691
20 -802.875335 -789.444148
21 2033.800202 1748.892971
22 1481.098484 -3260.066983
23 -48.331814 230.218155
24 495.888218 -281.192157
25 -2188.727359 1860.070231
26 -132.682461 2670.348180
27 -213.392964 67.747507
28 2070.644627 1466.592072
29 451.117476 2324.351345
30 -527.941275 753.574475
31 2655.784386 2796.910090
32 -2310.289416 1703.030273
33 -41.881027 432.093759
34 1628.400340 358.905458
35 -172.350195 471.908741
36 965.224053 4640.039173
37 798.122945 1137.104024
38 -213.505224 423.827969
39 886.277008 -1531.134865
40 -4833.956564 -2385.591606
41 -677.721238 -826.115134
42 -588.252048 678.722575
43 50.441857 976.868306
44 1695.431695 1064.238187
45 -476.612694 -540.887495
46 -536.583566 -686.373353
47 -110.328335 2010.223537
48 1827.749001 1430.837828
49 2378.501341 -106.401732
50 -750.275983 174.356451
51 69.322490 -3341.168175
52 2125.486656 1450.338670
53 -4846.838953 690.063500
54 -1652.603525 3458.065868
55 -4201.675663 3722.162219
56 -354.743839 1083.023377
57 -740.998451 207.643752
58 -1926.453652 -4498.854984
59 -1340.273111 -4224.767608
60 -54.591358 591.489306
61 -193.902578 616.900222
62 1593.886524 -83.089107
63 -2255.755386 1153.644762
64 -463.557086 1854.089522
65 549.657665 -446.551437
66 -593.593842 949.721038
67 93.686860 813.683159
68 -731.480955 1356.143953
69 -6.920181 161.373754
70 1553.680396 844.508492
71 2775.347660 656.184148
72 435.284815 -589.150328
73 2686.891166 -1671.384794
74 -1954.720397 1706.398392
75 -33.829315 1846.325402
76 -964.959485 1736.275808
77 -3964.588222 -1477.018472
78 -397.461906 -3019.777174
79 2063.137953 -994.797078
80 1654.272696 515.051121
81 -187.400817 559.770624
82 -270.222232 863.104159
83 -443.154985 1214.482352
84 704.010047 -1001.612421
85 1669.636384 372.542966
86 2760.498409 4.469128
87 -1185.509450 -1817.664656
88 -258.290116 -3282.755985
89 3326.687993 2730.866837
90 -2716.863800 -1126.865821
91 -384.978980 1219.613462
92 -467.891463 1204.814392
93 1226.581033 -1760.138503
94 -467.968508 -543.655698
95 3235.459425 -617.522632
96 1218.816766 -103.602618
97 211.989932 -540.001849
98 2068.939970 1446.896284
99 2798.294865 2561.140746
100 2638.285703 655.190885
101 -186.768757 1142.290645
DEMAND_SECTION
1 0
2 83
3 9
4 6
5 7
6 10
7 1
8 58
9 9
10 1
11 10
12 2
13 6
14 9
15 10
16 2
17 8
18 74
19 7
20 3
21 10
22 9
23 9
24 4
25 5
26 9
27 2
28 10
29 9
30 7
31 3
32 8
33 63
34 9
35 2
36 9
37 4
38 2
39 7
40 5
41 1
42 2
43 6
44 3
45 5
46 2
47 85
48 2
49 4
50 3
51 99
52 3
53 8
54 5
55 6
56 8
57 4
58 8
59 3
60 83
61 3
62 8
63 10
64 2
65 7
66 1
67 9
68 10
69 7
70 9
71 9
72 2
73 4
74 5
75 90
76 4
77 5
78 2
79 7
80 3
81 8
82 97
83 1
84 8
85 9
86 9
87 61
88 8
89 5
90 2
91 2
92 4
93 7
94 97
95 8
96 8
97 1
98 3
99 1
100 8
101 9
DEPOT_SECTION
1
-1
EOF
