NAME : poryos-tokyo-n50-poi
COMMENT : Poryos2026 shortest metric; city tokyo; 3-decimal seconds/meters; ENU ref in poryos-tokyo-n50-poi.vrp.json
TYPE : CVRP
DIMENSION : 51
EDGE_WEIGHT_TYPE : EXPLICIT
EDGE_WEIGHT_FORMAT : FULL_MATRIX
CAPACITY : 177
EDGE_WEIGHT_SECTION
0.000 10641.718 1777.516 5890.617 3131.959 3873.389 3816.989 8706.595 6132.122 16557.579 8890.069 2967.526 3775.882 8992.254 9523.652 4446.225 10298.038 9225.380 10986.976 8926.492 2756.503 4354.722 6159.185 2442.925 4565.811 10215.093 16590.609 3420.442 11888.338 3490.184 2093.960 8943.401 3922.790 4761.761 8078.385 12694.218 3372.991 7775.879 9263.864 4499.261 9235.425 3922.638 16644.517 6431.349 11733.402 5666.057 4341.811 4691.520 2683.331 4469.736 9499.577
10608.799 0.000 9103.916 5305.714 7476.682 12578.281 7880.888 6670.094 16334.414 6388.412 12342.839 10955.398 12317.363 18737.749 17850.521 9212.678 13306.118 4967.906 20732.471 5603.973 11313.298 9117.798 5539.992 12297.568 12826.662 9335.939 6421.443 11961.923 2562.939 7658.629 10909.738 6797.521 12802.955 6157.802 12274.769 19033.921 11450.490 17527.765 19009.359 6649.173 1633.885 12707.412 6475.350 5515.142 4189.040 6648.870 9108.263 14498.597 10531.287 9182.352 18293.243
1698.551 9219.026 0.000 4467.924 1709.267 4745.287 2422.861 8118.311 7586.357 15134.886 9254.443 3395.938 4610.182 10581.845 10858.205 4294.850 10426.055 8199.170 12576.567 7900.281 3606.117 4203.346 5132.974 3549.511 5341.793 10063.717 15167.917 4254.742 10862.127 2043.881 2945.952 8359.947 4916.529 3339.068 8656.020 13019.023 3851.259 9230.114 10853.455 3473.051 7812.733 4819.407 15221.824 5405.139 10310.710 4243.365 4190.435 6124.223 2795.658 4318.360 10460.249
5941.006 5658.413 4436.123 0.000 3104.831 7332.672 2757.581 8486.840 11211.107 11574.274 12799.079 5709.789 7071.754 14732.337 15232.490 7565.089 13970.691 8056.167 16618.998 7798.635 6067.689 7470.209 5265.357 7174.261 7626.064 11435.026 11607.304 6716.314 7943.678 3286.779 5786.431 8649.455 7557.346 2724.338 12200.656 13833.323 6204.881 12282.156 14990.236 4354.368 4252.120 7461.803 11661.212 5340.498 6166.350 1448.272 7460.674 9252.988 5285.678 7534.763 13047.634
3163.179 7550.331 1658.296 3092.207 0.000 5618.532 1238.753 7752.872 9029.397 13466.192 10237.481 3995.648 5357.613 11991.718 12268.078 5277.888 11409.094 7363.555 13986.440 7064.667 4353.548 5186.385 4531.389 4992.551 6051.681 10259.206 13499.222 5002.173 9679.429 603.061 3949.712 7915.487 5843.205 1670.374 9639.058 12808.757 4490.740 10568.015 12263.328 3197.307 6144.038 5747.662 13553.130 4606.530 8689.350 3020.340 5173.473 7538.848 3571.537 5301.398 11333.494
4099.979 12832.336 5088.321 7473.025 5815.554 0.000 5067.009 12507.688 4892.836 18748.196 12110.383 1966.348 678.058 8706.193 10472.677 8247.318 13683.508 12958.830 10592.854 12659.941 1503.922 8155.815 10010.411 2120.962 1561.982 14016.185 18781.227 1061.780 15046.612 6392.243 2171.272 12744.494 509.595 7271.976 10818.404 10048.040 1722.019 5091.447 8964.092 8350.488 11426.043 608.661 18835.134 10201.805 13292.894 6657.355 8142.903 2399.847 2662.196 8270.828 5824.125
3773.073 8034.914 2389.870 2779.706 1274.558 4989.559 0.000 8774.411 8745.415 13950.775 11359.022 3366.676 4728.640 12266.645 13186.236 6399.429 12530.635 8385.094 14153.306 8086.206 3724.576 6307.926 5552.928 4708.569 5422.709 11452.196 13983.805 4373.201 10249.191 1877.619 3320.739 8937.026 5214.232 2691.913 10760.600 11998.230 3861.768 9939.043 12524.544 4372.614 6628.621 5118.689 14037.713 5628.069 8622.491 2278.792 6295.015 6909.875 2942.565 6422.940 10704.521
8768.873 6658.940 8113.918 8335.432 7672.692 12386.429 8755.535 0.000 13167.012 10339.933 5678.034 11380.352 12288.922 14134.755 12229.915 4576.190 6641.312 2280.765 15854.993 1139.386 11269.543 4574.306 3306.008 10790.700 13078.851 3276.200 10372.964 11933.482 6568.588 7522.801 10607.000 246.024 12398.841 6088.487 6008.102 20325.539 11835.673 15881.947 14773.738 5369.616 6952.857 12398.690 10426.871 3396.586 10729.077 8815.942 4557.976 12988.828 10780.071 4478.801 17799.477
6089.207 16407.736 7709.975 11152.527 9064.419 4885.936 8682.526 13052.668 0.000 22157.950 11480.477 6064.821 5346.853 3870.337 6664.823 8792.298 13040.225 14676.867 5756.998 13828.690 5412.981 8700.795 11545.503 4196.615 6428.751 14561.166 22190.981 5707.092 17470.990 9403.868 5459.791 13289.474 4404.095 10533.586 9715.523 13809.819 6143.198 3790.412 4128.236 10081.913 15001.443 4403.944 22244.888 11817.668 16995.312 10707.569 8687.884 2573.216 6362.343 8815.809 6482.054
16596.396 6346.585 15092.653 11294.451 13465.419 18567.018 13869.624 10398.225 22323.151 0.000 15386.979 16944.135 18306.100 24154.372 22479.053 14551.848 16342.868 8514.249 26149.094 9720.708 17302.035 14534.422 10942.964 18286.305 18815.399 11561.025 211.676 17950.660 4861.704 13647.366 16898.475 10353.651 18791.692 12327.372 16379.721 25022.658 17439.227 23516.502 24425.982 12562.061 7628.400 18696.149 237.859 10768.761 8599.475 12637.607 14524.887 20487.334 16520.024 14454.459 24281.980
9006.822 12418.291 9190.262 12731.208 10174.940 12028.925 11298.084 5841.542 11683.953 15425.654 0.000 11789.679 12033.284 10777.756 7644.105 5335.005 1834.215 7901.962 12106.069 6892.704 11569.930 5655.158 8055.928 10275.907 13086.243 5007.747 15458.684 11984.000 11752.492 10310.841 10916.112 5957.682 11884.047 10272.040 2028.231 21516.371 12195.144 14398.888 11242.486 8838.229 12618.287 11883.896 15512.592 8232.188 16488.427 12849.070 5439.419 12187.698 11505.484 5358.067 16989.701
3120.188 11066.644 3535.588 5707.333 4049.862 1840.254 3301.317 11370.960 6207.834 16982.504 11760.880 0.000 1579.335 9729.064 11150.214 7270.230 13122.043 11193.138 11615.724 10894.250 661.310 7178.727 8360.972 2498.077 2132.006 13039.097 17015.535 1223.895 13280.920 4626.551 1007.166 11612.596 2064.927 5506.284 10648.999 10155.579 495.250 6789.737 9986.962 6704.514 9660.351 1969.384 17069.443 8436.113 11527.202 4865.749 7165.815 3760.570 906.016 7293.740 7555.215
3631.615 12165.751 4421.736 6806.440 5148.969 770.971 4400.424 12042.026 5431.251 18081.612 11714.369 1311.517 0.000 9030.267 10621.996 7781.656 13287.493 12292.245 10916.928 11993.357 837.337 7690.153 9343.826 1884.382 1819.975 13550.524 18114.642 905.358 14380.027 5725.658 1504.687 12278.832 1136.446 6605.391 10602.488 10354.123 1341.464 5720.455 9288.166 7683.903 10759.458 1147.076 18168.550 9535.220 12626.309 6092.414 7677.242 2938.261 1995.611 7805.167 6485.933
9184.323 18521.128 10574.364 14629.992 11972.603 8708.035 12159.991 13996.547 3908.996 24084.430 10830.519 9706.995 9131.499 0.000 3704.914 10139.270 11874.743 16277.312 2037.784 14772.569 9055.155 10108.162 13263.220 7644.059 10186.484 15188.751 24117.460 9349.266 19447.142 12116.358 9003.205 14233.354 8226.194 13044.797 8794.655 17235.659 9785.372 6240.563 849.141 12593.124 17558.710 8226.043 24171.368 13535.384 20472.777 14236.342 10095.251 6395.315 9839.808 10162.333 8387.720
9633.723 17725.435 11023.763 15383.377 12422.003 10561.640 13338.314 12214.408 6799.149 22524.515 7709.142 11286.603 10842.888 3653.806 0.000 8740.085 8725.031 14495.173 4821.764 12990.430 10684.717 9060.238 12471.625 8967.672 11949.011 12332.295 22557.546 11045.621 18225.811 12565.757 10326.817 12451.215 10227.714 13283.157 6240.202 20402.732 11451.783 9485.659 4033.247 11954.431 17037.157 10227.563 22611.453 12743.790 20935.412 15158.818 8844.499 8861.610 11163.421 8763.147 11910.761
4428.346 9094.207 4309.164 7638.713 5293.842 8115.975 6416.986 4512.531 8811.591 14570.740 5434.892 7210.112 8018.467 10285.377 8811.582 0.000 6606.504 6730.160 12280.099 5288.553 6999.089 374.488 3836.299 6435.279 8808.397 6021.029 14603.770 7663.028 9933.453 5429.743 6336.545 4749.338 8043.420 5095.712 4840.117 16936.804 7615.577 11526.525 10556.988 3593.203 8479.232 8043.269 14657.678 4108.463 12542.323 7756.575 104.415 8633.407 6672.544 111.554 13444.056
10424.366 13405.514 10606.715 14147.661 11591.393 13610.654 12714.536 6828.766 13044.913 16412.878 1776.502 13206.131 13615.013 11832.620 8613.680 6751.457 0.000 8889.186 13075.644 7879.928 12995.109 7071.610 9149.077 11857.636 14667.972 5186.452 16445.908 13565.729 12739.716 11727.293 12332.565 6944.905 13465.776 11688.492 3389.190 22932.823 13611.596 15759.848 12212.061 10254.681 13605.511 13465.625 16499.816 9325.336 17475.651 14265.523 6855.872 13548.658 12921.936 6774.520 18350.661
9381.288 4913.589 8200.195 8064.593 7512.752 12945.482 8595.595 2296.923 15057.759 8255.785 7867.298 11363.919 12725.883 16426.390 14521.549 6768.835 8830.577 0.000 18146.628 1591.553 11721.819 6766.951 3352.441 11626.899 13419.951 4687.392 8288.816 12370.444 4484.440 7441.727 11146.147 2252.349 13116.724 5928.547 8299.736 20165.600 11859.010 16909.386 16927.229 5430.883 5839.986 13019.602 8342.723 3224.415 8983.725 8656.002 6750.621 13825.026 10939.808 6671.446 18635.675
11021.656 20358.462 12411.697 16467.326 13809.937 10545.368 13997.325 15598.536 5746.329 25921.763 12014.503 11544.328 10968.832 1880.395 4517.872 11818.248 13030.392 17879.300 0.000 16374.557 10892.488 11945.495 15100.553 9481.393 11887.064 16588.956 25954.793 11186.599 21284.475 13953.691 10840.538 15835.342 10063.527 14882.130 10135.514 18697.796 11622.705 7692.011 1785.163 14430.457 19396.043 10063.376 26008.701 15372.718 22310.111 16073.675 11922.663 8232.648 11677.142 11841.311 9600.603
8850.703 5629.354 7669.609 7632.675 6984.719 12414.897 8067.562 1124.834 14030.300 9633.871 6797.580 10835.886 12197.850 14998.043 13093.203 5439.478 7760.858 1574.702 16718.282 0.000 11193.786 5437.594 2795.490 11096.313 12891.918 3779.876 9666.901 11842.411 5561.820 6913.694 10615.562 1193.548 12586.139 5400.514 6871.390 19637.567 11330.977 16378.800 15637.026 4900.298 6158.846 12489.017 9720.809 2693.829 9699.491 8127.969 5421.264 13294.441 10411.775 5342.090 18105.090
2848.863 11462.111 3718.096 6102.800 4445.329 1557.806 3696.784 11259.274 5546.524 17377.971 11391.964 796.990 1318.838 9067.753 10495.289 6998.904 12850.717 11588.605 10954.414 11289.717 0.000 6907.401 8597.102 1843.152 2135.754 12767.772 17411.002 990.385 13676.387 5022.018 769.369 11496.080 1751.317 5901.751 10280.083 10264.161 1082.355 6507.289 9325.652 6937.179 10055.818 1655.774 17464.910 8831.580 11922.669 5479.942 6894.490 3446.960 1291.971 7022.415 7272.768
4453.293 9008.670 4334.112 7553.175 5318.790 8140.922 6441.933 4351.873 8836.538 14410.082 5621.109 7235.059 8043.415 10310.325 9017.834 371.474 6792.722 6569.501 12305.047 5127.895 7024.036 0.000 3750.761 6460.227 8833.344 5860.371 14443.112 7687.975 9772.794 5399.993 6361.493 4588.679 8068.367 5010.174 5026.335 16961.751 7640.524 11551.473 10581.935 3507.666 8393.694 8068.216 14497.020 4022.926 12456.785 7671.037 353.260 8658.354 6697.491 274.086 13469.003
6159.495 5553.372 4978.402 5315.664 4497.803 9723.689 5580.646 3458.910 11772.852 11025.269 8341.771 8343.682 9588.584 13370.711 12559.064 3845.641 9465.156 3233.369 15365.434 2933.567 8584.519 3750.761 0.000 8405.106 10320.195 6396.263 11058.300 9233.144 6387.982 4347.912 7924.354 3621.525 9894.931 2913.598 7886.862 17150.651 8829.661 13687.592 13642.322 2209.090 4938.396 9797.809 11112.207 278.381 9001.487 5641.053 3741.226 10603.233 7774.059 3815.315 15413.882
2430.836 12394.712 3716.655 7139.503 5061.958 1875.747 4669.503 10550.804 4245.051 18310.572 10153.500 2472.502 1997.944 7766.281 8860.342 6290.434 11726.625 11427.796 9652.942 11128.907 1870.615 6198.931 8361.600 0.000 3104.067 12059.302 18343.603 2200.677 14090.753 5549.651 1512.716 10787.610 1823.710 6685.936 8870.084 11590.125 2636.783 5888.808 8024.180 6701.677 10988.419 1823.559 18397.510 8633.765 12982.289 6745.853 6186.019 2782.918 2349.320 6313.944 7400.497
4729.697 12986.437 5519.819 7671.170 6090.587 1624.115 5334.746 13140.108 6476.063 18902.297 12965.844 2199.502 1716.542 10281.743 11873.471 8879.739 14538.969 13233.863 11969.803 12934.975 2074.737 8788.235 10401.698 3135.858 0.000 14648.606 18935.328 1191.763 15271.702 6667.277 2602.769 13376.915 2097.084 7547.009 11853.964 8964.068 1867.859 5616.277 10341.041 8745.240 11580.144 2215.637 18989.235 10476.838 13143.052 6497.663 8775.324 3995.860 2960.644 8903.249 6084.213
10575.249 9361.320 10456.067 11412.551 10310.433 14262.878 11479.348 3218.698 14958.494 11556.051 5200.859 13357.015 14165.371 15539.325 12779.552 6367.672 5395.900 4663.676 17154.292 3779.876 13145.992 6365.788 6249.562 12582.183 14955.300 0.000 11589.082 13809.931 8353.193 9971.954 12483.448 3334.838 14190.323 8884.507 6867.599 22825.131 13762.480 17673.429 16178.308 7808.154 9890.811 14190.172 11642.989 6425.821 13431.456 11611.961 6349.458 14780.310 12819.447 6270.283 19590.959
16633.043 6383.233 15129.301 11331.099 13502.066 18603.666 13906.272 10434.872 22359.799 211.676 15423.626 16980.783 18342.747 24191.020 22515.701 14588.496 16379.516 8550.897 26185.742 9757.356 17338.683 14571.069 10979.612 18322.953 18852.047 11597.672 0.000 17987.308 4898.352 13684.013 16935.123 10390.298 18828.339 12364.019 16416.368 25059.305 17475.874 23553.150 24462.630 12598.709 7665.047 18732.796 298.614 10805.409 8636.123 12674.254 14561.534 20523.982 16556.672 14491.107 24318.628
3537.934 12072.070 4328.056 6712.759 5055.288 1144.734 4306.743 11948.345 5794.672 17987.931 11832.379 1195.949 883.815 9315.902 10907.631 7687.975 13405.503 12198.564 11202.563 11899.676 882.974 7596.472 9250.146 2170.017 1405.895 13456.843 18020.961 0.000 14286.347 5631.977 1411.006 12185.152 1510.209 6511.710 10720.498 9813.121 951.620 5985.993 9573.801 7590.222 10665.777 1545.024 18074.869 9441.539 12532.628 5886.956 7583.561 3336.210 1901.930 7711.486 6711.611
12004.552 2731.697 10823.459 7802.190 9801.706 15074.758 10377.364 6551.073 17778.122 4686.961 11777.382 13451.874 14813.839 19690.060 18311.686 10087.536 12733.271 4626.708 21684.782 5621.080 13809.774 10070.110 6478.653 14250.163 15323.139 8319.975 4719.991 14458.399 0.000 9820.794 13406.214 6506.499 15299.431 8208.471 12291.876 21530.397 13946.966 19532.650 19961.671 7970.218 4136.139 15203.888 4773.899 6304.449 5860.979 9145.346 10060.575 16448.290 13027.763 9990.148 20789.720
3482.327 8037.209 2057.746 3637.918 758.657 6351.248 1960.042 7647.282 9540.094 14011.903 10517.035 4728.365 6090.330 12271.271 12547.631 5557.441 11688.647 7401.966 14265.993 7103.077 5086.265 5465.938 4458.673 5591.273 6784.398 10076.321 14044.933 5734.890 9840.508 0.000 4682.428 7888.918 6575.922 1768.030 9918.612 13530.046 5223.457 11183.851 12542.882 3014.423 6624.929 6480.379 14098.841 4644.940 9235.061 3566.051 5453.027 8099.492 4304.254 5546.132 12066.210
2176.744 11047.811 3050.992 5792.602 4020.074 1959.353 3322.601 10587.155 5570.307 16963.671 10817.435 1015.999 1794.545 9091.537 10209.451 6326.785 12178.598 10991.179 10978.198 10692.291 790.480 6235.282 7924.983 1557.315 2584.475 12095.653 16996.701 1439.105 13262.087 4596.764 0.000 10823.962 2130.595 5476.496 9705.555 10712.881 1421.464 6908.836 9349.436 6265.060 9641.517 2033.473 17050.609 8197.148 11635.387 5398.951 6222.371 3730.562 1002.418 6350.296 7674.315
8984.988 6646.894 8324.467 8437.495 7789.539 12602.543 8872.382 337.870 13504.882 10164.307 5835.049 11596.466 12505.036 14472.625 12567.785 4914.060 6798.328 2105.138 16192.863 1056.115 11485.658 4912.176 3477.185 11128.571 13294.966 3030.177 10197.338 12149.596 6392.962 7693.977 10823.114 0.000 12736.711 6205.334 6345.972 20442.386 12051.787 16219.817 15111.608 5555.155 7052.609 12676.663 10251.245 3498.649 10717.031 8932.789 4895.846 13326.698 10996.185 4816.672 18137.347
3874.860 12932.282 5160.679 7572.970 5915.499 489.676 5166.954 12156.622 4403.457 18848.142 11759.318 2078.047 950.593 8216.814 10121.611 7896.252 13332.442 12919.388 10103.475 12620.500 1603.867 7804.749 9853.193 1871.291 2028.913 13665.120 18881.172 1514.865 15146.558 6492.189 2271.217 12393.428 0.000 7371.921 10467.338 10209.337 1994.554 4848.300 8474.713 8193.269 11525.988 222.041 18935.080 10125.357 13392.839 6858.944 7791.837 1910.468 2762.141 7919.762 5613.778
5218.080 6770.337 3713.197 2602.780 2085.962 7560.012 3162.678 6839.300 11071.005 12686.197 11042.829 5937.129 7299.094 13819.708 13821.778 5726.705 12214.442 6449.983 15814.430 6151.094 6295.029 5631.826 3617.817 7034.159 7993.162 9694.557 12719.228 6943.654 8741.746 2169.416 5891.192 7001.915 7784.685 0.000 10444.406 14721.446 6432.221 12509.496 14091.318 2515.985 5364.044 7689.143 12773.136 3692.958 7909.356 2727.455 5622.291 9480.328 5513.018 5696.380 13274.974
8112.974 12303.678 8594.497 12135.443 9579.175 10602.225 10702.318 6008.102 9732.571 16348.035 2035.863 10480.374 10660.285 8808.338 6221.813 4739.239 3466.949 8288.866 10286.693 6784.123 10196.931 5059.392 7617.304 8849.206 11713.244 6453.443 16381.065 10611.001 12236.143 9715.075 9606.807 6244.908 10457.346 9676.274 0.000 20145.803 10885.838 12447.506 9419.806 8242.463 12264.574 10457.195 16434.973 7793.563 16361.599 12253.305 4843.654 10236.316 10196.178 4762.302 15038.319
12684.343 19170.309 13010.870 13855.042 12870.261 10069.475 11758.225 20370.114 13840.270 25086.169 21315.230 10075.545 10209.812 17427.210 20376.339 16834.385 22686.198 19980.797 18834.599 19681.909 10041.272 16742.882 17148.631 11652.869 8949.623 22603.252 25119.200 9482.852 21455.574 13473.322 10557.415 20532.729 10254.728 14287.616 20203.350 0.000 9743.901 11868.636 17205.837 15579.422 17764.016 10476.769 25173.108 17223.772 17921.220 12681.535 16729.970 12042.743 10450.628 16857.895 10311.389
3520.607 11648.813 4131.659 6289.501 4632.031 1665.497 3883.485 11931.018 6238.158 17564.673 12161.299 740.946 1404.579 9759.388 11351.117 7670.649 13522.462 11775.307 11646.049 11476.418 955.945 7579.145 8943.141 2613.503 1683.983 13439.516 17597.703 882.508 13863.089 5208.720 1407.585 12167.825 2030.973 6088.453 11049.418 9707.557 0.000 6387.511 10017.287 7286.683 10242.520 1988.510 17651.611 9018.282 12012.254 5170.109 7566.234 3779.695 1502.087 7694.159 7113.129
7811.150 17808.196 9431.918 12448.884 10786.362 5197.942 10042.868 15925.745 3769.089 23724.056 14376.175 6947.149 5658.859 6419.436 9650.397 11665.375 15935.924 16802.737 7826.825 16503.849 6479.781 11573.872 13736.541 5911.879 5484.310 17434.243 23757.086 5830.025 19465.695 11125.811 6901.999 16162.552 4982.724 12247.836 12611.221 11727.843 6702.820 0.000 6198.063 12076.618 16401.903 5179.291 23810.994 14008.706 18123.232 11477.843 11560.961 3364.014 7638.056 11688.886 3144.592
9690.988 19027.793 11081.028 15136.657 12479.268 9181.934 12666.656 14650.588 4382.896 24591.094 11219.029 10180.895 9605.399 796.290 4065.089 10706.330 12234.918 16901.248 1768.592 15426.609 9529.055 10614.827 13769.884 8150.724 10393.155 15786.286 24624.124 9823.166 19953.807 12623.022 9509.869 14887.394 8700.094 13551.461 9332.844 17203.887 10259.272 6198.102 0.000 13099.788 18065.375 8699.942 24678.032 14042.049 20979.442 14743.006 10601.915 6869.215 10346.473 10729.840 8195.207
4436.454 6481.858 3255.361 4202.696 3040.567 8000.648 4209.481 5257.424 10289.659 12494.714 8839.444 6620.641 7865.543 12628.658 12144.072 3522.746 10011.057 5144.796 14623.380 4845.907 6861.478 3427.867 2078.600 6682.064 8597.153 7686.463 12527.745 7510.103 7807.753 2702.087 6201.313 5499.060 8171.890 1615.820 8244.670 15528.036 7106.620 11964.551 12900.268 0.000 5554.404 8074.768 12581.652 2350.765 9094.293 4343.274 3418.332 8880.192 6051.018 3492.421 13690.841
9366.313 1851.662 7929.696 4131.494 6302.461 11404.061 6706.667 6824.437 15160.194 7815.193 12389.372 9781.178 11143.142 17558.517 17183.281 8481.972 13352.651 5687.051 19553.239 5937.637 10139.078 8387.092 4872.752 11123.348 11652.442 9669.603 7848.223 10787.703 3977.751 6484.408 9735.518 6987.052 11628.734 4855.952 12137.147 17859.700 10276.269 16353.545 17830.127 5601.627 0.000 11533.191 7902.131 4847.902 4552.068 5474.649 8377.557 13324.377 9357.067 8451.646 17119.023
3839.711 12804.513 5060.498 7445.201 5787.730 579.750 5039.185 12156.470 4403.306 18720.373 11759.166 1950.278 1040.667 8216.663 10121.460 7896.101 13332.291 12884.240 10103.324 12585.351 1476.098 7804.598 9818.044 1849.003 2134.635 13664.968 18753.403 1544.120 15018.789 6364.420 2143.448 12393.277 222.041 7244.153 10467.187 10425.491 1980.226 5038.594 8474.562 8158.121 11398.220 0.000 18807.311 10090.209 13265.070 6731.176 7791.686 1910.317 2634.373 7919.611 5804.072
16681.248 6431.437 15177.505 11379.303 13550.271 18651.870 13954.476 10483.077 22408.003 215.639 15471.831 17028.987 18390.952 24239.224 22563.905 14636.700 16427.720 8599.101 26233.946 9805.560 17386.887 14619.274 11027.816 18371.157 18900.251 11645.876 296.193 18035.512 4946.556 13732.218 16983.327 10438.502 18876.544 12412.224 16464.573 25107.509 17524.079 23601.354 24510.834 12646.913 7713.252 18781.001 0.000 10853.613 8684.327 12722.458 14609.739 20572.186 16604.876 14539.311 24366.832
6382.120 5462.775 5201.027 5307.108 4516.136 9946.314 5598.980 3479.223 12030.870 10882.720 8532.919 8367.303 9729.268 13628.730 12817.082 4103.659 9656.304 3090.820 15623.452 2791.018 8725.203 4008.779 325.551 8627.731 10423.336 6549.492 10915.750 9373.828 6245.433 4445.111 8146.979 3641.839 10117.556 2931.932 8078.010 17168.984 8862.395 13910.217 13900.340 2431.715 4847.799 10020.434 10969.658 0.000 8910.891 5659.386 3999.244 10825.858 7943.192 4073.333 15636.507
11763.318 4079.748 10258.435 6004.720 8690.146 13148.158 8579.893 10650.969 17033.420 8367.548 16323.715 11525.275 12887.240 20554.650 20958.224 12497.113 17286.993 8948.781 22441.310 9584.849 11883.175 12402.234 8962.854 12996.574 13188.866 13316.814 8400.579 12531.800 5654.077 8872.093 11608.744 10778.397 13372.832 8019.437 16227.250 17521.969 11992.559 18097.642 20812.548 9286.393 4289.154 13277.289 8454.486 8938.004 0.000 7187.717 12392.698 15068.475 11101.164 12466.788 18854.330
5702.509 7042.334 4197.626 1727.067 3082.314 6518.678 2204.202 9136.000 10805.806 12958.194 13166.779 4762.415 6257.759 14327.036 14993.993 8023.406 14338.391 8746.683 16213.696 8447.795 5339.734 7928.526 5914.517 6768.960 6496.676 11991.257 12991.225 5902.320 9327.599 3479.128 5381.130 9298.615 6743.351 3118.007 12568.356 12703.935 5129.012 11439.538 14584.934 4812.686 5636.041 6647.808 13045.132 5989.658 7395.705 0.000 7918.991 8438.994 4653.707 7993.080 12161.099
4323.932 8989.793 4204.750 7534.298 5189.428 8011.560 6312.571 4494.318 8707.176 14552.526 5539.306 7105.697 7914.053 10180.963 8915.996 104.415 6710.919 6711.946 12175.685 5270.339 6894.674 270.073 3731.884 6330.865 8703.983 6002.815 14585.557 7558.613 9915.239 5325.328 6232.131 4731.124 7939.005 4991.297 4944.532 16832.389 7511.162 11422.111 10452.573 3488.789 8374.817 7938.854 14639.464 4004.049 12437.908 7652.160 0.000 8528.992 6568.129 127.925 13339.642
4488.345 14521.558 6109.114 9261.245 7463.557 2392.309 6796.348 12602.940 2572.578 20437.418 12153.918 3766.322 2853.226 6385.935 8799.173 8342.571 13713.667 13479.932 8272.596 13181.044 3292.142 8251.067 10413.737 2583.493 3935.124 14111.438 20470.448 3360.164 16142.890 7803.006 3573.613 12839.747 1910.468 8950.244 10388.965 11930.942 3796.270 3362.889 6643.834 8753.813 13115.265 1910.317 20524.356 10685.901 15081.114 8547.220 8238.156 0.000 4450.417 8366.081 5809.930
3018.170 10445.986 3184.721 5190.778 3418.250 2349.091 2720.777 10911.650 6458.674 16361.847 11629.088 726.208 2088.173 9979.904 11209.603 6973.065 13020.024 10561.526 11866.564 10262.638 1084.108 6881.562 7729.360 2557.467 2817.233 12741.933 16394.877 1732.733 12660.262 3994.939 1080.624 11113.458 2573.765 4874.672 10517.208 10627.312 1221.300 7298.575 10237.802 6072.903 9039.693 2478.222 16448.785 7804.501 11033.563 4766.212 6868.651 4269.407 0.000 6996.576 8064.053
4451.857 9073.224 4332.675 7617.729 5317.353 8139.485 6440.496 4415.143 8835.101 14473.352 5459.116 7233.622 8041.978 10308.888 8835.807 111.554 6630.729 6632.771 12303.610 5191.164 7022.599 389.149 3815.315 6458.790 8831.907 5923.641 14506.382 7686.538 9836.064 5453.253 6360.056 4651.949 8066.930 5074.728 4864.342 16960.314 7639.087 11550.036 10580.498 3572.220 8458.248 8066.779 14560.290 4087.480 12521.339 7735.591 127.925 8656.917 6696.054 0.000 13467.566
9273.955 18255.286 10511.271 12895.974 11238.503 5645.032 10489.958 17424.874 6299.582 24171.146 16753.927 7394.239 6105.949 8566.060 12051.411 13164.505 18313.675 18301.866 9686.047 18002.978 6926.871 13073.001 15235.671 7270.387 5768.670 18933.372 24204.176 6277.115 20469.562 11815.193 7594.221 17661.681 5429.814 12694.925 14988.973 10516.302 7149.910 3062.548 8280.435 13575.747 16848.993 5626.381 24258.084 15507.835 18570.322 11924.933 13060.090 5686.307 8085.145 13188.015 0.000
NODE_COORD_SECTION
1 -2164.012052 1974.697434
2 -5087.277454 -6646.439595
3 -2131.163637 662.944799
4 -1659.138693 -3221.103177
5 -2036.193986 -634.850627
6 796.484039 3127.187234
7 -987.657983 -914.652342
8 -8606.806781 -1734.789608
9 -1364.297900 6831.993073
10 -9129.645538 -10709.052133
11 -10225.782234 3153.303468
12 347.156668 1598.076144
13 534.294528 2793.208664
14 -3512.534173 9758.414541
15 -6793.910415 9072.810546
16 -6006.083515 1392.104674
17 -11710.107948 3135.728816
18 -8387.132609 -3699.459739
19 -3862.635543 11399.423650
20 -8262.652509 -2553.647330
21 234.515358 2165.654220
22 -6007.185202 1235.217504
23 -5843.819927 -1976.669524
24 -822.402702 3225.294712
25 1821.905496 2533.759282
26 -11183.197788 -1187.245048
27 -8917.975132 -10707.813180
28 891.654407 2291.339450
29 -7079.513642 -7287.988299
30 -2292.616649 -584.260266
31 -286.878723 2027.185956
32 -8741.350582 -1871.962467
33 657.253962 3474.405007
34 -3136.090038 -1724.553617
35 -8888.298069 3918.577632
36 9005.475551 585.276842
37 734.742942 1742.838297
38 1588.028860 7466.188644
39 -3297.959726 9930.223062
40 -4229.306074 -1130.359347
41 -4028.447077 -5851.145743
42 489.515740 3424.398505
43 -9074.136494 -10858.903987
44 -5871.334584 -2136.001671
45 -2404.398160 -8692.474531
46 -723.909738 -2609.513868
47 -5950.893340 1341.938881
48 -185.354904 5033.426437
49 -120.703705 1337.463162
50 -6046.193160 1322.553059
51 3402.000850 7801.546696
DEMAND_SECTION
1 0
2 1
3 80
4 9
5 6
6 9
7 8
8 8
9 6
10 7
11 8
12 4
13 9
14 3
15 3
16 3
17 1
18 5
19 3
20 3
21 10
22 6
23 9
24 4
25 1
26 7
27 9
28 5
29 2
30 100
31 2
32 10
33 5
34 4
35 8
36 69
37 7
38 10
39 3
40 10
41 9
42 7
43 1
44 8
45 10
46 60
47 9
48 3
49 9
50 5
51 5
DEPOT_SECTION
1
-1
EOF
