NAME : poryos-hong_kong-n25-hyb
COMMENT : Poryos2026 fastest metric; city hong_kong; 3-decimal seconds/meters; ENU ref in poryos-hong_kong-n25-hyb.vrp.json
TYPE : CVRP
DIMENSION : 26
EDGE_WEIGHT_TYPE : EXPLICIT
EDGE_WEIGHT_FORMAT : FULL_MATRIX
CAPACITY : 131
EDGE_WEIGHT_SECTION
0.000 279.237 208.825 460.724 494.070 826.776 233.836 436.876 401.518 280.151 439.550 759.452 319.794 403.091 493.787 243.567 437.006 590.206 715.471 1076.666 457.982 203.994 643.074 412.594 263.987 423.385
280.753 0.000 126.645 302.461 405.377 830.422 141.513 278.613 243.255 326.655 355.106 601.189 66.449 244.828 335.524 113.013 278.742 756.484 762.635 1140.440 299.719 135.275 749.262 578.872 430.266 265.122
209.109 151.381 0.000 340.191 316.128 825.304 55.894 316.343 280.985 224.687 261.608 638.919 193.197 282.558 357.710 74.518 316.473 684.841 683.107 1060.102 337.449 26.052 737.709 507.229 358.622 302.852
460.164 323.245 311.710 0.000 336.167 959.806 326.579 43.813 171.899 511.721 340.505 384.539 365.062 179.636 266.314 298.079 213.550 935.896 947.700 1325.506 44.775 320.340 950.492 758.284 609.677 199.930
503.766 411.935 323.939 339.733 0.000 1119.961 330.467 315.886 236.061 476.209 191.090 638.461 453.751 236.233 162.809 313.481 183.974 978.447 871.418 1249.223 336.992 319.107 1032.366 801.886 647.698 170.354
836.979 851.872 842.945 951.893 1128.190 0.000 867.956 961.839 1005.670 965.260 1073.670 1157.438 893.689 1007.244 1097.940 875.428 1041.158 1186.956 1437.688 1802.518 982.790 838.113 1160.959 1002.858 939.268 1027.538
249.857 176.455 59.447 365.265 325.807 866.052 0.000 341.417 306.059 247.620 271.287 663.993 218.271 307.632 367.389 78.001 341.547 725.589 688.573 1066.379 362.523 60.192 778.457 547.977 399.370 327.926
461.429 324.510 312.976 48.189 337.433 940.334 327.844 0.000 173.165 512.986 341.770 365.068 366.327 180.901 267.580 299.344 214.815 937.161 948.966 1326.771 49.722 321.606 931.021 759.549 610.942 201.195
400.890 263.971 252.436 207.362 236.905 993.314 267.305 183.515 0.000 452.447 254.474 506.091 305.788 69.551 159.158 238.805 110.270 876.622 888.426 1266.232 204.621 261.066 912.155 699.010 550.403 96.650
290.806 358.815 240.721 547.625 500.368 962.659 265.732 523.778 488.419 0.000 445.848 846.353 400.632 489.993 541.950 281.154 520.102 643.412 585.996 910.014 544.883 235.890 708.431 478.679 312.662 506.482
466.371 374.539 286.543 382.648 208.256 1082.566 293.071 358.801 280.077 438.814 0.000 681.377 416.356 276.649 226.932 276.085 227.990 941.052 834.023 1211.828 379.907 281.712 994.970 764.491 610.302 214.370
781.809 644.890 633.355 356.963 657.812 1133.531 648.223 366.910 493.544 833.366 662.149 0.000 686.706 501.280 587.959 619.723 535.194 1150.213 1269.345 1647.150 387.860 641.985 1124.217 966.116 905.760 521.574
301.875 70.600 153.569 360.026 436.550 887.987 168.437 336.178 300.820 353.579 382.030 658.754 0.000 302.393 393.089 139.937 336.307 777.606 789.559 1167.364 357.284 162.199 806.827 599.994 451.388 322.687
387.905 250.986 239.451 186.809 234.035 980.329 254.319 162.962 51.329 439.462 249.979 485.537 292.802 0.000 171.253 225.819 114.650 863.636 875.441 1253.246 184.067 248.081 899.169 686.024 537.418 101.030
504.389 367.470 355.935 305.199 187.668 1096.813 370.804 281.351 165.750 517.938 228.639 603.927 409.287 185.829 0.000 342.304 106.427 980.121 913.146 1290.951 302.457 360.836 1015.654 802.509 653.902 92.807
238.557 124.262 54.123 311.863 320.425 853.605 68.992 288.015 252.657 254.134 265.905 610.591 166.079 254.230 344.926 0.000 288.145 714.288 673.433 1051.239 309.121 62.753 767.156 536.676 388.070 274.524
430.027 293.108 281.573 236.500 187.116 1022.451 296.442 212.652 103.960 481.584 211.909 535.228 334.925 111.468 108.088 267.942 0.000 905.759 892.237 1270.042 233.758 290.203 941.292 728.147 579.540 31.017
593.380 754.948 684.536 936.434 969.781 1172.727 709.547 912.587 877.229 694.415 915.261 1162.354 795.505 878.802 969.498 719.278 912.716 0.000 1046.214 894.354 933.693 679.705 564.270 403.815 407.305 899.096
722.861 790.712 676.790 979.522 888.170 1429.325 697.470 955.675 920.316 572.293 833.650 1278.251 832.529 921.890 929.752 692.258 907.904 1064.291 0.000 805.280 976.781 671.959 1133.977 904.225 738.208 894.284
1071.327 1148.584 1032.498 1337.394 1246.042 1774.679 1053.177 1313.547 1278.188 875.554 1191.522 1636.122 1190.401 1279.762 1287.624 1050.130 1265.776 1298.312 797.914 0.000 1334.653 1027.666 1387.450 1164.379 999.658 1252.156
449.883 312.964 301.429 81.605 329.904 973.750 316.298 57.757 161.618 501.440 338.624 398.483 354.780 169.354 260.051 287.797 203.269 925.615 937.419 1315.224 0.000 310.059 961.147 748.003 599.396 189.648
205.773 141.078 25.946 329.888 290.076 821.968 42.398 306.040 270.682 200.760 235.556 628.616 182.894 272.255 331.659 62.342 306.170 681.505 657.055 1034.050 327.146 0.000 734.372 503.893 355.286 292.549
624.336 736.393 715.492 894.537 1000.737 1110.456 740.503 904.484 890.190 737.897 946.217 1100.082 778.209 891.764 982.460 750.234 925.678 509.169 1111.704 1093.486 925.434 710.661 0.000 426.666 427.720 912.058
413.378 574.945 504.534 756.432 789.779 998.196 529.545 732.585 697.226 519.284 735.259 987.823 615.503 698.800 789.496 539.276 732.714 398.591 893.090 1142.975 753.691 499.703 450.077 0.000 209.107 719.094
273.629 435.197 364.785 616.683 619.348 907.264 389.796 592.836 557.478 341.613 564.828 899.225 475.754 559.051 649.747 399.527 592.965 385.218 715.419 995.571 613.942 359.954 438.849 209.097 0.000 579.345
417.034 280.115 268.580 223.506 185.807 1009.458 283.449 199.659 72.943 468.591 210.600 522.235 321.932 98.474 106.779 254.949 13.620 892.766 890.928 1268.733 220.765 277.210 928.299 715.154 566.547 0.000
NODE_COORD_SECTION
1 1438.942575 -1211.855723
2 2854.090999 -5289.485434
3 1064.730310 -4565.508184
4 4135.942078 -6886.538572
5 -1291.427586 -7534.520196
6 11628.232688 3269.857197
7 923.626381 -4613.631347
8 4060.200084 -6650.307221
9 1650.430894 -8323.731675
10 -2096.642136 -1536.455502
11 -3269.283285 -7706.210746
12 9158.652102 -10012.655047
13 3141.704469 -5482.583833
14 1591.151434 -7826.520165
15 -640.676540 -8525.795925
16 1223.021177 -5454.771332
17 406.870232 -8091.660322
18 3895.017294 7567.627211
19 -10047.765793 98.291207
20 -7824.829985 10307.260476
21 3725.391552 -7028.847295
22 787.775746 -4445.289215
23 9396.927948 8593.772059
24 3941.763288 2088.584272
25 1773.235849 2432.926155
26 387.033116 -8158.699173
DEMAND_SECTION
1 0
2 7
3 100
4 8
5 4
6 3
7 7
8 7
9 7
10 8
11 1
12 76
13 3
14 5
15 1
16 7
17 55
18 3
19 93
20 2
21 5
22 10
23 5
24 8
25 2
26 2
DEPOT_SECTION
1
-1
EOF
