NAME : poryos-lyon-n50-hyb
COMMENT : Poryos2026 euclidean metric; city lyon; 3-decimal seconds/meters; ENU ref in poryos-lyon-n50-hyb.vrp.json
TYPE : CVRP
DIMENSION : 51
EDGE_WEIGHT_TYPE : EXPLICIT
EDGE_WEIGHT_FORMAT : FULL_MATRIX
CAPACITY : 159
EDGE_WEIGHT_SECTION
0.000 2640.162 5651.978 1152.647 3596.820 4489.698 556.791 935.619 3320.367 2674.529 1297.337 2808.090 627.744 3359.952 3296.008 4389.494 1708.251 3872.481 968.368 1070.803 6034.489 3393.976 3327.766 1206.801 4398.729 5179.159 937.068 2707.702 2518.768 1211.954 3811.170 3041.493 2180.310 6378.334 2995.769 3223.696 4451.505 2640.217 4025.101 1852.952 2477.509 2721.838 5488.368 4823.143 5947.027 3766.013 1035.142 1062.666 3653.013 6427.056 1491.999
2640.162 0.000 8238.346 2438.443 6236.953 6317.723 3052.832 3439.170 5720.670 2135.710 3921.584 5329.266 3076.221 4481.673 3221.731 5968.801 2270.321 5997.950 3530.401 3669.870 5603.654 2997.418 958.470 1565.502 4708.651 3524.706 3143.168 3476.103 4999.431 3408.586 5456.494 4406.313 3749.439 8951.244 4002.647 3986.706 3139.970 4885.180 3532.846 2939.369 3097.527 2553.843 3861.485 4131.417 3734.900 4041.621 2625.448 3310.266 2243.319 4139.907 4118.811
5651.978 8238.346 0.000 5937.107 2318.327 3897.626 5188.524 5105.517 2728.111 7319.032 4357.035 2927.160 5413.957 6971.069 8151.612 6534.871 6380.709 5056.768 4713.416 4788.056 8828.234 7438.095 8749.215 6683.259 6932.170 10583.286 5562.825 6046.389 3275.788 4891.813 4445.525 6536.393 6139.892 740.480 5705.840 6049.098 8857.677 4835.586 7798.920 6635.800 6232.570 7030.603 10854.102 9688.046 11542.819 6791.817 5712.362 5444.484 9117.860 12038.511 4166.029
1152.647 2438.443 5937.107 0.000 4174.178 3950.441 1063.074 2013.320 3318.381 1638.087 1903.194 3011.901 1763.499 4475.656 4155.254 5541.957 596.878 4968.562 1449.215 2028.301 4881.933 2264.092 2815.730 941.079 3282.644 5604.988 2089.541 1612.077 2661.326 1047.763 3140.912 4177.990 3318.958 6625.137 1986.709 2155.166 3423.578 3730.523 2886.076 2887.765 1341.577 1601.667 5934.318 5580.976 6108.136 2632.498 233.661 2210.089 4102.721 6543.176 2082.601
3596.820 6236.953 2318.327 4174.178 0.000 3937.897 3232.799 2900.420 1952.780 5747.096 2333.916 1522.625 3239.432 4678.544 5838.626 4426.533 4715.901 2995.810 2765.695 2609.523 8088.812 6105.438 6878.131 4745.104 6143.538 8307.768 3329.658 4813.714 1820.978 3166.677 4003.703 4239.017 3821.860 3050.959 4655.542 5018.636 7461.554 2543.903 6599.043 4342.258 4873.949 5563.001 8569.465 7370.134 9332.294 5789.734 3940.643 3195.867 6870.298 9837.651 2137.620
4489.698 6317.723 3897.626 3950.441 3937.897 0.000 3945.168 4644.147 2014.142 4604.150 3715.695 2642.340 4722.384 7419.152 7770.386 7820.550 4052.479 6605.747 3686.670 4360.376 5028.365 4317.081 6426.950 4891.511 3253.292 9540.304 5063.014 3049.207 2584.448 3279.798 907.226 7001.224 6238.156 4272.702 2531.774 2758.908 5669.470 5661.136 4456.307 6244.215 3387.148 4187.808 9865.649 9312.031 10039.147 3336.378 3824.962 5057.687 8023.209 10456.924 3657.739
556.791 3052.832 5188.524 1063.074 3232.799 3945.168 0.000 1023.282 2781.306 2698.736 900.752 2301.657 887.047 3743.406 3827.954 4628.556 1659.612 3939.500 478.099 975.422 5830.360 3303.258 3645.784 1518.069 4098.036 5731.677 1255.566 2412.589 1994.803 685.622 3292.056 3388.860 2536.718 5906.347 2621.166 2888.058 4486.034 2704.913 3909.582 2337.406 2246.729 2653.211 6042.367 5367.528 6470.638 3502.413 858.973 1324.659 4204.518 6944.211 1095.587
935.619 3439.170 5105.517 2013.320 2900.420 4644.147 1023.282 0.000 3112.366 3597.178 954.359 2481.317 363.090 2818.084 3251.102 3607.826 2599.274 2957.315 999.493 332.218 6848.830 4277.407 4203.117 2121.961 5118.840 5497.640 476.405 3435.610 2284.259 1612.787 4108.941 2431.520 1611.758 5844.568 3625.773 3904.392 5380.250 1719.801 4897.299 1671.542 3265.006 3612.790 5781.132 4829.648 6444.798 4525.637 1842.814 418.818 4014.539 6945.958 1076.081
3320.367 5720.670 2728.111 3318.381 1952.780 2014.142 2781.306 3112.366 0.000 4603.729 2170.918 695.484 3309.261 5693.910 6363.259 5901.241 3702.578 4623.533 2359.056 2786.299 6322.010 4714.425 6124.745 4157.786 4378.415 8489.277 3582.472 3326.889 829.956 2312.262 2071.986 5256.826 4582.676 3361.428 3021.731 3376.875 6132.208 3766.624 5098.530 4783.899 3504.524 4304.360 8792.325 7941.446 9248.998 4140.214 3109.020 3525.227 6967.377 9717.922 2036.504
2674.529 2135.710 7319.032 1638.087 5747.096 4604.150 2698.736 3597.178 4603.729 0.000 3532.386 4453.398 3301.411 5731.513 4962.589 6975.525 1048.973 6546.916 3079.674 3651.298 3652.162 909.196 1883.650 1691.564 2573.013 5660.322 3576.006 1560.002 4094.631 2581.139 3698.921 5507.082 4681.025 7965.138 2094.705 1973.747 1789.060 5313.198 1525.706 4068.274 1219.464 448.377 5996.990 6135.003 5749.421 1910.076 1858.202 3720.549 4334.592 6096.004 3705.236
1297.337 3921.584 4357.035 1903.194 2333.916 3715.695 900.752 954.359 2170.918 3532.386 0.000 1571.693 1142.178 3706.912 4196.779 4289.807 2483.421 3363.549 453.984 647.421 6412.482 4045.661 4544.356 2411.555 4571.293 6356.987 1415.335 2960.553 1340.968 1048.378 3240.401 3296.044 2522.821 5085.860 3023.642 3346.449 5304.744 2186.715 4617.891 2620.507 2887.624 3428.815 6652.011 5773.594 7211.090 4048.101 1676.126 1372.914 4847.697 7698.908 197.498
2808.090 5329.266 2927.160 3011.901 1522.625 2642.340 2301.657 2481.317 695.484 4453.398 1571.693 0.000 2711.183 5003.650 5726.838 5215.372 3475.814 3964.235 1841.755 2150.235 6570.406 4697.444 5822.140 3767.099 4623.434 7928.211 2956.756 3355.821 358.793 1965.239 2535.915 4565.336 3905.020 3626.329 3153.051 3516.683 6090.257 3074.189 5150.364 4146.901 3461.962 4209.560 8223.701 7305.617 8754.622 4289.792 2785.882 2885.637 6416.459 9235.047 1412.721
627.744 3076.221 5413.957 1763.499 3239.432 4722.384 887.047 363.090 3309.261 3301.411 1142.178 2711.183 0.000 2856.679 3079.859 3787.913 2331.934 3246.528 1036.060 631.606 6636.791 4017.482 3843.180 1776.839 4957.145 5224.389 368.812 3264.844 2480.100 1551.285 4129.025 2503.433 1649.731 6150.990 3502.644 3758.793 5075.395 2017.136 4646.032 1523.756 3062.721 3346.652 5515.695 4650.389 6128.944 4342.012 1619.268 452.070 3724.660 6626.089 1300.906
3359.952 4481.673 6971.069 4475.656 4678.544 7419.152 3743.406 2818.084 5693.910 5731.513 3706.912 5003.650 2856.679 0.000 1794.762 1581.716 4954.452 2365.414 3817.084 3069.586 9308.488 6579.175 5439.214 4040.848 7753.113 4394.347 2487.926 6065.569 4915.005 4401.410 6924.598 444.753 1210.918 7683.653 6346.505 6583.419 7346.222 2136.696 7221.078 1664.666 5817.145 5912.771 4550.509 2945.864 5777.573 7108.154 4390.420 2435.499 3425.894 6292.209 3762.966
3296.008 3221.731 8151.612 4155.254 5838.626 7770.386 3827.954 3251.102 6363.259 4962.589 4196.779 5726.838 3079.859 1794.762 0.000 3353.463 4462.246 4067.838 4105.741 3579.171 8612.581 5868.502 4149.355 3408.801 7333.161 2647.595 2781.691 5739.551 5534.445 4505.319 7106.869 2016.739 2036.605 8887.998 6141.963 6292.968 6326.637 3477.793 6486.193 1580.260 5416.480 5258.044 2843.465 1578.887 3988.343 6650.892 4165.219 2841.473 1661.148 4505.226 4327.183
4389.494 5968.801 6534.871 5541.957 4426.533 7820.550 4628.556 3607.826 5901.241 6975.525 4289.807 5215.372 3787.913 1581.716 3353.463 0.000 6086.464 1478.973 4546.154 3746.131 10422.727 7764.182 6917.651 5301.990 8726.332 5877.423 3452.447 7040.152 5236.105 5199.808 7490.041 1562.747 2304.911 7188.500 7227.478 7511.837 8676.056 2161.289 8401.887 3043.020 6850.339 7089.483 5998.140 4272.706 7303.861 8125.441 5407.026 3336.466 5001.388 7812.317 4272.927
1708.251 2270.321 6380.709 596.878 4715.901 4052.479 1659.612 2599.274 3702.578 1048.973 2483.421 3475.814 2331.934 4954.452 4462.246 6086.464 0.000 5556.531 2030.741 2624.516 4359.238 1685.798 2451.559 1061.505 2876.111 5646.468 2640.240 1310.494 3118.473 1551.695 3186.221 4682.078 3830.588 7050.101 1790.721 1863.236 2829.083 4318.747 2317.812 3324.573 960.630 1015.117 5981.575 5806.654 6003.191 2199.783 810.191 2770.809 4189.827 6409.578 2656.904
3872.481 5997.950 5056.768 4968.562 2995.810 6605.747 3939.500 2957.315 4623.533 6546.916 3363.549 3964.235 3246.528 2365.414 4067.838 1478.973 5556.531 0.000 3719.861 2968.782 9746.785 7231.852 6890.713 4982.082 7932.904 6712.817 3002.074 6296.722 4049.835 4382.294 6387.616 2054.278 2314.935 5709.922 6387.152 6707.015 8321.474 1238.041 7846.491 3149.507 6174.880 6569.479 6890.617 5309.756 8034.061 7391.553 4788.719 2844.989 5578.760 8554.253 3289.214
968.368 3530.401 4713.416 1449.215 2765.695 3686.670 478.099 999.493 2359.056 3079.674 453.984 1841.755 1036.060 3817.084 4105.741 4546.154 2030.741 3719.861 0.000 800.110 6029.171 3609.983 4117.383 1994.601 4223.161 6130.852 1379.773 2577.134 1550.988 665.224 3114.840 3430.214 2608.970 5433.298 2693.044 2997.496 4854.709 2509.328 4191.986 2559.439 2474.855 2984.764 6435.453 5668.680 6915.027 3671.698 1222.523 1391.903 4608.327 7393.780 637.729
1070.803 3669.870 4788.056 2028.301 2609.523 4360.376 975.422 332.218 2786.299 3651.298 647.421 2150.235 631.606 3069.586 3579.171 3746.131 2624.516 2968.782 800.110 0.000 6784.615 4278.445 4394.250 2277.420 5008.249 5825.504 808.617 3343.798 1960.009 1457.083 3859.837 2666.173 1878.035 5526.150 3487.858 3784.859 5440.302 1739.289 4884.556 1998.962 3206.999 3625.995 6110.514 5158.004 6756.512 4439.309 1832.890 738.929 4337.568 7255.132 750.432
6034.489 5603.654 8828.234 4881.933 8088.812 5028.365 5830.360 6848.830 6322.010 3652.162 6412.482 6570.406 6636.791 9308.488 8612.581 10422.727 4359.238 9746.785 6029.171 6784.615 0.000 2754.429 4943.340 5296.153 1949.041 9000.349 6970.991 3453.470 6271.091 5371.647 4382.846 9041.275 8188.464 9277.762 3457.520 3103.080 2672.063 8523.724 2126.735 7662.483 3583.998 3403.254 9325.597 9722.761 8706.800 2365.605 5018.137 7087.157 7845.178 8918.066 6522.178
3393.976 2997.418 7438.095 2264.092 6105.438 4317.081 3303.258 4277.407 4714.425 909.196 4045.661 4697.444 4017.482 6579.175 5868.502 7764.182 1685.798 7231.852 3609.983 4278.445 2754.429 0.000 2574.893 2547.586 1770.291 6509.153 4324.250 1394.642 4346.641 3017.066 3420.184 6332.498 5490.940 8037.232 1818.354 1558.210 1421.380 5993.912 642.087 4923.212 1236.235 674.701 6844.211 7040.282 6493.160 1179.251 2446.119 4456.397 5222.083 6804.553 4196.517
3327.766 958.470 8749.215 2815.730 6878.131 6426.950 3645.784 4203.117 6124.745 1883.650 4544.356 5822.140 3843.180 5439.214 4149.355 6917.651 2451.559 6890.713 4117.383 4394.250 4943.340 2574.893 0.000 2136.583 4345.062 4057.011 3964.854 3419.789 5474.601 3857.634 5531.077 5356.264 4677.159 9440.549 3959.691 3857.090 2344.042 5744.414 2993.241 3880.169 3056.170 2331.383 4382.817 4931.088 3918.560 3727.479 3037.494 4132.404 2994.193 4235.071 4740.512
1206.801 1565.502 6683.259 941.079 4745.104 4891.511 1518.069 2121.961 4157.786 1691.564 2411.555 3767.099 1776.839 4040.848 3408.801 5301.990 1061.505 4982.082 1994.601 2277.420 5296.153 2547.586 2136.583 0.000 3924.394 4671.920 1980.154 2365.525 3434.791 1845.734 4076.676 3817.567 2999.919 7391.897 2820.218 2920.278 3380.592 3772.905 3187.509 2379.221 2022.038 1894.003 5002.936 4747.123 5175.377 3242.268 1089.692 2139.398 3180.760 5617.515 2608.458
4398.729 4708.651 6932.170 3282.644 6143.538 3253.292 4098.036 5118.840 4378.415 2573.013 4571.293 4623.434 4957.145 7753.113 7333.161 8726.332 2876.111 7932.904 4223.161 5008.249 1949.041 1770.291 4345.062 3924.394 0.000 8233.323 5312.976 1693.008 4328.865 3557.938 2503.452 7439.837 6578.598 7418.621 1553.993 1226.232 2719.028 6732.282 1502.196 6167.154 1945.264 2165.934 8570.003 8627.496 8262.944 686.103 3364.291 5407.793 6887.641 8573.942 4661.979
5179.159 3524.706 10583.286 5604.988 8307.768 9540.304 5731.677 5497.640 8489.277 5660.322 6356.987 7928.211 5224.389 4394.347 2647.595 5877.423 5646.468 6712.817 6130.852 5825.504 9000.349 6509.153 4057.011 4671.920 8233.323 0.000 5029.137 6931.296 7671.983 6321.734 8745.896 4658.950 4621.252 11323.763 7434.883 7464.747 6376.088 6084.538 7008.671 3971.520 6557.425 6076.106 337.371 1794.432 1497.129 7565.420 5716.193 5140.400 1528.059 1969.571 6524.164
937.068 3143.168 5562.825 2089.541 3329.658 5063.014 1255.566 476.405 3582.472 3576.006 1415.335 2956.756 368.812 2487.926 2781.691 3452.447 2640.240 3002.074 1379.773 808.617 6970.991 4324.250 3964.854 1980.154 5312.976 5029.137 0.000 3619.994 2753.143 1918.680 4487.080 2137.613 1281.824 6302.744 3867.986 4119.831 5332.765 1798.345 4958.051 1205.708 3406.830 3650.495 5309.943 4359.196 6003.003 4691.183 1961.255 167.747 3555.259 6507.997 1548.346
2707.702 3476.103 6046.389 1612.077 4813.714 3049.207 2412.589 3435.610 3326.889 1560.002 2960.553 3355.821 3264.844 6065.569 5739.551 7040.152 1310.494 6296.722 2577.134 3343.798 3453.470 1394.642 3419.789 2365.525 1693.008 6931.296 3619.994 0.000 3014.828 1918.184 2142.416 5747.782 4886.601 6642.594 540.209 555.247 2816.018 5079.596 1794.599 4498.310 378.607 1138.710 7267.687 7112.478 7195.945 1095.728 1675.182 3715.923 5492.531 7573.286 3076.359
2518.768 4999.431 3275.788 2661.326 1820.978 2584.448 1994.803 2284.259 829.956 4094.631 1340.968 358.793 2480.100 4915.005 5534.445 5236.105 3118.473 4049.835 1550.988 1960.009 6271.091 4346.641 5474.601 3434.791 4328.865 7671.983 2753.143 3014.828 0.000 1617.096 2358.680 4483.421 3779.834 3967.726 2834.856 3198.125 5735.758 3077.205 4808.295 3955.666 3110.559 3852.665 7972.519 7112.319 8462.917 3969.855 2437.159 2698.607 6153.304 8938.525 1209.578
1211.954 3408.586 4891.813 1047.763 3166.677 3279.798 685.622 1612.787 2312.262 2581.139 1048.378 1965.239 1551.285 4401.410 4505.319 5199.808 1551.695 4382.294 665.224 1457.083 5371.647 3017.066 3857.634 1845.734 3557.938 6321.734 1918.680 1918.184 1617.096 0.000 2607.381 4032.545 3190.872 5584.350 2030.798 2332.335 4318.271 3174.496 3576.322 3023.015 1840.629 2423.722 6639.251 6034.832 6975.526 3010.696 820.645 1967.243 4794.501 7433.237 1183.384
3811.170 5456.494 4445.525 3140.912 4003.703 907.226 3292.056 4108.941 2071.986 3698.921 3240.401 2535.915 4129.025 6924.598 7106.869 7490.041 3186.221 6387.616 3114.840 3859.837 4382.846 3420.184 5531.077 4076.676 2503.452 8745.896 4487.080 2142.416 2358.680 2607.381 0.000 6525.937 5720.687 4915.587 1625.178 1864.375 4788.858 5337.287 3592.348 5627.482 2483.794 3280.852 9075.114 8619.164 9187.589 2486.759 3041.003 4506.732 7240.818 9595.677 3226.639
3041.493 4406.313 6536.393 4177.990 4239.017 7001.224 3388.860 2431.520 5256.826 5507.082 3296.044 4565.336 2503.433 444.753 2016.739 1562.747 4682.078 2054.278 3430.214 2666.173 9041.275 6332.498 5356.264 3817.567 7439.837 4658.950 2137.613 5747.782 4483.421 4032.545 6525.937 0.000 861.242 7251.746 6005.562 6255.051 7166.444 1700.829 6974.282 1490.996 5515.493 5660.949 4837.292 3303.990 5997.220 6805.840 4076.584 2067.222 3579.063 6515.968 3343.486
2180.310 3749.439 6139.892 3318.958 3821.860 6238.156 2536.718 1611.758 4582.676 4681.025 2522.821 3905.020 1649.731 1210.918 2036.605 2304.911 3830.588 2314.935 2608.970 1878.035 8188.464 5490.940 4677.159 2999.919 6578.598 4621.252 1281.824 4886.601 3779.834 3190.872 5720.687 861.242 0.000 6872.472 5148.555 5394.992 6371.209 1464.501 6131.875 836.634 4655.155 4817.640 4848.461 3548.284 5832.478 5945.186 3215.432 1224.581 3337.585 6353.082 2596.318
6378.334 8951.244 740.480 6625.137 3050.959 4272.702 5906.347 5844.568 3361.428 7965.138 5085.860 3626.329 6150.990 7683.653 8887.998 7188.500 7050.101 5709.922 5433.298 5526.150 9277.762 8037.232 9440.549 7391.897 7418.621 11323.763 6302.744 6642.594 3967.726 5584.350 4915.587 7251.746 6872.472 0.000 6271.779 6604.542 9458.611 5551.525 8366.866 7375.476 6850.082 7659.827 11594.494 10420.715 12279.322 7329.096 6403.408 6184.836 9857.583 12773.924 4896.305
2995.769 4002.647 5705.840 1986.709 4655.542 2531.774 2621.166 3625.773 3021.731 2094.705 3023.642 3153.051 3502.644 6346.505 6141.963 7227.478 1790.721 6387.152 2693.044 3487.858 3457.520 1818.354 3959.691 2820.218 1553.993 7434.883 3867.986 540.209 2834.856 2030.798 1625.178 6005.562 5148.555 6271.779 0.000 363.641 3221.413 5196.302 2095.519 4830.908 912.924 1664.491 7770.466 7552.931 7728.462 1136.792 1997.244 3945.550 5979.703 8109.467 3109.450
3223.696 3986.706 6049.098 2155.166 5018.636 2758.908 2888.058 3904.392 3376.875 1973.747 3346.449 3516.683 3758.793 6583.419 6292.968 7511.837 1863.236 6707.015 2997.496 3784.859 3103.080 1558.210 3857.090 2920.278 1226.232 7464.747 4119.831 555.247 3198.125 2332.335 1864.375 6255.051 5394.992 6604.542 363.641 0.000 2930.073 5506.338 1766.805 5034.570 911.568 1527.456 7801.600 7667.371 7687.567 773.242 2200.494 4206.737 6036.838 8051.952 3440.895
4451.505 3139.970 8857.677 3423.578 7461.554 5669.470 4486.034 5380.250 6132.208 1789.060 5304.744 6090.257 5075.395 7346.222 6326.637 8676.056 2829.083 8321.474 4854.709 5440.302 2672.063 1421.380 2344.042 3380.592 2719.028 6376.088 5332.765 2816.018 5735.758 4318.271 4788.858 7166.444 6371.209 9458.611 3221.413 2930.073 0.000 7091.605 1243.785 5689.120 2635.465 1898.917 6695.063 7252.514 6034.830 2361.718 3638.798 5483.107 5326.624 6253.098 5471.572
2640.217 4885.180 4835.586 3730.523 2543.903 5661.136 2704.913 1719.801 3766.624 5313.198 2186.715 3074.189 2017.136 2136.696 3477.793 2161.289 4318.747 1238.041 2509.328 1739.289 8523.724 5993.912 5744.414 3772.905 6732.282 6084.538 1798.345 5079.596 3077.205 3174.496 5337.287 1700.829 1464.501 5551.525 5196.302 5506.338 7091.605 0.000 6609.418 2213.685 4945.790 5331.475 6307.403 4928.693 7288.138 6175.318 3551.542 1635.207 4788.289 7808.053 2142.243
4025.101 3532.846 7798.920 2886.076 6599.043 4456.307 3909.582 4897.299 5098.530 1525.706 4617.891 5150.364 4646.032 7221.078 6486.193 8401.887 2317.812 7846.491 4191.986 4884.556 2126.735 642.087 2993.241 3187.509 1502.196 7008.671 4958.051 1794.599 4808.295 3576.322 3592.348 6974.282 6131.875 8366.866 2095.519 1766.805 1243.785 6609.418 0.000 5564.441 1743.754 1314.273 7340.846 7622.027 6891.101 1125.784 3057.877 5087.744 5773.560 7170.081 4759.706
1852.952 2939.369 6635.800 2887.765 4342.258 6244.215 2337.406 1671.542 4783.899 4068.274 2620.507 4146.901 1523.756 1664.666 1580.260 3043.020 3324.573 3149.507 2559.439 1998.962 7662.483 4923.212 3880.169 2379.221 6167.154 3971.520 1205.708 4498.310 3955.666 3023.015 5627.482 1490.996 836.634 7375.476 4830.908 5034.570 5689.120 2213.685 5564.441 0.000 4222.078 4260.933 4227.752 3159.141 5093.249 5506.835 2836.992 1261.310 2592.202 5611.128 2747.488
2477.509 3097.527 6232.570 1341.577 4873.949 3387.148 2246.729 3265.006 3504.524 1219.464 2887.624 3461.962 3062.721 5817.145 5416.480 6850.339 960.630 6174.880 2474.855 3206.999 3583.998 1236.235 3056.170 2022.038 1945.264 6557.425 3406.830 378.607 3110.559 1840.629 2483.794 5515.493 4655.155 6850.082 912.924 911.568 2635.465 4945.790 1743.754 4222.078 0.000 829.443 6894.028 6766.763 6817.944 1291.178 1445.578 3514.606 5125.318 7196.822 3022.485
2721.838 2553.843 7030.603 1601.667 5563.001 4187.808 2653.211 3612.790 4304.360 448.377 3428.815 4209.560 3346.652 5912.771 5258.044 7089.483 1015.117 6569.479 2984.764 3625.995 3403.254 674.701 2331.383 1894.003 2165.934 6076.106 3650.495 1138.710 3852.665 2423.722 3280.852 5660.949 4817.640 7659.827 1664.491 1527.456 1898.917 5331.475 1314.273 4260.933 829.443 0.000 6413.248 6486.302 6193.986 1490.194 1794.253 3783.766 4722.284 6543.366 3588.742
5488.368 3861.485 10854.102 5934.318 8569.465 9865.649 6042.367 5781.132 8792.325 5996.990 6652.011 8223.701 5515.695 4550.509 2843.465 5998.140 5981.575 6890.617 6435.453 6110.514 9325.597 6844.211 4382.817 5002.936 8570.003 337.371 5309.943 7267.687 7972.519 6639.251 9075.114 4837.292 4848.461 11594.494 7770.466 7801.600 6695.063 6307.403 7340.846 4227.752 6894.028 6413.248 0.000 1808.923 1536.594 7902.458 6042.723 5416.555 1845.370 1957.286 6816.484
4823.143 4131.417 9688.046 5580.976 7370.134 9312.031 5367.528 4829.648 7941.446 6135.003 5773.594 7305.617 4650.389 2945.864 1578.887 4272.706 5806.654 5309.756 5668.680 5158.004 9722.761 7040.282 4931.088 4747.123 8627.496 1794.432 4359.196 7112.478 7112.319 6034.832 8619.164 3303.990 3548.284 10420.715 7552.931 7667.371 7252.514 4928.693 7622.027 3159.141 6766.763 6486.302 1808.923 0.000 3290.732 7941.456 5621.922 4420.355 1941.793 3749.936 5905.700
5947.027 3734.900 11542.819 6108.136 9332.294 10039.147 6470.638 6444.798 9248.998 5749.421 7211.090 8754.622 6128.944 5777.573 3988.343 7303.861 6003.191 8034.061 6915.027 6756.512 8706.800 6493.160 3918.560 5175.377 8262.944 1497.129 6003.003 7195.945 8462.917 6975.526 9187.589 5997.220 5832.478 12279.322 7728.462 7687.567 6034.830 7288.138 6891.101 5093.249 6817.944 6193.986 1536.594 3290.732 0.000 7636.500 6264.559 6137.313 2501.689 521.076 7394.298
3766.013 4041.621 6791.817 2632.498 5789.734 3336.378 3502.413 4525.637 4140.214 1910.076 4048.101 4289.792 4342.012 7108.154 6650.892 8125.441 2199.783 7391.553 3671.698 4439.309 2365.605 1179.251 3727.479 3242.268 686.103 7565.420 4691.183 1095.728 3969.855 3010.696 2486.759 6805.840 5945.186 7329.096 1136.792 773.242 2361.718 6175.318 1125.784 5506.835 1291.178 1490.194 7902.458 7941.456 7636.500 0.000 2731.646 4794.020 6207.474 7962.548 4156.573
1035.142 2625.448 5712.362 233.661 3940.643 3824.962 858.973 1842.814 3109.020 1858.202 1676.126 2785.882 1619.268 4390.420 4165.219 5407.026 810.191 4788.719 1222.523 1832.890 5018.137 2446.119 3037.494 1089.692 3364.291 5716.193 1961.255 1675.182 2437.159 820.645 3041.003 4076.584 3215.432 6403.408 1997.244 2200.494 3638.798 3551.542 3057.877 2836.992 1445.578 1794.253 6042.723 5621.922 6264.559 2731.646 0.000 2070.573 4203.305 6707.066 1853.268
1062.666 3310.266 5444.484 2210.089 3195.867 5057.687 1324.659 418.818 3525.227 3720.549 1372.914 2885.637 452.070 2435.499 2841.473 3336.466 2770.809 2844.989 1391.903 738.929 7087.157 4456.397 4132.404 2139.398 5407.793 5140.400 167.747 3715.923 2698.607 1967.243 4506.732 2067.222 1224.581 6184.836 3945.550 4206.737 5483.107 1635.207 5087.744 1261.310 3514.606 3783.766 5416.555 4420.355 6137.313 4794.020 2070.573 0.000 3678.372 6644.262 1489.107
3653.013 2243.319 9117.860 4102.721 6870.298 8023.209 4204.518 4014.539 6967.377 4334.592 4847.697 6416.459 3724.660 3425.894 1661.148 5001.388 4189.827 5578.760 4608.327 4337.568 7845.178 5222.083 2994.193 3180.760 6887.641 1528.059 3555.259 5492.531 6153.304 4794.501 7240.818 3579.063 3337.585 9857.583 5979.703 6036.838 5326.624 4788.289 5773.560 2592.202 5125.318 4722.284 1845.370 1941.793 2501.689 6207.474 4203.305 3678.372 0.000 3020.602 5019.413
6427.056 4139.907 12038.511 6543.176 9837.651 10456.924 6944.211 6945.958 9717.922 6096.004 7698.908 9235.047 6626.089 6292.209 4505.226 7812.317 6409.578 8554.253 7393.780 7255.132 8918.066 6804.553 4235.071 5617.515 8573.942 1969.571 6507.997 7573.286 8938.525 7433.237 9595.677 6515.968 6353.082 12773.924 8109.467 8051.952 6253.098 7808.053 7170.081 5611.128 7196.822 6543.366 1957.286 3749.936 521.076 7962.548 6707.066 6644.262 3020.602 0.000 7883.832
1491.999 4118.811 4166.029 2082.601 2137.620 3657.739 1095.587 1076.081 2036.504 3705.236 197.498 1412.721 1300.906 3762.966 4327.183 4272.927 2656.904 3289.214 637.729 750.432 6522.178 4196.517 4740.512 2608.458 4661.979 6524.164 1548.346 3076.359 1209.578 1183.384 3226.639 3343.486 2596.318 4896.305 3109.450 3440.895 5471.572 2142.243 4759.706 2747.488 3022.485 3588.742 6816.484 5905.700 7394.298 4156.573 1853.268 1489.107 5019.413 7883.832 0.000
NODE_COORD_SECTION
1 135.757630 21.597263
2 -755.754223 -2463.491125
3 3276.397157 4720.664675
4 985.864756 -756.807480
5 1371.337106 3399.534070
6 4512.098991 1024.107858
7 643.684398 249.690807
8 -130.845128 918.428515
9 2772.614995 2039.471941
10 1376.807321 -2347.559329
11 798.122945 1137.104024
12 2077.216665 2050.415573
13 -187.400817 559.770624
14 -2893.304253 1475.578635
15 -3144.372984 -301.535310
16 -3041.401088 3050.346493
17 1201.653814 -1313.312949
18 -1623.612128 3471.340320
19 841.044327 685.153662
20 152.256207 1092.273653
21 4632.325339 -4002.819792
22 2236.202893 -2644.336879
23 -258.290116 -3282.755985
24 147.915374 -1185.142064
25 3944.309875 -2179.253571
26 -4272.740303 -2696.644529
27 -538.667943 672.171543
28 2511.649363 -1277.166361
29 2016.721349 1696.759519
30 1329.106779 233.138589
31 3934.897402 324.180741
32 -2465.602007 1597.544815
33 -1724.606868 1158.609826
34 3806.106391 5238.079878
35 2960.398834 -976.418102
36 3064.855028 -1324.733685
37 1960.503572 -4038.722904
38 -975.065138 2416.763453
39 2726.565002 -3058.849683
40 -1692.584209 322.588747
41 2157.342430 -1410.619315
42 1778.594120 -2148.539158
43 -4607.342946 -2739.775090
44 -4592.395172 -930.913626
45 -4072.664272 -4180.344192
46 3266.777500 -2071.145091
47 1014.850089 -524.951274
48 -542.231764 839.881138
49 -2939.514477 -1950.003241
50 -4261.034459 -4666.180949
51 866.541342 1322.372667
DEMAND_SECTION
1 0
2 5
3 4
4 6
5 2
6 1
7 74
8 57
9 1
10 7
11 9
12 6
13 7
14 2
15 4
16 88
17 9
18 2
19 2
20 8
21 2
22 8
23 3
24 8
25 10
26 10
27 9
28 9
29 10
30 9
31 4
32 10
33 5
34 5
35 4
36 2
37 6
38 1
39 1
40 8
41 51
42 2
43 7
44 4
45 5
46 9
47 6
48 10
49 8
50 70
51 9
DEPOT_SECTION
1
-1
EOF
