NAME : mamut-lyon-n25-hyb
COMMENT : Mamut2026 euclidean metric; city lyon; 3-decimal seconds/meters; ENU ref in mamut-lyon-n25-hyb.vrp.json
TYPE : CVRP
DIMENSION : 26
EDGE_WEIGHT_TYPE : EXPLICIT
EDGE_WEIGHT_FORMAT : FULL_MATRIX
CAPACITY : 121
EDGE_WEIGHT_SECTION
0.000 4899.309 2246.393 1157.270 2089.133 1638.761 355.065 2507.001 413.395 3783.340 1041.518 991.721 935.619 1871.274 4623.304 2088.025 4019.640 4555.725 5288.825 1299.254 2490.358 2609.833 4417.666 2394.456 4421.031 3069.749
4899.309 0.000 3586.844 3847.063 2896.378 3849.100 4953.541 4952.163 5221.700 6364.250 5936.876 5757.276 5745.437 6598.389 4216.104 3499.674 7412.127 685.425 7818.248 3602.806 2457.305 2383.016 9305.117 4967.638 4101.413 7874.678
2246.393 3586.844 0.000 2032.065 2015.382 607.747 2526.610 1402.475 2333.739 2931.941 3041.696 2672.153 2710.553 3344.991 2439.704 236.243 6126.356 3021.962 7207.984 1633.962 2037.551 2201.535 6359.063 1397.898 2233.028 4603.829
1157.270 3847.063 2032.065 0.000 963.440 1535.525 1120.014 2904.439 1554.621 4399.152 2177.146 2138.642 2090.151 3022.567 4447.180 1804.619 4191.215 3585.309 5184.874 417.262 1392.785 1490.287 5471.094 2820.410 4240.413 4225.480
2089.133 2896.378 2015.382 963.440 0.000 1764.458 2083.126 3235.648 2462.787 4798.629 3125.333 3038.763 3002.886 3919.874 4194.032 1785.756 4824.946 2684.692 5603.966 834.643 441.398 526.901 6434.069 3181.387 3994.351 5153.039
1638.761 3849.100 607.747 1535.525 1764.458 0.000 1921.108 1472.221 1741.231 3034.183 2462.238 2120.994 2149.076 2854.761 3023.952 470.082 5542.553 3350.690 6663.874 1178.874 1916.161 2083.325 5816.871 1417.174 2818.397 4131.497
355.065 4953.541 2526.610 1120.014 2083.126 1921.108 0.000 2859.856 677.499 4133.351 1093.067 1191.648 1112.222 2032.626 4931.643 2351.639 3678.351 4654.017 4934.442 1367.891 2508.021 2610.026 4354.459 2747.985 4727.850 3159.181
2507.001 4952.163 1402.475 2904.439 3235.648 1472.221 2859.856 0.000 2350.658 1566.331 2846.638 2371.321 2455.747 2699.527 2545.106 1561.952 6509.791 4351.985 7792.828 2607.690 3356.589 3524.179 5757.083 122.291 2379.756 3805.503
413.395 5221.700 2333.739 1554.621 2462.787 1741.231 677.499 2350.658 0.000 3510.912 740.321 584.117 540.136 1467.988 4622.298 2209.435 4167.323 4844.913 5507.600 1648.140 2848.438 2976.187 4141.358 2231.895 4424.878 2691.222
3783.340 6364.250 2931.941 4399.152 4798.629 3034.183 4133.351 1566.331 3510.912 0.000 3765.916 3295.021 3399.216 3198.128 3042.183 3112.939 7611.956 5724.878 9010.552 4138.614 4921.627 5089.101 5935.804 1617.558 2965.773 3900.643
1041.518 5936.876 3041.696 2177.146 3125.333 2462.238 1093.067 2846.638 740.321 3765.916 0.000 483.942 391.476 1006.192 5250.634 2932.244 3854.655 5576.484 5306.494 2340.307 3531.196 3648.389 3402.399 2724.377 5058.827 2066.114
991.721 5757.276 2672.153 2138.642 3038.763 2120.994 1191.648 2371.321 584.117 3295.021 483.942 0.000 106.526 884.363 4806.345 2587.791 4317.719 5352.641 5745.224 2215.872 3415.344 3547.464 3695.877 2249.042 4617.775 2125.775
935.619 5745.437 2710.553 2090.151 3002.886 2149.076 1112.222 2455.747 540.136 3399.216 391.476 106.526 0.000 936.307 4874.164 2617.843 4213.035 5351.479 5638.805 2186.116 3386.569 3515.589 3671.734 2333.468 4684.134 2151.990
1871.274 6598.389 3344.991 3022.567 3919.874 2854.761 2032.626 2699.527 1467.988 3198.128 1006.192 884.363 936.307 0.000 5238.308 3302.773 4635.493 6165.379 6153.746 3093.010 4289.694 4424.967 3072.894 2584.534 5065.274 1281.708
4623.304 4216.104 2439.704 4447.180 4194.032 3023.952 4931.643 2545.106 4622.298 3042.183 5250.634 4806.345 4874.164 5238.308 0.000 2652.657 8564.375 3532.692 9632.033 4035.562 4026.298 4154.078 8301.819 2656.375 206.978 6342.337
2088.025 3499.674 236.243 1804.619 1785.756 470.082 2351.639 1561.952 2209.435 3112.939 2932.244 2587.791 2617.843 3302.773 2652.657 0.000 5921.569 2962.899 6985.482 1402.627 1826.698 1992.332 6283.243 1542.455 2445.694 4573.764
4019.640 7412.127 6126.356 4191.215 4824.946 5542.553 3678.351 6509.791 4167.323 7611.956 3854.655 4317.719 4213.035 4635.493 8564.375 5921.569 0.000 7402.686 1587.378 4606.373 5218.067 5208.315 4369.718 6393.110 8358.129 4889.176
4555.725 685.425 3021.962 3585.309 2684.692 3350.690 4654.017 4351.985 4844.913 5724.878 5576.484 5352.641 5351.479 6165.379 3532.692 2962.899 7402.686 0.000 7944.207 3286.167 2248.438 2219.360 8972.713 4376.248 3416.328 7446.931
5288.825 7818.248 7207.984 5184.874 5603.966 6663.874 4934.442 7792.828 5507.600 9010.552 5306.494 5745.224 5638.805 6153.746 9632.033 6985.482 1587.378 7944.207 0.000 5597.140 5931.925 5879.762 5885.512 7681.973 9425.282 6472.912
1299.254 3602.806 1633.962 417.262 834.643 1178.874 1367.891 2607.690 1648.140 4138.614 2340.307 2215.872 2186.116 3093.010 4035.562 1402.627 4606.373 3286.167 5597.140 0.000 1200.459 1332.015 5704.581 2533.928 3828.979 4338.016
2490.358 2457.305 2037.551 1392.785 441.398 1916.161 2508.021 3356.589 2848.438 4921.627 3531.196 3415.344 3386.569 4289.694 4026.298 1826.698 5218.067 2248.438 5931.925 1200.459 0.000 167.698 6862.213 3316.897 3833.216 5538.425
2609.833 2383.016 2201.535 1490.287 526.901 2083.325 2610.026 3524.179 2976.187 5089.101 3648.389 3547.464 3515.589 4424.967 4154.078 1992.332 5208.315 2219.360 5879.762 1332.015 167.698 0.000 6960.447 3484.595 3963.072 5667.392
4417.666 9305.117 6359.063 5471.094 6434.069 5816.871 4354.459 5757.083 4141.358 5935.804 3402.399 3695.877 3671.734 3072.894 8301.819 6283.243 4369.718 8972.713 5885.512 5704.581 6862.213 6960.447 0.000 5645.499 8132.587 2036.806
2394.456 4967.638 1397.898 2820.410 3181.387 1417.174 2747.985 122.291 2231.895 1617.558 2724.377 2249.042 2333.468 2584.534 2656.375 1542.455 6393.110 4376.248 7681.973 2533.928 3316.897 3484.595 5645.499 0.000 2488.417 3701.267
4421.031 4101.413 2233.028 4240.413 3994.351 2818.397 4727.850 2379.756 4424.878 2965.773 5058.827 4617.775 4684.134 5065.274 206.978 2445.694 8358.129 3416.328 9425.282 3828.979 3833.216 3963.072 8132.587 2488.417 0.000 6183.158
3069.749 7874.678 4603.829 4225.480 5153.039 4131.497 3159.181 3805.503 2691.222 3900.643 2066.114 2125.775 2151.990 1281.708 6342.337 4573.764 4889.176 7446.931 6472.912 4338.016 5538.425 5667.392 2036.806 3701.267 6183.158 0.000
NODE_COORD_SECTION
1 135.757630 21.597263
2 3542.924186 -3498.976949
3 2378.501341 -106.401732
4 577.731483 -1047.951247
5 1226.581033 -1760.138503
6 1771.250502 -81.851878
7 -146.600283 -193.682285
8 2296.066935 1293.648913
9 108.209150 434.072969
10 2694.475540 2808.463799
11 -513.535333 835.955223
12 -56.314718 994.540691
13 -130.845128 918.428515
14 -349.894645 1828.751710
15 4729.131917 546.815932
16 2203.939126 -265.583425
17 -3590.556000 -1485.748189
18 3689.178445 -2829.337167
19 -4254.420239 -2927.640916
20 985.827064 -960.972375
21 1603.029256 -1990.614725
22 1574.470187 -2155.863100
23 -3241.010193 2869.966634
24 2174.970370 1276.599934
25 4532.836084 481.182186
26 -1206.080983 2782.544397
DEMAND_SECTION
1 0
2 3
3 9
4 9
5 8
6 1
7 10
8 3
9 1
10 56
11 70
12 8
13 3
14 51
15 6
16 4
17 50
18 5
19 3
20 8
21 8
22 1
23 1
24 1
25 87
26 2
DEPOT_SECTION
1
-1
EOF
