NAME : poryos-tokyo-n100-hyb
COMMENT : Poryos2026 euclidean metric; city tokyo; 3-decimal seconds/meters; ENU ref in poryos-tokyo-n100-hyb.vrp.json
TYPE : CVRP
DIMENSION : 101
EDGE_WEIGHT_TYPE : EXPLICIT
EDGE_WEIGHT_FORMAT : FULL_MATRIX
CAPACITY : 177
EDGE_WEIGHT_SECTION
0.000 4154.398 3279.084 2931.730 3059.607 12130.038 14422.777 12731.174 8147.469 6611.105 3532.910 4186.294 9713.125 4559.931 4524.800 3571.518 8333.317 2281.773 4814.923 7717.939 3456.654 11741.030 1013.129 6970.670 5530.906 5379.781 10862.762 2050.073 8236.771 5121.239 5220.272 9545.652 2819.128 1961.163 3409.908 3104.801 3285.824 6361.655 10739.783 9939.989 4293.357 6982.557 2362.464 8671.469 3353.747 6015.504 4880.864 3385.064 5244.375 8427.710 3530.273 6471.350 9040.878 15194.652 4138.294 8318.527 8487.549 3581.677 5541.335 2888.803 8277.540 2300.067 6404.482 8180.447 2274.822 5588.830 3937.269 9054.318 5857.102 9649.606 5738.589 3508.536 14165.234 10467.090 10628.573 1444.101 7693.671 15550.382 10041.762 5069.143 13338.706 10983.992 9135.512 13338.265 7562.158 13603.387 12129.768 8839.449 3585.899 8458.978 5715.038 6257.633 11190.276 7593.144 1190.039 4207.705 6351.924 4055.763 1682.894 6065.026 7003.556
4154.398 0.000 4716.359 5835.743 1393.781 8779.636 17250.994 11865.306 7516.913 9087.478 7659.580 4263.712 8140.059 8714.170 5701.345 4628.464 6907.736 5053.729 1292.237 8599.089 5550.161 15695.345 3230.981 8499.208 8604.986 6205.921 9630.308 6078.158 7481.352 8258.303 9341.098 8899.564 6946.748 3771.252 4591.900 3381.722 4344.390 4637.572 10723.995 9232.031 3724.379 8376.847 3909.903 9315.804 4694.357 6345.409 7182.472 7507.636 6300.718 11117.744 4954.245 3528.238 11179.697 17961.862 2256.347 7767.388 7676.175 3923.524 2141.000 5116.304 9148.530 2386.148 3299.085 10739.145 2613.562 2451.050 4060.528 4986.131 2709.128 6461.893 9888.333 700.595 13436.386 13626.492 7681.760 2724.136 10480.693 18284.291 5980.715 7793.789 14072.589 15043.323 11854.842 16264.572 3824.608 13650.232 16012.382 7824.000 1520.247 10184.750 2200.433 3430.755 14294.133 3903.733 4234.427 2903.099 3013.692 5268.333 2517.825 7275.740 9904.761
3279.084 4716.359 0.000 1738.953 4549.753 13495.674 12535.616 9508.189 10974.606 4372.148 4921.943 7005.744 12207.481 6182.988 1277.725 6632.030 10854.663 5559.149 5921.341 10920.445 919.959 13802.005 2848.797 10237.976 8651.431 2107.556 7760.897 4798.027 11022.750 8235.885 7128.836 12405.248 5075.629 1433.451 6487.499 1370.892 6312.584 3933.856 7461.214 6730.488 1941.600 10239.288 1046.502 11849.364 6467.431 2746.744 2472.750 4779.505 2005.863 11589.789 279.253 4925.092 6516.354 18240.260 3015.665 11178.011 11261.118 1078.059 4723.594 6140.348 11487.095 2505.783 5018.276 6022.833 2256.381 4520.070 1281.877 8461.379 4690.643 7772.431 7342.997 4449.922 10911.845 13399.066 8457.885 3132.233 5785.731 18605.512 10406.147 3157.455 10182.548 12793.912 7142.368 16337.869 6565.847 10335.312 14317.473 5747.151 3272.649 5640.537 4936.521 4679.324 9630.554 6530.259 4432.840 2542.502 5194.186 787.522 3638.668 2913.288 5245.801
2931.730 5835.743 1738.953 0.000 5279.857 14488.924 11659.065 10695.079 11074.062 3689.175 3300.526 7097.520 12572.848 4548.759 2360.464 6501.262 11194.878 5049.958 6895.058 10555.315 1053.133 12154.129 3075.654 9691.159 7619.133 3178.685 9153.866 3720.041 11158.478 7208.824 5529.686 12476.138 3719.019 2064.511 6338.361 2861.414 6217.554 5665.081 8365.915 7988.266 3668.898 9737.342 1982.868 11526.666 6276.169 3984.577 1973.271 3170.238 2922.858 10554.956 1761.560 6621.602 6109.359 17014.816 4551.588 11248.140 11407.979 2778.202 6273.789 5722.678 11103.484 3450.503 6692.744 5288.717 3223.201 6121.410 3017.631 10037.199 6317.757 9510.889 5673.338 5402.834 11998.779 12112.415 10187.399 3552.791 4861.273 17387.536 11747.283 2166.997 10593.269 11105.244 6296.890 15081.576 8198.594 11094.765 12696.445 7187.207 4577.142 5564.729 6484.659 6376.219 8543.287 8174.744 4091.438 4180.882 6832.197 2102.053 4046.857 3487.858 4207.736
3059.607 1393.781 4549.753 5279.857 0.000 9228.885 16911.020 12700.490 6735.910 8800.792 6588.261 3099.856 7712.363 7560.258 5716.905 3309.121 6388.444 3668.355 1755.490 7452.300 5246.276 14364.093 2305.983 7234.358 7211.207 6371.479 10537.916 4834.894 6739.768 6865.095 8116.103 8159.475 5749.081 3301.386 3254.841 3405.697 3007.627 5544.774 11295.871 9983.700 4145.533 7131.153 3570.346 8233.963 3345.059 6682.195 6900.958 6441.992 6395.299 9743.862 4819.693 4751.633 11051.926 16597.143 2954.475 6968.774 6958.986 4032.674 3432.410 3724.417 8014.464 2047.945 4558.208 10451.621 2295.179 3679.249 4271.875 6337.572 3954.939 7794.566 8705.792 718.469 14249.005 12234.331 8980.575 1777.503 10102.911 16923.028 6996.003 7384.249 14454.129 13754.572 11520.302 14885.406 5213.820 14240.031 14662.644 8634.784 2057.473 10184.673 3526.328 4616.621 13823.001 5289.134 2915.634 3481.545 4323.094 5236.539 1383.532 7366.508 9474.311
12130.038 8779.636 13495.674 14488.924 9228.885 0.000 26027.674 18850.474 7377.921 17865.240 15493.815 8836.780 5424.443 16220.127 14445.838 9835.528 5875.228 11525.619 7607.117 10295.309 14315.882 21572.938 11522.311 11310.947 13745.157 14860.972 16543.780 13421.834 7140.025 13614.846 16486.026 7543.324 14398.735 12454.428 9965.547 12156.365 9859.703 12333.682 18588.787 16723.766 12309.665 11046.202 12650.508 10161.032 10123.919 14842.193 15958.003 15364.477 14998.266 14809.742 13733.487 10478.893 19934.838 20440.134 10789.863 7545.559 7037.742 12670.383 9518.483 11042.534 10494.735 11087.149 10176.697 19518.013 11331.380 9911.256 12761.746 7579.117 9959.445 11276.498 17208.370 9103.441 20396.076 17669.975 12494.594 11000.830 19242.990 20642.282 4467.945 16537.982 22222.893 21407.320 20629.146 19351.307 9003.067 21329.232 21610.453 15284.475 10259.822 18883.427 9356.031 10593.238 23022.611 9148.629 11501.798 11441.752 9747.437 14032.077 10558.992 15955.972 18646.420
14422.777 17250.994 12535.616 11659.065 16911.020 26027.674 0.000 13349.331 22426.159 8163.597 12087.235 18572.499 24128.273 12276.195 11678.267 17815.768 22749.546 16080.044 18431.608 21235.716 11714.870 15822.231 14732.322 20064.247 16977.734 11453.054 13953.605 14122.421 22546.079 16683.882 12886.841 23757.594 13386.192 13616.074 17646.127 13888.560 17584.752 14758.676 10865.664 12622.356 13930.148 20205.259 13389.118 22224.243 17545.615 11762.605 10069.679 12134.412 11239.376 19298.203 12304.637 16549.622 6340.413 23769.371 15384.278 22562.913 22800.764 13416.105 16938.679 16780.554 21706.987 14956.325 16773.174 6514.650 14708.958 16624.904 13381.124 20361.092 16696.195 18168.572 12224.539 16940.608 13343.183 19273.685 18045.379 15210.875 6808.159 24144.273 22778.418 9526.812 8559.074 14363.590 5399.922 21905.348 18365.750 10808.139 16620.887 13334.659 15795.969 7628.380 17140.959 16338.866 3387.525 18276.499 15436.540 14775.257 17104.663 12046.628 15705.708 10375.783 7452.328
12731.174 11865.306 9508.189 10695.079 12700.490 18850.474 13349.331 0.000 19368.404 9264.394 13880.396 15756.893 19907.231 15050.001 8394.853 15693.856 18742.190 14970.300 13041.829 20031.074 9694.429 22370.029 12068.289 19546.837 18157.183 7535.261 2322.677 14277.522 19341.853 17741.573 16064.636 20762.374 14410.248 10774.608 15579.565 9773.639 15362.100 7227.775 2849.957 2793.228 8695.411 19509.420 10369.404 20878.549 15602.905 6779.629 9266.230 13772.249 7773.355 21097.550 9293.631 8700.786 8468.922 27695.570 9752.322 19613.917 19540.133 9200.436 10015.883 15477.189 20602.240 11083.542 9005.794 9560.466 10926.479 9611.354 8855.630 11347.247 9435.784 7759.243 16019.411 12158.301 1583.016 22805.487 6817.577 12125.264 10149.965 28065.667 14478.718 9934.788 5199.135 21124.812 10276.726 25770.551 9878.210 3158.781 23008.170 4065.717 10646.356 7368.738 10089.717 8679.492 12579.700 9729.241 13813.163 9229.900 9433.735 8788.064 12521.153 7338.894 10371.546
8147.469 7516.913 10974.606 11074.062 6735.910 7377.921 22426.159 19368.404 0.000 14758.457 10514.412 3992.302 2264.434 10776.481 12232.644 4620.485 1538.679 6355.507 6432.090 2929.538 11450.228 14625.002 8168.104 4070.166 7051.686 12976.704 17146.510 8366.246 240.539 7056.963 10678.035 1433.270 9218.023 9557.911 4789.465 10048.175 4874.900 12146.587 18029.680 16691.520 10879.483 3799.212 9928.615 2840.518 4883.093 13372.673 12993.830 10433.595 12948.519 7519.086 11253.801 10930.345 17180.844 13140.835 9634.682 266.618 436.050 10684.361 9523.406 5662.446 3122.274 8637.237 10659.327 16319.654 8857.522 9893.882 10958.076 10496.571 10119.701 13418.801 11463.134 7218.691 20932.521 10353.115 14737.267 7842.384 15803.917 13365.180 8840.179 13215.745 21109.451 14687.664 17240.910 11980.557 10539.985 20973.936 14557.885 15311.606 8752.495 16524.666 9508.893 10877.209 19104.063 10672.719 7035.405 10204.017 10289.589 11736.468 7338.506 13885.784 15099.412
6611.105 9087.478 4372.148 3689.175 8800.792 17865.240 8163.597 9264.394 14758.457 0.000 5548.525 10786.266 16251.674 6437.879 3603.875 10168.415 14875.375 8623.011 10275.839 14099.545 3564.171 13227.271 6722.045 13134.348 10636.288 3611.684 8476.895 6971.708 14845.597 10253.409 7412.851 16155.252 6580.873 5500.501 10003.298 5728.951 9892.784 7109.514 6487.525 7051.901 5875.364 13210.497 5245.208 15084.074 9932.668 4197.073 1909.729 5503.746 3326.516 13456.278 4144.125 8706.740 2461.783 19417.866 7268.886 14929.108 15095.559 5279.854 8889.101 9316.539 14632.087 6810.078 8888.184 1655.326 6561.027 8609.892 5280.358 12479.835 8717.628 10914.310 7153.235 8789.588 10222.360 14493.651 11174.744 7162.179 1497.364 19800.613 14694.400 1552.740 7599.699 11925.354 2772.989 17453.332 10498.647 8664.586 13906.887 6938.670 7637.019 2332.473 9097.516 8476.066 5350.597 10429.905 7746.844 6687.991 9169.217 3919.174 7671.671 2734.932 1243.293
3532.910 7659.580 4921.943 3300.526 6588.261 15493.815 12087.235 13880.396 10514.412 5548.525 0.000 6952.141 12428.177 1261.117 5653.740 6044.507 11083.989 4220.222 8341.557 9149.071 4353.658 8880.150 4432.117 8001.499 5154.216 6443.076 12434.858 2175.727 10661.897 4795.255 2229.308 11776.820 1308.112 4468.219 5880.171 5665.770 5889.207 8817.900 11399.603 11228.089 6717.914 8130.385 4666.752 10138.537 5749.927 7263.506 4674.198 155.913 6163.134 7914.011 5011.755 9467.882 7891.099 13986.971 7180.479 10621.016 10915.954 5821.532 8793.150 4879.447 9626.090 5531.605 9472.367 6676.730 5403.128 8753.241 6125.945 12456.621 8995.613 12534.744 2440.753 7032.758 15111.505 9052.482 13326.594 4936.209 5985.264 14366.348 13574.602 4214.481 13115.746 7894.564 7296.775 12030.184 10817.807 13956.519 9404.252 10482.534 6862.956 7850.209 8987.169 9231.064 8709.717 10825.719 3993.046 7010.074 9513.150 5397.606 5215.728 6551.719 5277.562
4186.294 4263.712 7005.744 7097.520 3099.856 8836.780 18572.499 15756.893 3992.302 10786.266 6952.141 0.000 5562.696 7492.395 8273.426 998.788 4189.184 2765.127 3650.802 4356.883 7458.737 12987.601 4180.547 4268.230 5223.510 9042.016 13622.315 4783.993 4064.746 4996.968 7669.795 5413.569 5733.737 5580.156 1132.705 6165.251 1067.356 8640.365 14207.849 13012.990 7102.706 4128.227 5959.477 5137.555 1288.918 9489.980 9004.676 6845.378 8995.222 7211.358 7284.342 7781.909 13197.359 13927.788 6041.623 4182.916 4312.579 6797.034 6404.660 2213.328 4916.506 4762.498 7561.218 12366.095 4963.798 6701.994 7094.164 8586.305 6966.961 10693.548 8409.914 3743.358 17292.124 9935.433 11936.158 3881.026 11876.304 14231.341 8170.657 9251.079 17173.248 12672.480 13317.529 12339.952 7934.893 17145.345 13133.595 11695.245 5146.109 12532.730 6458.818 7668.017 15296.149 8037.511 3138.910 6528.359 7273.852 7776.853 3391.198 9918.988 11181.386
9713.125 8140.059 12207.481 12572.848 7712.363 5424.443 24128.273 19907.231 2264.434 16251.674 12428.177 5562.696 0.000 12806.866 13414.916 6393.529 1379.872 8210.176 6894.168 5120.809 12800.553 16888.733 9537.396 6323.639 9290.777 14083.837 17620.486 10254.163 2035.929 9275.757 12787.493 2119.818 11158.941 10849.721 6560.864 11118.046 6584.218 12715.620 18861.929 17344.638 11776.882 6052.922 11182.433 4813.687 6683.639 14368.878 14412.749 12333.546 14103.343 9737.591 12483.920 11246.076 18615.544 15030.958 10383.337 2336.997 1840.281 11744.155 9894.250 7551.907 5212.258 9742.295 10950.461 17861.327 9982.738 10296.501 11973.275 10023.052 10480.245 13324.165 13566.919 8028.128 21488.502 12545.931 14654.790 9130.260 17402.060 15226.456 7799.079 14739.345 22142.823 16946.853 18844.007 14007.467 10495.034 21790.262 16815.836 15915.822 9558.939 17841.916 9831.384 11242.296 20858.776 10639.884 8701.304 11009.851 10540.266 12927.733 8614.859 15070.428 16715.981
4559.931 8714.170 6182.988 4548.759 7560.258 16220.127 12276.195 15050.001 10776.481 6437.879 1261.117 7492.395 12806.866 0.000 6891.968 6526.954 11500.660 4730.343 9295.143 9092.304 5600.912 7619.313 5520.095 7849.044 4704.355 7665.375 13657.007 2812.310 10944.777 4408.578 1015.546 11956.324 1840.121 5691.195 6373.388 6904.946 6428.470 10076.263 12514.531 12427.968 7971.850 8013.597 5908.022 10062.522 6227.427 8490.411 5797.060 1406.020 7377.618 7228.520 6270.726 10689.654 8657.003 12982.965 8385.010 10854.153 11194.709 7077.572 9965.802 5309.509 9522.635 6686.007 10683.962 7370.702 6575.304 9945.226 7384.637 13585.157 10193.502 13775.698 1206.123 8061.599 16246.625 8055.941 14581.364 5998.560 6637.773 13365.256 14553.576 5241.566 14037.483 6642.523 7836.151 11019.039 11995.285 14995.805 8148.456 11717.803 8019.513 8768.694 10155.226 10454.989 8891.899 12009.049 4784.929 8241.628 10708.515 6649.568 6219.680 7711.200 5966.087
4524.800 5701.345 1277.725 2360.464 5716.905 14445.838 11678.267 8394.853 12232.644 3603.875 5653.740 8273.426 13414.916 6891.968 0.000 7909.755 12071.906 6806.158 6958.312 12194.261 1317.019 14470.673 4125.916 11494.317 9785.537 870.665 6794.339 5889.142 12275.983 9370.404 7882.427 13664.609 6033.354 2710.553 7765.131 2345.190 7590.201 3733.498 6228.579 5654.102 2272.517 11501.049 2317.235 13125.537 7744.393 1631.942 1907.930 5526.777 728.269 12730.460 1006.018 5149.400 5489.001 19302.138 3707.213 12439.175 12512.336 1778.869 5289.109 7401.816 12760.216 3673.917 5311.540 5191.601 3432.219 5006.020 1703.558 8888.824 5116.359 7646.363 7987.891 5533.020 9751.616 14422.236 8144.372 4393.949 5092.203 19671.623 11111.231 2772.352 8906.741 13378.976 6345.305 17381.330 6918.153 9078.607 15030.241 4828.877 4192.810 4495.222 5496.499 4912.372 8954.077 6856.424 5693.124 3099.852 5575.316 496.601 4894.289 1658.585 4666.108
3571.518 4628.464 6632.030 6501.262 3309.121 9835.528 17815.768 15693.856 4620.485 10168.415 6044.507 998.788 6393.529 6526.954 7909.755 0.000 5040.858 1825.771 4263.359 4346.299 6978.432 12037.099 3786.586 3945.580 4335.593 8718.836 13626.661 3868.821 4731.839 4078.107 6677.877 5993.730 4797.502 5200.231 169.667 5961.408 331.801 8711.279 13989.457 12920.205 6998.480 3863.791 5600.508 5237.874 299.537 9237.614 8451.346 5945.485 8637.830 6543.622 6905.623 8059.657 12607.861 13352.893 6115.985 4774.480 4986.185 6574.337 6734.652 1223.951 4918.046 4610.997 7867.009 11710.680 4777.501 6988.362 6896.354 9247.397 7263.926 11086.758 7422.653 4015.343 17202.949 9180.716 12286.848 3602.354 11185.479 13669.960 9052.568 8619.467 16809.388 11692.898 12621.421 11696.604 8418.767 16908.651 12204.031 11656.595 5243.888 12022.483 6817.436 7919.972 14508.733 8509.050 2423.483 6525.775 7622.646 7417.320 3175.144 9524.794 10479.689
8333.317 6907.736 10854.663 11194.878 6388.444 5875.228 22749.546 18742.190 1538.679 14875.375 11083.989 4189.184 1379.872 11500.660 12071.906 5040.858 0.000 6863.767 5700.374 4422.728 11433.848 15908.350 8164.766 5461.076 8187.220 12755.312 16474.329 8908.384 1314.262 8134.039 11523.045 2313.505 9824.804 9486.870 5206.702 9790.308 5220.076 11524.604 17604.857 16138.005 10488.676 5193.012 9824.918 4378.238 5334.222 13063.873 13040.888 10986.160 12766.089 8951.486 11131.956 10139.032 17244.415 14679.438 9128.577 1749.247 1293.159 10420.033 8759.073 6217.562 4653.229 8403.951 9851.423 16483.050 8641.718 9152.110 10658.848 9281.014 9352.313 12401.857 12296.962 6743.727 20319.676 11804.932 13731.086 7764.413 16022.294 14903.742 7404.886 13361.091 20838.737 15883.710 17464.253 13506.463 9536.555 20540.917 15883.915 14722.034 8284.664 16483.364 8713.890 10116.601 19483.519 9676.641 7326.297 9742.237 9454.901 11582.469 7248.967 13729.346 15336.110
2281.773 5053.729 5559.149 5049.958 3668.355 11525.619 16080.044 14970.300 6355.507 8623.011 4220.222 2765.127 8210.176 4730.343 6806.158 1825.771 6863.767 0.000 5147.897 5505.443 5705.648 10780.074 2929.915 4693.548 3605.600 7661.475 13043.870 2044.706 6487.141 3234.020 4966.228 7678.124 2974.051 4203.643 1663.452 5235.932 1698.948 8352.652 13020.362 12177.078 6393.564 4714.846 4613.016 6479.052 1529.934 8288.338 7022.986 4123.524 7524.435 6349.547 5811.900 8105.415 11082.738 13198.681 5890.615 6484.666 6742.159 5776.629 6938.032 704.076 6054.067 4108.437 7972.515 10104.094 4189.572 7098.126 6126.899 9996.613 7379.587 11265.425 5682.774 4357.028 16421.804 8650.157 12361.993 3013.462 9537.678 13542.237 10297.189 7071.750 15585.860 10279.874 10960.837 11405.874 8839.833 15884.729 11038.449 11028.097 5132.404 10613.973 7069.094 7923.527 12749.492 8903.574 1159.893 6132.815 7818.269 6337.379 2809.163 8330.347 8822.584
4814.923 1292.237 5921.341 6895.058 1755.490 7607.117 18431.608 13041.829 6432.090 10275.839 8341.557 3650.802 6894.168 9295.143 6958.312 4263.359 5700.374 5147.897 0.000 7824.205 6716.785 15926.332 4033.289 7906.225 8509.748 7487.715 10777.956 6538.220 6373.261 8202.291 9815.726 7776.107 7472.233 4849.390 4274.323 4620.808 4040.257 5827.574 11989.309 10451.606 5016.503 7751.254 5045.311 8455.595 4407.192 7637.601 8366.227 8195.894 7573.608 10798.794 6170.604 4498.304 12419.410 17567.705 3542.167 6690.439 6551.943 5186.353 3092.918 5031.765 8350.491 3480.323 4228.266 11930.887 3725.379 3470.994 5339.608 4984.297 3689.551 7146.098 10427.053 1496.536 14619.402 13437.890 8430.291 3501.256 11638.418 17875.026 5260.783 8931.032 15360.842 15383.014 13031.695 15947.636 4320.977 14907.670 16183.724 9027.287 2804.341 11450.207 3077.720 4449.843 15417.445 4433.397 4576.810 4193.137 3867.031 6512.962 3137.812 8550.594 11039.314
7717.939 8599.089 10920.445 10555.315 7452.300 10295.309 21235.716 20031.074 2929.538 14099.545 9149.071 4356.883 5120.809 9092.304 12194.261 4346.299 4422.728 5505.443 7824.205 0.000 11174.457 11871.136 8099.204 1362.306 4719.040 13022.619 17938.110 7202.777 3169.914 4854.899 8759.785 3372.740 7855.803 9499.984 4471.415 10307.221 4677.603 12979.074 18324.814 17262.459 11338.078 1128.387 9906.688 992.855 4468.958 13569.438 12528.416 9106.279 12921.662 4617.904 11188.404 12126.157 16561.305 10367.707 10376.030 2797.451 3309.233 10917.761 10736.702 4840.044 571.774 8953.455 11897.086 15530.735 9123.400 11047.073 11241.862 12501.823 11308.047 14963.976 9538.030 8099.670 21545.896 7431.110 16232.852 7946.452 14923.507 10617.208 11330.543 12553.965 21055.748 12060.519 16318.041 9102.726 12142.789 21235.469 11748.691 15984.245 9484.932 16119.386 10777.922 12018.677 17855.146 12257.115 6528.553 10830.549 11592.502 11707.962 7520.115 13775.361 14202.836
3456.654 5550.161 919.959 1053.133 5246.276 14315.882 11714.870 9694.429 11450.228 3564.171 4353.658 7458.737 12800.553 5600.912 1317.019 6978.432 11433.848 5705.648 6716.785 11174.457 0.000 13201.417 3287.049 10395.460 8526.153 2159.835 8110.081 4619.049 11514.655 8112.275 6582.809 12871.961 4720.948 1960.297 6823.804 2269.116 6673.038 4702.629 7445.047 6966.102 2818.962 10420.477 1681.494 12127.461 6783.245 2948.171 1656.725 4223.124 1931.707 11470.500 815.634 5816.416 5825.108 18001.657 3933.367 11641.082 11758.646 1989.288 5643.425 6340.489 11733.410 3246.012 5920.634 5219.184 2997.183 5438.665 2151.032 9380.243 5606.081 8589.810 6718.536 5227.273 11027.944 13113.826 9210.124 3670.306 4930.696 18372.315 11307.167 2259.443 9884.129 12139.575 6315.001 16076.440 7478.432 10236.428 13747.671 6136.786 4147.722 5074.811 5856.353 5570.999 8753.865 7440.216 4646.520 3459.889 6107.046 1057.332 4185.694 2632.447 4363.371
11741.030 15695.345 13802.005 12154.129 14364.093 21572.938 15822.231 22370.029 14625.002 13227.271 8880.150 12987.601 16888.733 7619.313 14470.673 12037.099 15908.350 10780.074 15926.332 11871.136 13201.417 0.000 12754.124 10580.762 7837.067 15204.569 21163.599 9696.722 14856.722 8005.934 6690.432 15240.707 8983.845 13216.301 11951.575 14457.706 12132.052 17680.055 19678.780 19870.114 15562.774 10849.489 13473.205 12496.016 11792.992 16035.106 13156.952 9022.749 14901.334 7417.456 13888.551 18160.973 14880.558 8356.808 15824.650 14562.320 15049.170 14676.990 17281.585 10985.018 11961.340 14025.165 18120.375 13523.882 13962.155 17324.442 14992.177 20681.356 17588.955 21303.281 6483.820 14998.109 23430.331 5269.314 22165.434 13145.116 12780.232 8699.616 21040.959 12439.455 20471.793 1465.315 13443.605 6776.629 19297.225 21843.116 798.947 19271.291 15326.888 15450.470 17452.639 17935.413 13004.115 19331.891 11461.657 15762.975 18089.273 14255.810 13209.723 15099.043 12314.111
1013.129 3230.981 2848.797 3075.654 2305.983 11522.311 14732.322 12068.289 8168.104 6722.045 4432.117 4180.547 9537.396 5520.095 4125.916 3786.586 8164.766 2929.915 4033.289 8099.204 3287.049 12754.124 0.000 7493.571 6395.880 4932.672 10115.774 3062.004 8229.166 5994.245 6216.425 9593.168 3818.535 1415.395 3645.096 2308.098 3465.135 5464.695 10229.435 9276.488 3465.024 7472.560 1813.933 9015.377 3632.870 5473.358 4876.193 4279.360 4853.431 9242.414 3124.416 5471.394 9079.950 16057.418 3146.873 8362.931 8472.479 2868.597 4528.729 3409.020 8668.550 1299.907 5397.538 8348.075 1308.519 4576.941 3212.873 8068.636 4846.164 8653.353 6710.940 2628.611 13539.781 11385.155 9653.600 532.034 7936.898 16407.999 9184.060 5233.876 13031.121 11990.533 9371.613 14224.578 6551.108 13136.266 13141.739 8102.495 2572.777 8360.861 4703.506 5261.375 11583.281 6580.958 1773.214 3269.354 5339.473 3632.149 977.928 5754.026 7279.997
6970.670 8499.208 10237.976 9691.159 7234.358 11310.947 20064.247 19546.837 4070.166 13134.348 8001.499 4268.230 6323.639 7849.044 11494.317 3945.580 5461.076 4693.548 7906.225 1362.306 10395.460 10580.762 7493.571 0.000 3371.398 12344.552 17527.957 6171.177 4307.121 3532.421 7460.852 4702.730 6732.852 8851.063 4029.737 9773.819 4267.168 12647.540 17694.087 16759.262 10868.437 270.955 9261.954 2247.594 3979.235 12946.718 11652.934 7971.927 12214.992 3499.498 10495.695 11982.648 15590.236 9782.512 10057.943 3988.621 4484.476 10358.342 10632.294 4100.337 1688.020 8486.385 11778.565 14508.332 8627.965 10906.046 10697.233 12773.615 11178.008 14952.016 8232.674 7926.290 21030.404 6363.238 16180.913 7424.211 13874.714 10065.612 11918.960 11604.442 20266.875 10724.663 15246.178 8338.233 12203.001 20571.789 10492.562 15539.017 9189.111 15229.077 10699.638 11850.951 16678.002 12305.713 5805.306 10448.209 11512.247 11020.665 7053.004 13022.987 13154.197
5530.906 8604.986 8651.431 7619.133 7211.207 13745.157 16977.734 18157.183 7051.686 10636.288 5154.216 5223.510 9290.777 4704.355 9785.537 4335.593 8187.220 3605.600 8509.748 4719.040 8526.153 7837.067 6395.880 3371.398 0.000 10655.210 16368.996 3908.326 7266.676 415.610 4166.024 7948.502 4061.070 7471.057 4283.108 8634.404 4497.966 11859.975 15968.159 15381.889 9821.037 3590.790 7856.371 5614.276 4135.248 11380.585 9449.163 5169.269 10453.632 2945.170 8863.660 11707.874 13026.899 9666.369 9467.943 7044.104 7487.431 9103.750 10539.975 3500.557 5048.837 7650.126 11577.818 11830.123 7699.060 10703.724 9459.691 13467.341 10985.187 14870.910 4916.059 7918.470 19536.847 5044.708 15960.138 6572.091 11138.540 10020.451 13382.176 9195.060 18097.894 7702.002 12430.401 7830.316 12418.012 18712.729 7930.985 14344.846 8732.542 12882.353 10667.154 11522.918 13595.171 12487.167 4667.684 9660.874 11422.251 9372.273 6410.139 11105.190 10431.775
5379.781 6205.921 2107.556 3178.685 6371.479 14860.972 11453.054 7535.261 12976.704 3611.684 6443.076 9042.016 14083.837 7665.375 870.665 8718.836 12755.312 7661.475 7487.715 13022.619 2159.835 15204.569 4932.672 12344.552 10655.210 0.000 5992.498 6756.735 13011.407 10240.161 8665.862 14409.918 6879.879 3523.328 8577.737 2965.873 8395.965 3498.403 5363.551 4810.328 2552.559 12346.800 3119.088 13946.320 8562.980 830.710 2266.585 6321.815 328.617 13600.248 1849.616 5138.173 5153.544 20160.330 4071.290 13189.042 13244.077 2342.005 5505.568 8247.734 13590.133 4357.707 5341.680 5072.950 4127.219 5177.521 2148.806 8941.642 5243.167 7339.703 8732.122 6117.059 8882.730 15273.576 7709.176 5163.416 5102.510 20530.578 11345.970 3146.039 8134.274 14079.767 6231.630 18236.146 6948.095 8227.872 15781.040 4066.726 4685.842 4025.151 5703.119 4915.916 8908.840 6869.552 6539.879 3420.522 5657.134 1324.203 5651.653 1100.385 4785.557
10862.762 9630.308 7760.897 9153.866 10537.916 16543.780 13953.605 2322.677 17146.510 8476.895 12434.858 13622.315 17620.486 13657.007 6794.339 13626.661 16474.329 13043.870 10777.956 17938.110 8110.081 21163.599 10115.774 17527.957 16368.996 5992.498 0.000 12556.029 17111.283 15954.960 14658.357 18528.082 12803.853 8905.139 13521.864 7808.096 13296.195 5006.672 3144.884 1451.725 6668.279 17474.158 8514.049 18758.397 13557.067 5172.011 8026.106 12312.226 6280.385 19287.014 7582.415 6392.053 8317.861 25994.814 7583.967 17395.721 17303.852 7282.877 7726.469 13505.389 18507.121 9041.922 6695.292 9162.383 8907.976 7326.442 6928.301 9073.256 7140.783 5562.788 14709.745 9963.538 3899.273 21159.547 4775.164 10114.598 9622.709 26358.188 12193.899 8806.135 6625.731 19997.258 10072.539 24097.733 7560.189 5028.739 21756.299 2024.292 8481.012 7036.266 7791.975 6380.374 12619.475 7411.637 11884.430 7107.699 7120.693 7114.330 10475.365 6100.603 9685.110
2050.073 6078.158 4798.027 3720.041 4834.894 13421.834 14122.421 14277.522 8366.246 6971.708 2175.727 4783.993 10254.163 2812.310 5889.142 3868.821 8908.384 2044.706 6538.220 7202.777 4619.049 9696.722 3062.004 6171.177 3908.326 6756.735 12556.029 0.000 8507.144 3495.399 3281.444 9655.728 977.247 3764.998 3704.693 5002.692 3718.517 8297.051 12059.833 11515.227 6183.014 6259.995 4110.929 8195.161 3574.233 7498.100 5601.173 2079.553 6548.488 6851.733 4992.852 8515.277 9422.621 13442.286 6178.336 8482.419 8761.781 5380.201 7585.547 2711.791 7714.182 4348.150 8453.186 8341.539 4309.403 7638.742 5730.906 11039.357 7907.175 11688.791 3896.169 5397.089 15639.213 8613.253 12643.448 3451.408 7722.294 13807.848 11797.332 5456.774 14270.220 8973.965 9115.733 11541.860 9600.802 14813.739 10079.810 10537.806 5633.404 9121.378 7755.920 8298.713 10769.131 9635.210 1980.983 6204.290 8401.478 5490.624 3561.174 7200.732 7001.415
8236.771 7481.352 11022.750 11158.478 6739.768 7140.025 22546.079 19341.853 240.539 14845.597 10661.897 4064.746 2035.929 10944.777 12275.983 4731.839 1314.262 6487.141 6373.261 3169.914 11514.655 14856.722 8229.166 4307.121 7266.676 13011.407 17111.283 8507.144 0.000 7265.330 10861.651 1423.097 9369.064 9611.430 4901.332 10073.725 4976.426 12116.340 18035.603 16675.844 10885.286 4036.189 9977.760 3064.966 5000.533 13394.083 13069.303 10578.679 12989.219 7759.044 11302.003 10870.350 17261.550 13368.740 9620.200 438.952 255.044 10709.824 9466.171 5798.543 3357.595 8664.078 10596.187 16414.505 8887.526 9840.987 10978.442 10359.018 10062.791 13320.988 11645.898 7203.908 20908.758 10593.594 14642.158 7891.320 15906.414 13591.222 8653.673 13305.893 21141.049 14911.856 17344.860 12216.301 10442.399 20979.714 14792.758 15289.189 8742.578 16589.411 9446.446 10822.380 19230.739 10576.590 7137.444 10197.550 10221.411 11780.309 7384.317 13931.284 15204.122
5121.239 8258.303 8235.885 7208.824 6865.095 13614.846 16683.882 17741.573 7056.963 10253.409 4795.255 4996.968 9275.757 4408.578 9370.404 4078.107 8134.039 3234.020 8202.291 4854.899 8112.275 8005.934 5994.245 3532.421 415.610 10240.161 15954.960 3495.399 7265.330 0.000 3936.025 8014.090 3673.478 7058.523 4013.372 8225.526 4218.605 11456.936 15555.003 14966.355 9412.864 3733.232 7442.938 5779.497 3861.033 10965.019 9046.264 4803.942 10039.256 3360.088 8448.054 11326.770 12652.439 10073.915 9077.075 7065.081 7492.928 8691.670 10172.050 3175.335 5220.052 7254.170 11200.901 11465.920 7299.162 10328.984 9047.589 13144.998 10610.195 14494.351 4702.669 7568.140 19121.599 5421.970 15575.153 6180.233 10780.174 10429.158 13130.411 8803.388 17699.779 7797.727 12083.971 8230.335 12063.866 18303.171 8136.634 13930.874 8350.595 12491.034 10302.423 11139.521 13298.395 12130.659 4275.782 9261.338 11051.906 8956.734 6030.276 10694.005 10070.750
5220.272 9341.098 7128.836 5529.686 8116.103 16486.026 12886.841 16064.636 10678.035 7412.851 2229.308 7669.795 12787.493 1015.546 7882.427 6677.877 11523.045 4966.228 9815.726 8759.785 6582.809 6690.432 6216.425 7460.852 4166.024 8665.862 14658.357 3281.444 10861.651 3936.025 0.000 11780.685 2401.351 6539.757 6537.178 7774.321 6628.671 10990.092 13528.850 13437.400 8872.447 7650.372 6785.778 9703.581 6382.363 9488.670 6812.568 2361.002 8381.419 6454.031 7230.369 11516.548 9582.510 12006.602 9191.818 10731.461 11105.872 7986.890 10722.248 5456.556 9148.554 7438.696 11494.122 8274.624 7349.943 10728.178 8303.812 14273.945 10984.161 14634.814 787.057 8667.683 17261.928 7090.474 15477.011 6662.444 7530.414 12389.714 15071.531 6249.445 15008.130 5796.245 8669.924 10041.859 12751.913 15998.134 7188.815 12710.928 8764.982 9745.316 10904.919 11286.122 9523.026 12773.809 5242.962 9092.182 11493.976 7625.008 6824.474 8726.016 6878.430
9545.652 8899.564 12405.248 12476.138 8159.475 7543.324 23757.594 20762.374 1433.270 16155.252 11776.820 5413.569 2119.818 11956.324 13664.609 5993.730 2313.505 7678.124 7776.107 3372.740 12871.961 15240.707 9593.168 4702.730 7948.502 14409.918 18528.082 9655.728 1423.097 8014.090 11780.685 0.000 10471.758 10986.602 6161.026 11480.808 6262.672 13535.936 19455.151 18098.774 12304.628 4443.941 11359.029 2838.653 6244.015 14804.560 14405.295 11704.215 14381.022 7925.290 12684.393 12268.513 18585.255 12929.650 11043.277 1230.963 1224.868 12117.003 10867.945 6977.047 3316.225 10070.011 11991.006 17704.353 10290.656 11246.624 12389.596 11591.321 11464.551 14657.537 12567.715 8627.000 22330.113 10660.333 15983.318 9273.212 17175.663 13119.110 9665.162 14608.973 22542.721 15426.356 18609.281 11957.995 11782.632 22399.373 15103.813 16711.059 10165.545 17945.186 10842.785 12225.795 20419.538 11919.613 8416.638 11620.192 11610.406 13168.338 8770.327 15317.059 16467.396
2819.128 6946.748 5075.629 3719.019 5749.081 14398.735 13386.192 14410.248 9218.023 6580.873 1308.112 5733.737 11158.941 1840.121 6033.354 4797.502 9824.804 2974.051 7472.233 7855.803 4720.948 8983.845 3818.535 6732.852 4061.070 6879.879 12803.853 977.247 9369.064 3673.478 2401.351 10471.758 0.000 4262.731 4636.824 5513.894 4666.427 8789.134 12066.092 11686.689 6659.952 6852.033 4555.998 8846.863 4499.699 7664.811 5429.318 1251.781 6637.079 6935.231 5229.626 9177.147 8990.442 13296.212 6841.476 9320.695 9622.635 5805.899 8335.670 3607.920 8340.606 5057.644 9139.534 7832.593 4982.786 8355.497 6143.175 11872.605 8615.983 12324.174 2956.776 6278.975 15716.805 8395.244 13219.993 4261.110 7170.287 13669.345 12732.935 5135.032 14047.041 8174.898 8520.865 11362.741 10363.299 14736.494 9416.888 10804.944 6376.941 8821.727 8515.390 8951.707 10012.231 10388.589 2944.861 6790.969 9121.451 5689.587 4433.688 7179.570 6452.996
1961.163 3771.252 1433.451 2064.511 3301.386 12454.428 13616.074 10774.608 9557.911 5500.501 4468.219 5580.156 10849.721 5691.195 2710.553 5200.231 9486.870 4203.643 4849.390 9499.984 1960.297 13216.301 1415.395 8851.063 7471.057 3523.328 8905.139 3764.998 9611.430 7058.523 6539.757 10986.602 4262.731 0.000 5056.937 1251.819 4879.894 4541.201 8845.754 7982.320 2419.268 8842.624 410.942 10423.231 5039.974 4095.686 3606.052 4313.493 3438.203 10382.058 1709.590 5000.323 7785.130 17122.855 2725.163 9757.833 9851.964 1634.422 4393.482 4751.102 10067.974 1386.313 5005.865 7150.376 1159.875 4311.624 1990.019 8134.140 4543.500 8095.282 6894.481 3353.248 12218.560 12350.610 8959.215 1726.301 6809.784 17481.634 9698.756 4093.079 11615.955 12322.131 8221.507 15250.250 6393.501 11740.272 13672.065 6881.186 2565.436 6998.995 4597.086 4764.494 10568.394 6390.822 3054.946 2553.433 5063.187 2217.182 2240.434 4341.942 6195.324
3409.908 4591.900 6487.499 6338.361 3254.841 9965.547 17646.127 15579.565 4789.465 10003.298 5880.171 1132.705 6560.864 6373.388 7765.131 169.667 5206.702 1663.452 4274.323 4471.415 6823.804 11951.575 3645.096 4029.737 4283.108 8577.737 13521.864 3704.693 4901.332 4013.372 6537.178 6161.026 4636.824 5056.937 0.000 5836.651 247.722 8618.996 13857.230 12803.130 6884.523 3957.452 5458.762 5372.607 161.024 9103.716 8290.485 5780.326 8493.346 6551.724 6760.331 7999.899 12443.946 13375.713 6028.248 4942.588 5155.706 6446.365 6685.820 1080.642 5042.853 4496.100 7812.153 11543.645 4657.604 6931.751 6770.901 9257.921 7208.570 11043.495 7278.523 3966.256 17085.003 9163.641 12235.416 3475.144 11017.201 13695.457 9119.523 8453.918 16661.833 11590.388 12452.909 11705.298 8394.543 16773.736 12128.146 11547.030 5161.946 11863.738 6773.320 7856.226 14339.134 8482.415 2257.289 6426.214 7575.418 7273.487 3058.436 9376.342 10311.131
3104.801 3381.722 1370.892 2861.414 3405.697 12156.365 13888.560 9773.639 10048.175 5728.951 5665.770 6165.251 11118.046 6904.946 2345.190 5961.408 9790.308 5235.932 4620.808 10307.221 2269.116 14457.706 2308.098 9773.819 8634.404 2965.873 7808.096 5002.692 10073.725 8225.526 7774.321 11480.808 5513.894 1251.819 5836.651 0.000 5630.633 3294.797 8047.731 6985.482 1189.895 9740.396 999.549 11192.066 5848.374 3328.658 3838.869 5512.857 2997.423 11517.753 1584.839 3827.412 7801.091 18299.278 1694.733 10267.162 10302.700 636.196 3418.498 5709.294 10878.867 1411.308 3866.564 7373.910 1201.504 3260.507 935.433 7179.610 3461.939 6870.772 8103.132 3187.948 11259.974 13559.759 7711.332 2362.524 7154.197 18654.605 9039.039 4523.882 11070.828 13545.014 8501.639 16441.648 5341.038 10981.641 14919.624 5794.465 1908.068 6840.200 3630.402 3585.802 11001.362 5321.267 4076.834 1356.735 3979.040 1892.159 2797.540 3973.604 6616.463
3285.824 4344.390 6312.584 6217.554 3007.627 9859.703 17584.752 15362.100 4874.900 9892.784 5889.207 1067.356 6584.218 6428.470 7590.201 331.801 5220.076 1698.948 4040.257 4677.603 6673.038 12132.052 3465.135 4267.168 4497.966 8395.965 13296.195 3718.517 4976.426 4218.605 6628.671 6262.672 4666.427 4879.894 247.722 5630.633 0.000 8384.808 13660.890 12588.411 6666.712 4189.930 5278.636 5566.244 366.985 8909.980 8160.254 5784.369 8318.048 6795.641 6586.922 7753.738 12326.575 13622.261 5791.451 5038.102 5229.662 6244.413 6438.307 1191.985 5249.367 4279.196 7565.239 11445.526 4445.958 6685.050 6565.700 9022.377 6961.705 10795.788 7360.770 3718.683 16871.176 9398.254 11988.178 3272.530 10930.404 13942.352 8924.144 8346.347 16492.468 11749.323 12368.509 11949.057 8148.259 16581.335 12319.128 11325.251 4922.321 11725.074 6525.615 7610.855 14289.303 8235.765 2161.174 6196.557 7327.826 7097.047 2843.408 9209.400 10227.696
6361.655 4637.572 3933.856 5665.081 5544.774 12333.682 14758.676 7227.775 12146.587 7109.514 8817.900 8640.365 12715.620 10076.263 3733.498 8711.279 11524.604 8352.652 5827.574 12979.074 4702.629 17680.055 5464.695 12647.540 11859.975 3498.403 5006.672 8297.051 12116.340 11456.936 10990.092 13535.936 8789.134 4541.201 8618.996 3294.797 8384.808 0.000 6307.576 4633.974 2129.206 12574.698 4233.278 13777.414 8669.256 3009.670 5624.584 8670.526 3794.090 14696.620 3911.822 1900.626 8419.071 21521.910 2603.270 12394.180 12313.123 3003.235 2907.323 8727.926 13545.094 4246.087 2183.406 8526.886 4168.397 2494.057 2692.021 5639.795 2391.314 3915.336 11253.598 4957.495 8800.045 16828.480 4524.034 5343.022 8597.425 21871.898 8368.276 6500.512 9891.122 16709.231 9677.243 19686.590 3666.152 9163.399 18166.667 3200.318 3495.128 7147.118 3030.451 1749.843 12375.716 3559.810 7218.092 2223.630 2597.952 3699.062 5629.871 4461.837 8278.554
10739.783 10723.995 7461.214 8365.915 11295.871 18588.787 10865.664 2849.957 18029.680 6487.525 11399.603 14207.849 18861.929 12514.531 6228.579 13989.457 17604.857 13020.362 11989.309 18324.814 7445.047 19678.780 10229.435 17694.087 15968.159 5363.551 3144.884 12059.833 18035.603 15555.003 13528.850 19455.151 12066.092 8845.754 13857.230 8047.731 13660.890 6307.576 0.000 2060.711 7150.524 17688.332 8435.377 19227.127 13855.856 4756.117 6726.873 11304.806 5529.776 18910.738 7210.677 8113.417 5630.873 25348.160 8479.560 18259.148 18253.701 7422.443 9211.020 13593.906 18895.134 9445.366 8418.243 6711.028 9248.129 8798.806 7115.080 11436.175 8696.615 8268.649 13417.954 10866.388 3754.268 20424.710 7723.598 10389.903 7308.287 25723.907 14441.373 7304.097 3732.466 18401.023 7438.172 23402.268 9659.123 2944.263 20338.080 3361.517 9322.294 4520.187 9338.011 8013.103 9804.566 9523.061 11889.815 7863.263 8851.291 6685.446 10843.463 4886.524 7555.466
9939.989 9232.031 6730.488 7988.266 9983.700 16723.766 12622.356 2793.228 16691.520 7051.901 11228.089 13012.990 17344.638 12427.968 5654.102 12920.205 16138.005 12177.078 10451.606 17262.459 6966.102 19870.114 9276.488 16759.262 15381.889 4810.328 1451.725 11515.227 16675.844 14966.355 13437.400 18098.774 11686.689 7982.320 12803.130 6985.482 12588.411 4633.974 2060.711 0.000 5925.035 16724.790 7577.762 18120.808 12823.194 4025.072 6713.197 11112.397 5071.364 18319.056 6523.503 6307.234 6878.464 24949.337 7056.839 16932.264 16881.409 6408.163 7518.327 12685.506 17834.033 8309.480 6616.154 7710.672 8146.375 7105.545 6064.442 9449.022 6966.165 6210.900 13446.756 9473.037 4283.652 20076.040 5678.529 9341.372 8174.970 25317.378 12497.386 7459.609 5775.516 18676.259 8625.083 23033.020 7738.033 4606.199 20479.891 1454.402 7941.821 5588.169 7620.559 6240.091 11187.100 7596.908 11019.957 6502.422 7052.288 6025.974 9745.355 4771.827 8250.731
4293.357 3724.379 1941.600 3668.898 4145.533 12309.665 13930.148 8695.411 10879.483 5875.364 6717.914 7102.706 11776.882 7971.850 2272.517 6998.480 10488.676 6393.564 5016.503 11338.078 2818.962 15562.774 3465.024 10868.437 9821.037 2552.559 6668.279 6183.014 10885.286 9412.864 8872.447 12304.628 6659.952 2419.268 6884.523 1189.895 6666.712 2129.206 7150.524 5925.035 0.000 10822.487 2104.079 12196.922 6910.116 2621.200 4107.811 6568.389 2711.547 12697.213 2004.668 2998.785 7679.770 19486.779 1523.294 11109.930 11104.201 902.922 3017.536 6837.952 11909.553 2388.474 3115.449 7460.258 2241.202 2736.323 667.966 6645.516 2859.639 5853.661 9158.012 3748.915 10208.687 14749.392 6609.551 3447.340 7360.093 19841.486 8849.018 4915.436 10372.204 14612.406 8615.825 17631.090 4699.352 10094.760 16042.391 4670.648 2228.202 6577.582 3224.301 2753.739 11224.343 4650.427 5238.229 868.056 3336.951 2000.492 3826.435 3650.835 6909.264
6982.557 8376.847 10239.288 9737.342 7131.153 11046.202 20205.259 19509.420 3799.212 13210.497 8130.385 4128.227 6052.922 8013.597 11501.049 3863.791 5193.012 4714.846 7751.254 1128.387 10420.477 10849.489 7472.560 270.955 3590.790 12346.800 17474.158 6259.995 4036.189 3733.232 7650.372 4443.941 6852.033 8842.624 3957.452 9740.396 4189.930 12574.698 17688.332 16724.790 10822.487 0.000 9253.137 2054.443 3917.163 12936.563 11703.824 8096.272 12223.932 3763.541 10499.728 11872.927 15669.064 9989.146 9979.627 3718.191 4213.641 10331.440 10513.956 4099.391 1509.108 8436.487 11664.047 14601.403 8584.456 10794.740 10667.429 12594.574 11064.981 14820.864 8425.697 7816.297 21000.185 6625.624 16057.509 7384.169 13975.340 10267.582 11695.636 11675.342 20299.488 10986.252 15354.234 8568.343 12057.445 20574.585 10763.124 15491.562 9105.079 15285.858 10576.661 11745.609 16820.454 12162.213 5807.991 10383.437 11390.518 11023.944 6999.984 13043.569 13254.486
2362.464 3909.903 1046.502 1982.868 3570.346 12650.508 13389.118 10369.404 9928.615 5245.208 4666.752 5959.477 11182.433 5908.022 2317.235 5600.508 9824.918 4613.016 5045.311 9906.688 1681.494 13473.205 1813.933 9261.954 7856.371 3119.088 8514.049 4110.929 9977.760 7442.938 6785.778 11359.029 4555.998 410.942 5458.762 999.549 5278.636 4233.278 8435.377 7577.762 2104.079 9253.137 0.000 10827.532 5444.240 3684.774 3338.177 4514.058 3043.059 10773.695 1325.476 4821.326 7484.099 17500.284 2616.597 10131.625 10216.644 1269.278 4324.305 5162.033 10475.047 1567.225 4850.415 6899.865 1320.163 4205.068 1620.720 8084.566 4421.551 7868.555 7104.928 3551.873 11810.075 12713.183 8692.240 2086.535 6593.131 17860.321 9773.290 3889.814 11223.852 12549.426 7989.581 15621.620 6291.710 11331.636 13944.050 6489.761 2595.925 6659.484 4532.727 4580.869 10387.117 6279.609 3465.493 2352.058 4941.223 1821.612 2594.847 3959.724 6000.600
8671.469 9315.804 11849.364 11526.666 8233.963 10161.032 22224.243 20878.549 2840.518 15084.074 10138.537 5137.555 4813.687 10062.522 13125.537 5237.874 4378.238 6479.052 8455.595 992.855 12127.461 12496.016 9015.377 2247.594 5614.276 13946.320 18758.397 8195.161 3064.966 5779.497 9703.581 2838.653 8846.863 10423.231 5372.607 11192.066 5566.244 13777.414 19227.127 18120.808 12196.922 2054.443 10827.532 0.000 5383.341 14475.397 13499.921 10096.905 13853.623 5119.111 12119.575 12841.311 17545.840 10305.661 11179.160 2636.382 3132.108 11809.296 11439.842 5805.407 569.215 9821.227 12600.950 16520.762 10000.168 11766.462 12127.498 12979.058 12020.641 15599.179 10477.560 8855.391 22403.959 7823.234 16885.713 8838.131 15915.297 10526.368 11589.287 13537.125 22002.800 12771.704 17310.619 9200.512 12750.256 22146.099 12322.246 16822.163 10283.618 17091.395 11467.669 12746.122 18842.651 12870.500 7481.438 11657.840 12278.583 12636.609 8396.414 14718.389 15194.689
3353.747 4694.357 6467.431 6276.169 3345.059 10123.919 17545.615 15602.905 4883.093 9932.668 5749.927 1288.918 6683.639 6227.427 7744.393 299.537 5334.222 1529.934 4407.192 4468.958 6783.245 11792.992 3632.870 3979.235 4135.248 8562.980 13557.067 3574.233 5000.533 3861.033 6382.363 6244.015 4499.699 5039.974 161.024 5848.374 366.985 8669.256 13855.856 12823.194 6910.116 3917.163 5444.240 5383.341 0.000 9100.575 8233.846 5652.090 8472.642 6435.523 6738.746 8081.864 12377.324 13268.363 6084.436 5030.246 5255.289 6453.122 6777.468 926.438 5039.402 4522.219 7898.387 11464.806 4676.977 7016.820 6781.118 9389.056 7294.593 11138.476 7125.522 4059.655 17103.483 9031.548 12323.598 3485.897 10931.651 13590.009 9274.332 8381.872 16634.298 11429.589 12365.694 11588.428 8504.204 16767.940 11971.718 11576.783 5224.659 11812.223 6868.706 7934.718 14233.004 8590.357 2186.826 6469.323 7668.026 7254.350 3084.527 9347.972 10223.775
6015.504 6345.409 2746.744 3984.577 6682.195 14842.193 11762.605 6779.629 13372.673 4197.073 7263.506 9489.980 14368.878 8490.411 1631.942 9237.614 13063.873 8288.338 7637.601 13569.438 2948.171 16035.106 5473.358 12946.718 11380.585 830.710 5172.011 7498.100 13394.083 10965.019 9488.670 14804.560 7664.811 4095.686 9103.716 3328.658 8909.980 3009.670 4756.117 4025.072 2621.200 12936.563 3684.774 14475.397 9100.575 0.000 3051.523 7140.301 1143.243 14323.119 2519.155 4794.372 5422.831 20925.538 4120.436 13593.527 13620.600 2694.045 5365.094 8846.772 14139.555 4739.306 5030.480 5533.825 4528.088 5002.046 2415.814 8601.921 5023.752 6721.202 9561.714 6347.104 8166.273 16051.314 7001.417 5643.148 5656.446 21294.111 11158.568 3918.021 7775.152 14909.745 6677.709 19008.007 6608.518 7671.564 16610.481 3236.212 4845.673 4183.915 5548.771 4591.223 9383.406 6516.076 7147.680 3459.117 5386.290 2008.725 6107.648 1476.405 5413.496
4880.864 7182.472 2472.750 1973.271 6900.958 15958.003 10069.679 9266.230 12993.830 1909.729 4674.198 9004.676 14412.749 5797.060 1907.930 8451.346 13040.888 7022.986 8366.227 12528.416 1656.725 13156.952 4876.193 11652.934 9449.163 2266.585 8026.106 5601.173 13069.303 9046.264 6812.568 14405.295 5429.318 3606.052 8290.485 3838.869 8160.254 5624.584 6726.873 6713.197 4107.811 11703.824 3338.177 13499.921 8233.846 3051.523 0.000 4582.826 1938.035 12357.662 2258.089 7046.148 4203.890 18646.552 5425.226 13175.154 13316.443 3428.832 7087.368 7695.652 13076.035 4901.391 7197.483 3565.013 4652.083 6835.346 3474.804 10753.042 6967.310 9526.939 6755.038 6879.946 10450.346 13715.565 9960.267 5292.945 3316.078 19024.373 12848.930 884.492 8669.049 11972.081 4672.372 16694.215 8797.435 9314.990 13770.664 6212.447 5744.730 3591.492 7298.582 6806.900 7171.926 8741.283 6054.262 4875.915 7442.073 2108.469 5806.327 1942.744 2809.100
3385.064 7507.636 4779.505 3170.238 6441.992 15364.477 12134.412 13772.249 10433.595 5503.746 155.913 6845.378 12333.546 1406.020 5526.777 5945.485 10986.160 4123.524 8195.894 9106.279 4223.124 9022.749 4279.360 7971.927 5169.269 6321.815 12312.226 2079.553 10578.679 4803.942 2361.002 11704.215 1251.781 4313.493 5780.326 5512.857 5784.369 8670.526 11304.806 11112.397 6568.389 8096.272 4514.058 10096.905 5652.090 7140.301 4582.826 0.000 6044.658 7952.943 4872.938 9313.386 7863.089 14068.879 7025.009 10543.307 10832.993 5672.830 8637.237 4789.367 9588.307 5375.960 9317.265 6662.124 5247.243 8597.487 5978.770 12301.271 8839.996 12382.381 2591.853 6882.471 15011.315 9135.577 13177.506 4784.695 5978.624 14447.654 13426.233 4146.301 13057.688 8044.081 7303.913 12113.988 10661.909 13876.572 9542.404 10355.567 6707.205 7796.351 8831.268 9076.721 8760.986 10669.866 3866.215 6856.319 9357.480 5264.010 5067.954 6448.795 5267.382
5244.375 6300.718 2005.863 2922.858 6395.299 14998.266 11239.376 7773.355 12948.519 3326.516 6163.134 8995.222 14103.343 7377.618 728.269 8637.830 12766.089 7524.435 7573.608 12921.662 1931.707 14901.334 4853.431 12214.992 10453.632 328.617 6280.385 6548.488 12989.219 10039.256 8381.419 14381.022 6637.079 3438.203 8493.346 2997.423 8318.048 3794.090 5529.776 5071.364 2711.547 12223.932 3043.059 13853.623 8472.642 1143.243 1938.035 6044.658 0.000 13398.581 1734.055 5393.924 4968.364 19927.620 4213.931 13156.754 13224.428 2393.514 5701.554 8125.191 13487.375 4362.251 5588.083 4821.625 4124.881 5385.871 2244.108 9187.796 5464.259 7652.148 8433.791 6176.179 9096.390 15032.291 8034.172 5114.495 4821.762 20299.037 11543.619 2817.956 8181.159 13768.992 5981.580 17998.788 7197.578 8361.767 15482.545 4372.477 4781.872 3889.734 5902.552 5167.596 8645.492 7122.938 6416.591 3574.365 5891.269 1221.568 5611.839 978.396 4484.493
8427.710 11117.744 11589.789 10554.956 9743.862 14809.742 19298.203 21097.550 7519.086 13456.278 7914.011 7211.358 9737.591 7228.520 12730.460 6543.622 8951.486 6349.547 10798.794 4617.904 11470.500 7417.456 9242.414 3499.498 2945.170 13600.248 19287.014 6851.733 7759.044 3360.088 6454.031 7925.290 6935.231 10382.058 6551.724 11517.753 6795.641 14696.620 18910.738 18319.056 12697.213 3763.541 10773.695 5119.111 6435.523 14323.119 12357.662 7952.943 13398.581 0.000 11805.110 14401.154 15799.668 6865.433 12233.701 7407.157 7915.674 12009.198 13158.198 6062.443 4610.258 10456.535 14245.215 14556.573 10528.624 13362.739 12364.893 15776.272 13643.971 17521.290 7076.528 10462.319 22481.486 2865.716 18663.752 9362.771 13839.586 7201.651 15243.439 12058.083 20978.436 7839.537 15064.353 5153.610 14936.583 21643.253 7208.202 17262.868 11449.067 15736.235 13264.816 14231.684 15955.941 15020.133 7478.878 12480.171 14049.280 12315.320 9137.525 14042.605 13149.663
3530.273 4954.245 279.253 1761.560 4819.693 13733.487 12304.637 9293.631 11253.801 4144.125 5011.755 7284.342 12483.920 6270.726 1006.018 6905.623 11131.956 5811.900 6170.604 11188.404 815.634 13888.551 3124.416 10495.695 8863.660 1849.616 7582.415 4992.852 11302.003 8448.054 7230.369 12684.393 5229.626 1709.590 6760.331 1584.839 6586.922 3911.822 7210.677 6523.503 2004.668 10499.728 1325.476 12119.575 6738.746 2519.155 2258.089 4872.938 1734.055 11805.110 0.000 5003.131 6256.776 18432.864 3183.543 11457.086 11540.360 1200.604 4874.594 6400.348 11754.505 2773.453 5111.797 5790.095 2524.865 4652.888 1336.756 8593.180 4811.268 7784.477 7416.810 4705.739 10684.686 13579.440 8430.232 3411.443 5574.107 18799.403 10596.538 2982.278 9906.737 12859.221 6916.806 16524.811 6677.818 10076.127 14415.338 5576.597 3492.900 5367.133 5087.243 4757.892 9428.007 6636.559 4691.930 2673.690 5307.550 525.490 3917.907 2634.655 5051.440
6471.350 3528.238 4925.092 6621.602 4751.633 10478.893 16549.622 8700.786 10930.345 8706.740 9467.882 7781.909 11246.076 10689.654 5149.400 8059.657 10139.032 8105.415 4498.304 12126.157 5816.416 18160.973 5471.394 11982.648 11707.874 5138.173 6392.053 8515.277 10870.350 11326.770 11516.548 12268.513 9177.147 5000.323 7999.899 3827.412 7753.738 1900.626 8113.417 6307.234 2998.785 11872.927 4821.326 12841.311 8081.864 4794.372 7046.148 9313.386 5393.924 14401.154 5003.131 0.000 10213.429 21266.578 2338.971 11188.394 11045.680 3851.978 1410.798 8338.907 12676.562 4172.708 309.052 10210.623 4207.926 1079.922 3666.443 3811.957 820.945 3184.219 11893.954 4056.840 10283.450 16748.738 4262.758 5176.847 10204.069 21601.344 6467.651 7882.713 11750.074 17309.833 11369.664 19503.664 1816.196 10902.397 18580.636 4853.505 2976.289 8974.494 1426.799 245.783 14039.334 1731.827 7064.342 2470.681 745.069 4964.763 5297.746 6183.835 9812.210
9040.878 11179.697 6516.354 6109.359 11051.926 19934.838 6340.413 8468.922 17180.844 2461.783 7891.099 13197.359 18615.544 8657.003 5489.001 12607.861 17244.415 11082.738 12419.410 16561.305 5825.108 14880.558 9079.950 15590.236 13026.899 5153.544 8317.861 9422.621 17261.550 12652.439 9582.510 18585.255 8990.442 7785.130 12443.946 7801.091 12326.575 8419.071 5630.873 6878.464 7679.770 15669.064 7484.099 17545.840 12377.324 5422.831 4203.890 7863.089 4968.364 15799.668 6256.776 10213.429 0.000 21555.809 9173.642 17356.852 17509.905 7265.547 10658.980 11774.831 17093.480 9018.300 10441.520 1361.734 8768.087 10329.275 7179.576 14023.635 10386.230 11909.593 9213.337 10962.220 9091.623 16664.364 11903.682 9490.076 2118.600 21940.066 16499.384 4011.014 5593.718 13497.792 1807.864 19593.235 12029.068 7096.401 15607.385 7271.499 9678.987 1350.154 10856.639 10005.295 4316.776 11938.254 10190.498 8540.782 10781.298 5911.376 10004.644 4060.377 2708.593
15194.652 17961.862 18240.260 17014.816 16597.143 20440.134 23769.371 27695.570 13140.835 19417.866 13986.971 13927.788 15030.958 12982.965 19302.138 13352.893 14679.438 13198.681 17567.705 10367.707 18001.657 8356.808 16057.418 9782.512 9666.369 20160.330 25994.814 13442.286 13368.740 10073.915 12006.602 12929.650 13296.212 17122.855 13375.713 18299.278 13622.261 21521.910 25348.160 24949.337 19486.779 9989.146 17500.284 10305.661 13268.363 20925.538 18646.552 14068.879 19927.620 6865.433 18432.864 21266.578 21555.809 0.000 19088.932 12941.997 13435.899 18757.266 20018.729 12927.846 10044.163 17295.604 21109.998 20222.874 17355.831 20227.309 19112.852 22510.342 20508.420 24383.135 12343.594 17315.374 29012.978 4935.020 25529.184 16206.648 19467.157 384.520 21664.807 18191.325 27014.722 9680.903 20474.946 1964.767 21770.094 27943.397 7614.347 23973.718 18312.388 21749.957 20121.952 21096.643 20680.130 21858.015 14310.337 19314.867 20910.186 18924.026 15997.199 20465.193 18847.489
4138.294 2256.347 3015.665 4551.588 2954.475 10789.863 15384.278 9752.322 9634.682 7268.886 7180.479 6041.623 10383.337 8385.010 3707.213 6115.985 9128.577 5890.615 3542.167 10376.030 3933.367 15824.650 3146.873 10057.943 9467.943 4071.290 7583.967 6178.336 9620.200 9077.075 9191.818 11043.277 6841.476 2725.163 6028.248 1694.733 5791.451 2603.270 8479.560 7056.839 1523.294 9979.627 2616.597 11179.160 6084.436 4120.436 5425.226 7025.009 4213.931 12233.701 3183.543 2338.971 9173.642 19088.932 0.000 9875.741 9827.771 1996.449 1723.790 6202.633 10942.339 1847.643 2302.374 8886.501 1869.419 1590.310 2003.658 5485.971 1818.389 5511.515 9591.001 2416.415 11306.952 14492.502 6512.789 2896.977 8730.659 19431.432 7427.315 6164.689 11818.719 14987.707 10033.430 17291.209 3676.681 11412.749 16241.738 5687.426 897.090 8093.981 1935.676 2120.379 12594.177 3668.693 4801.295 661.811 2338.025 3349.914 3099.668 5166.379 8230.245
8318.527 7767.388 11178.011 11248.140 6968.774 7545.559 22562.913 19613.917 266.618 14929.108 10621.016 4182.916 2336.997 10854.153 12439.175 4774.480 1749.247 6484.666 6690.439 2797.451 11641.082 14562.320 8362.931 3988.621 7044.104 13189.042 17395.721 8482.419 438.952 7065.081 10731.461 1230.963 9320.695 9757.833 4942.588 10267.162 5038.102 12394.180 18259.148 16932.264 11109.930 3718.191 10131.625 2636.382 5030.246 13593.527 13175.154 10543.307 13156.754 7407.157 11457.086 11188.394 17356.852 12941.997 9875.741 0.000 513.094 10903.229 9780.795 5787.327 2949.799 8855.886 10918.269 16482.835 9074.066 10149.916 11180.040 10761.937 10376.931 13684.288 11517.649 7460.571 21176.743 10228.547 15002.415 8046.470 15959.758 13162.162 9088.707 13383.981 21322.930 14651.181 17395.056 11806.042 10805.507 21203.288 14481.139 15555.552 8991.593 16714.229 9767.752 11133.739 19233.653 10938.075 7195.309 10441.069 10549.861 11942.760 7545.118 14090.441 15253.181
8487.549 7676.175 11261.118 11407.979 6958.986 7037.742 22800.764 19540.133 436.050 15095.559 10915.954 4312.579 1840.281 11194.709 12512.336 4986.185 1293.159 6742.159 6551.943 3309.233 11758.646 15049.170 8472.479 4484.476 7487.431 13244.077 17303.852 8761.781 255.044 7492.928 11105.872 1224.868 9622.635 9851.964 5155.706 10302.700 5229.662 12313.123 18253.701 16881.409 11104.201 4213.641 10216.644 3132.108 5255.289 13620.600 13316.443 10832.993 13224.428 7915.674 11540.360 11045.680 17509.905 13435.899 9827.771 513.094 0.000 10938.643 9644.182 6053.404 3460.037 8893.957 10769.101 16666.019 9118.773 10022.184 11204.793 10459.018 10240.819 13462.518 11890.528 7412.275 21108.766 10740.058 14785.972 8130.503 16159.245 13652.615 8685.954 13556.556 21371.803 15119.718 17597.887 12313.620 10585.083 21197.542 14976.005 15490.621 8953.183 16833.202 9620.360 11001.758 19485.733 10720.612 7390.520 10409.742 10390.362 12016.915 7622.454 14168.344 15457.290
3581.677 3923.524 1078.059 2778.202 4032.674 12670.383 13416.105 9200.436 10684.361 5279.854 5821.532 6797.034 11744.155 7077.572 1778.869 6574.337 10420.033 5776.629 5186.353 10917.761 1989.288 14676.990 2868.597 10358.342 9103.750 2342.005 7282.877 5380.201 10709.824 8691.670 7986.890 12117.003 5805.899 1634.422 6446.365 636.196 6244.413 3003.235 7422.443 6408.163 902.922 10331.440 1269.278 11809.296 6453.122 2694.045 3428.832 5672.830 2393.514 12009.198 1200.604 3851.978 7265.547 18757.266 1996.449 10903.229 10938.643 0.000 3674.898 6277.532 11489.130 2047.344 3940.662 6907.685 1834.077 3453.551 355.951 7394.757 3616.966 6755.912 8260.590 3783.333 10672.393 13980.111 7505.249 2971.984 6735.595 19115.951 9422.368 4180.122 10435.632 13715.891 8049.121 16883.871 5489.556 10353.204 15164.617 5260.916 2414.098 6264.067 3887.423 3606.217 10598.162 5452.781 4617.317 1473.827 4118.020 1369.780 3421.249 3371.907 6234.868
5541.335 2141.000 4723.594 6273.789 3432.410 9518.483 16938.679 10015.883 9523.406 8889.101 8793.150 6404.660 9894.250 9965.802 5289.109 6734.652 8759.073 6938.032 3092.918 10736.702 5643.425 17281.585 4528.729 10632.294 10539.975 5505.568 7726.469 7585.547 9466.171 10172.050 10722.248 10867.945 8335.670 4393.482 6685.820 3418.498 6438.307 2907.323 9211.020 7518.327 3017.536 10513.956 4324.305 11439.842 6777.468 5365.094 7087.368 8637.237 5701.554 13158.198 4874.594 1410.798 10658.980 20018.729 1723.790 9780.795 9644.182 3674.898 0.000 7105.837 11283.881 3284.615 1161.333 10477.678 3391.909 413.603 3616.058 3763.582 596.654 4364.988 11170.028 2719.784 11598.207 15583.654 5553.024 4148.161 10368.719 20347.397 5842.242 7854.868 12755.928 16510.353 11633.356 18287.038 2030.488 12069.606 17659.281 6069.469 1958.806 9503.518 212.929 1359.110 14234.657 2053.075 5965.911 2211.482 891.636 4985.317 4169.765 6602.098 9896.415
2888.803 5116.304 6140.348 5722.678 3724.417 11042.534 16780.554 15477.189 5662.446 9316.539 4879.447 2213.328 7551.907 5309.509 7401.816 1223.951 6217.562 704.076 5031.765 4840.044 6340.489 10985.018 3409.020 4100.337 3500.557 8247.734 13505.389 2711.791 5798.543 3175.335 5456.556 6977.047 3607.920 4751.102 1080.642 5709.294 1191.985 8727.926 13593.906 12685.506 6837.952 4099.391 5162.033 5805.407 926.438 8846.772 7695.652 4789.367 8125.191 6062.443 6400.348 8338.907 11774.831 12927.846 6202.633 5787.327 6053.404 6277.532 7105.837 0.000 5395.228 4491.737 8183.599 10804.815 4603.719 7301.588 6621.582 9970.402 7583.016 11464.172 6199.093 4438.142 16947.019 8510.194 12601.377 3400.112 10240.955 13262.534 10056.178 7764.428 16224.585 10570.920 11664.678 11181.277 8938.163 16475.604 11196.160 11499.492 5394.791 11287.072 7220.055 8171.059 13446.461 9012.355 1708.695 6504.877 7995.387 6924.640 3105.697 8953.825 9526.154
8277.540 9148.530 11487.095 11103.484 8014.464 10494.735 21706.987 20602.240 3122.274 14632.087 9626.090 4916.506 5212.258 9522.635 12760.216 4918.046 4653.229 6054.067 8350.491 571.774 11733.410 11961.340 8668.550 1688.020 5048.837 13590.133 18507.121 7714.182 3357.595 5220.052 9148.554 3316.225 8340.606 10067.974 5042.853 10878.867 5249.367 13545.094 18895.134 17834.033 11909.553 1509.108 10475.047 569.215 5039.402 14139.555 13076.035 9588.307 13487.375 4610.258 11754.505 12676.562 17093.480 10044.163 10942.339 2949.799 3460.037 11489.130 11283.881 5395.228 0.000 9525.125 12444.817 16050.806 9695.174 11598.121 11813.462 12980.863 11857.632 15494.792 9920.692 8657.297 22117.501 7356.795 16768.782 8517.956 15436.421 10280.188 11721.873 13088.933 21616.195 12217.933 16824.781 8858.728 12664.669 21804.737 11801.235 16554.719 10050.441 16666.066 11321.856 12571.774 18323.291 12780.798 7088.917 11399.784 12135.816 12274.578 8091.881 14337.791 14715.516
2300.067 2386.148 2505.783 3450.503 2047.945 11087.149 14956.325 11083.542 8637.237 6810.078 5531.605 4762.498 9742.295 6686.007 3673.917 4610.997 8403.951 4108.437 3480.323 8953.455 3246.012 14025.165 1299.907 8486.385 7650.126 4357.707 9041.922 4348.150 8664.078 7254.170 7438.696 10070.011 5057.644 1386.313 4496.100 1411.308 4279.196 4246.087 9445.366 8309.480 2388.474 8436.487 1567.225 9821.227 4522.219 4739.306 4901.391 5375.960 4362.251 10456.535 2773.453 4172.708 9018.300 17295.604 1847.643 8855.886 8893.957 2047.344 3284.615 4491.737 9525.125 0.000 4105.036 8465.183 250.392 3299.811 2332.703 6928.558 3563.895 7353.765 7888.765 1985.304 12592.627 12660.867 8357.995 1096.973 8158.870 17642.316 8334.364 5450.833 12477.986 13229.755 9556.806 15479.780 5315.042 12383.225 14425.064 7055.113 1333.680 8136.837 3470.658 3961.639 11941.328 5335.174 2985.847 2024.449 4065.316 3190.396 1438.005 5328.162 7559.788
6404.482 3299.085 5018.276 6692.744 4558.208 10176.697 16773.174 9005.794 10659.327 8888.184 9472.367 7561.218 10950.461 10683.962 5311.540 7867.009 9851.423 7972.515 4228.266 11897.086 5920.634 18120.375 5397.538 11778.565 11577.818 5341.680 6695.292 8453.186 10596.187 11200.901 11494.122 11991.006 9139.534 5005.865 7812.153 3866.564 7565.239 2183.406 8418.243 6616.154 3115.449 11664.047 4850.415 12600.950 7898.387 5030.480 7197.483 9317.265 5588.083 14245.215 5111.797 309.052 10441.520 21109.998 2302.374 10918.269 10769.101 3940.662 1161.333 8183.599 12444.817 4105.036 0.000 10409.269 4158.227 883.289 3778.963 3600.277 603.826 3293.452 11889.626 3854.363 10588.262 16621.627 4426.601 5078.555 10384.727 21442.383 6190.480 8023.103 12049.403 17290.071 11569.063 19358.772 1610.648 11210.748 18528.657 5162.348 2862.897 9214.038 1150.556 442.495 14229.186 1544.899 6951.501 2516.144 436.161 5102.903 5171.434 6400.061 9977.645
8180.447 10739.145 6022.833 5288.717 10451.621 19518.013 6514.650 9560.466 16319.654 1655.326 6676.730 12366.095 17861.327 7370.702 5191.601 11710.680 16483.050 10104.094 11930.887 15530.735 5219.184 13523.882 8348.075 14508.332 11830.123 5072.950 9162.383 8341.539 16414.505 11465.920 8274.624 17704.353 7832.593 7150.376 11543.645 7373.910 11445.526 8526.886 6711.028 7710.672 7460.258 14601.403 6899.865 16520.762 11464.806 5533.825 3565.013 6662.124 4821.625 14556.573 5790.095 10210.623 1361.734 20222.874 8886.501 16482.835 16666.019 6907.685 10477.678 10804.815 16050.806 8465.183 10409.269 0.000 8216.216 10183.112 6887.653 14009.278 10275.834 12222.013 7879.605 10444.913 10294.762 15342.986 12359.647 8798.745 759.843 20607.285 16302.429 3121.982 6954.230 12146.302 1160.003 18261.815 12018.070 8400.511 14248.373 7882.234 9281.389 2192.916 10683.755 9986.801 3849.921 11941.482 9287.836 8290.628 10711.153 5540.001 9305.530 4065.708 1407.244
2274.822 2613.562 2256.381 3223.201 2295.179 11331.380 14708.958 10926.479 8857.522 6561.027 5403.128 4963.798 9982.738 6575.304 3432.219 4777.501 8641.718 4189.572 3725.379 9123.400 2997.183 13962.155 1308.519 8627.965 7699.060 4127.219 8907.976 4309.403 8887.526 7299.162 7349.943 10290.656 4982.786 1159.875 4657.604 1201.504 4445.958 4168.397 9248.129 8146.375 2241.202 8584.456 1320.163 10000.168 4676.977 4528.088 4652.083 5247.243 4124.881 10528.624 2524.865 4207.926 8768.087 17355.831 1869.419 9074.066 9118.773 1834.077 3391.909 4603.719 9695.174 250.392 4158.227 8216.216 0.000 3378.305 2133.244 7074.237 3634.998 7379.456 7780.287 2231.756 12427.551 12693.593 8355.330 1206.628 7913.070 17704.817 8543.159 5207.045 12253.533 13145.195 9309.255 15529.023 5420.264 12182.933 14373.873 6911.648 1468.739 7889.614 3584.331 3989.587 11700.195 5434.030 3049.805 1962.223 4144.039 2946.675 1604.117 5088.162 7316.812
5588.830 2451.050 4520.070 6121.410 3679.249 9911.256 16624.904 9611.354 9893.882 8609.892 8753.241 6701.994 10296.501 9945.226 5006.020 6988.362 9152.110 7098.126 3470.994 11047.073 5438.665 17324.442 4576.941 10906.046 10703.724 5177.521 7326.442 7638.742 9840.987 10328.984 10728.178 11246.624 8355.497 4311.624 6931.751 3260.507 6685.050 2494.057 8798.806 7105.545 2736.323 10794.740 4205.068 11766.462 7016.820 5002.046 6835.346 8597.487 5385.871 13362.739 4652.888 1079.922 10329.275 20227.309 1590.310 10149.916 10022.184 3453.551 413.603 7301.588 11598.121 3299.811 883.289 10183.112 3378.305 0.000 3361.348 3941.647 281.742 4168.321 11151.177 2979.771 11193.250 15748.217 5309.611 4232.746 10096.211 20559.430 6172.353 7622.112 12349.851 16523.028 11341.054 18478.456 2086.716 11656.041 17718.550 5657.286 2014.462 9157.336 555.354 986.126 13959.825 2079.278 6089.973 1979.769 766.022 4727.387 4302.969 6269.161 9641.500
3937.269 4060.528 1281.877 3017.631 4271.875 12761.746 13381.124 8855.630 10958.076 5280.358 6125.945 7094.164 11973.275 7384.637 1703.558 6896.354 10658.848 6126.899 5339.608 11241.862 2151.032 14992.177 3212.873 10697.233 9459.691 2148.806 6928.301 5730.906 10978.442 9047.589 8303.812 12389.596 6143.175 1990.019 6770.901 935.433 6565.700 2692.021 7115.080 6064.442 667.966 10667.429 1620.720 12127.498 6781.118 2415.814 3474.804 5978.770 2244.108 12364.893 1336.756 3666.443 7179.576 19112.852 2003.658 11180.040 11204.793 355.951 3616.058 6621.582 11813.462 2332.703 3778.963 6887.653 2133.244 3361.348 0.000 7289.310 3501.568 6493.969 8561.751 3975.736 10333.407 14333.473 7208.364 3295.980 6754.406 19471.644 9416.384 4265.665 10182.435 14017.472 8037.654 17238.735 5355.215 10051.190 15486.442 4906.928 2540.432 6133.516 3826.427 3421.270 10620.550 5309.646 4967.229 1408.056 3988.414 1369.323 3732.641 3216.140 6282.704
9054.318 4986.131 8461.379 10037.199 6337.572 7579.117 20361.092 11347.247 10496.571 12479.835 12456.621 8586.305 10023.052 13585.157 8888.824 9247.397 9281.014 9996.613 4984.297 12501.823 9380.243 20681.356 8068.636 12773.615 13467.341 8941.642 9073.256 11039.357 10359.018 13144.998 14273.945 11591.321 11872.605 8134.140 9257.921 7179.610 9022.377 5639.795 11436.175 9449.022 6645.516 12594.574 8084.566 12979.058 9389.056 8601.921 10753.042 12301.271 9187.796 15776.272 8593.180 3811.957 14023.635 22510.342 5485.971 10761.937 10459.018 7394.757 3763.582 9970.402 12980.863 6928.558 3600.277 14009.278 7074.237 3941.647 7289.310 0.000 3787.824 3697.798 14779.149 5684.360 12868.103 18420.604 4940.663 7611.500 13974.838 22809.739 3139.353 11554.928 15159.676 20013.127 15169.137 20919.746 1995.891 13999.684 20995.726 8074.713 5605.555 12775.233 3553.311 4027.236 17825.339 2086.170 9220.485 5921.216 3313.674 8645.942 7483.940 9994.914 13549.867
5857.102 2709.128 4690.643 6317.757 3954.939 9959.445 16696.195 9435.784 10119.701 8717.628 8995.613 6966.961 10480.245 10193.502 5116.359 7263.926 9352.313 7379.587 3689.551 11308.047 5606.081 17588.955 4846.164 11178.008 10985.187 5243.167 7140.783 7907.175 10062.791 10610.195 10984.161 11464.551 8615.983 4543.500 7208.570 3461.939 6961.705 2391.314 8696.615 6966.165 2859.639 11064.981 4421.551 12020.641 7294.593 5023.752 6967.310 8839.996 5464.259 13643.971 4811.268 820.945 10386.230 20508.420 1818.389 10376.931 10240.819 3616.966 596.654 7583.016 11857.632 3563.895 603.826 10275.834 3634.998 281.742 3501.568 3787.824 0.000 3886.626 11399.613 3252.518 11018.593 16029.631 5030.306 4508.348 10208.399 20840.351 6134.861 7767.233 12276.118 16779.897 11435.127 18760.136 1881.100 11534.666 17986.671 5513.811 2289.549 9195.673 656.139 764.288 14068.060 1859.633 6369.343 2149.384 520.126 4859.318 4583.487 6326.908 9768.218
9649.606 6461.893 7772.431 9510.889 7794.566 11276.498 18168.572 7759.243 13418.801 10914.310 12534.744 10693.548 13324.165 13775.698 7646.363 11086.758 12401.857 11265.425 7146.098 14963.976 8589.810 21303.281 8653.353 14952.016 14870.910 7339.703 5562.788 11688.791 13320.988 14494.351 14634.814 14657.537 12324.174 8095.282 11043.495 6870.772 10795.788 3915.336 8268.649 6210.900 5853.661 14820.864 7868.555 15599.179 11138.476 6721.202 9526.939 12382.381 7652.148 17521.290 7784.477 3184.219 11909.593 24383.135 5511.515 13684.288 13462.518 6755.912 4364.988 11464.172 15494.792 7353.765 3293.452 12222.013 7379.456 4168.321 6493.969 3697.798 3886.626 0.000 14973.483 7078.831 9240.327 19914.944 1331.015 8359.797 12377.372 24712.266 6824.712 10406.865 11983.611 20414.673 13345.143 22644.226 2878.852 10581.316 21738.611 5020.240 6151.498 10573.626 4270.177 3392.250 16057.819 2746.871 10241.888 5542.749 3473.355 7607.916 8464.750 8195.660 12116.778
5738.589 9888.333 7342.997 5673.338 8705.792 17208.370 12224.539 16019.411 11463.134 7153.235 2440.753 8409.914 13566.919 1206.123 7987.891 7422.653 12296.962 5682.774 10427.053 9538.030 6718.536 6483.820 6710.940 8232.674 4916.059 8732.122 14709.745 3896.169 11645.898 4702.669 787.057 12567.715 2956.776 6894.481 7278.523 8103.132 7360.770 11253.598 13417.954 13446.756 9158.012 8425.697 7104.928 10477.560 7125.522 9561.714 6755.038 2591.853 8433.791 7076.528 7416.810 11893.954 9213.337 12343.594 9591.001 11517.649 11890.528 8260.590 11170.028 6199.093 9920.692 7888.765 11889.626 7879.605 7780.287 11151.177 8561.751 14779.149 11399.613 14973.483 0.000 9227.797 17166.533 7473.109 15765.827 7181.255 7124.786 12727.962 15687.794 6113.889 14711.160 5455.773 8187.428 10382.215 13199.837 15799.294 7048.973 12797.154 9221.929 9477.056 11358.780 11658.834 8879.907 13214.249 5876.100 9443.146 11914.565 7773.891 7382.769 8692.803 6505.950
3508.536 700.595 4449.922 5402.834 718.469 9103.441 16940.608 12158.301 7218.691 8789.588 7032.758 3743.358 8028.128 8061.599 5533.020 4015.343 6743.727 4357.028 1496.536 8099.670 5227.273 14998.109 2628.611 7926.290 7918.470 6117.059 9963.538 5397.089 7203.908 7568.140 8667.683 8627.000 6278.975 3353.248 3966.256 3187.948 3718.683 4957.495 10866.388 9473.037 3748.915 7816.297 3551.873 8855.391 4059.655 6347.104 6879.946 6882.471 6176.179 10462.319 4705.739 4056.840 10962.220 17315.374 2416.415 7460.571 7412.275 3783.333 2719.784 4438.142 8657.297 1985.304 3854.363 10444.913 2231.756 2979.771 3975.736 5684.360 3252.518 7078.831 9227.797 0.000 13717.707 12946.554 8271.507 2105.080 10144.174 17640.988 6556.004 7435.171 14116.911 14354.751 11540.819 15603.453 4501.075 13806.283 15312.684 8096.530 1544.814 10027.517 2809.407 3931.448 13920.980 4574.216 3536.502 3004.473 3609.175 5072.955 1845.419 7154.384 9543.007
14165.234 13436.386 10911.845 11998.779 14249.005 20396.076 13343.183 1583.016 20932.521 10222.360 15111.505 17292.124 21488.502 16246.625 9751.616 17202.949 20319.676 16421.804 14619.402 21545.896 11027.944 23430.331 13539.781 21030.404 19536.847 8882.730 3899.273 15639.213 20908.758 19121.599 17261.928 22330.113 15716.805 12218.560 17085.003 11259.974 16871.176 8800.045 3754.268 4283.652 10208.687 21000.185 11810.075 22403.959 17103.483 8166.273 10450.346 15011.315 9096.390 22481.486 10684.686 10283.450 9091.623 29012.978 11306.952 21176.743 21108.766 10672.393 11598.207 16947.019 22117.501 12592.627 10588.262 10294.762 12427.551 11193.250 10333.407 12868.103 11018.593 9240.327 17166.533 13717.707 0.000 24102.826 8225.960 13619.531 10943.695 29386.102 16005.044 11053.242 4843.334 22145.513 10876.427 27076.234 11441.028 2575.105 24091.779 5621.268 12198.581 8142.093 11672.635 10262.489 12975.232 11291.563 15268.983 10771.755 11015.788 10169.407 14027.873 8564.360 11249.764
10467.090 13626.492 13399.066 12112.415 12234.331 17669.975 19273.685 22805.487 10353.115 14493.651 9052.482 9935.433 12545.931 8055.941 14422.236 9180.716 11804.932 8650.157 13437.890 7431.110 13113.826 5269.314 11385.155 6363.238 5044.708 15273.576 21159.547 8613.253 10593.594 5421.970 7090.474 10660.333 8395.244 12350.610 9163.641 13559.759 9398.254 16828.480 20424.710 20076.040 14749.392 6625.624 12713.183 7823.234 9031.548 16051.314 13715.565 9135.577 15032.291 2865.716 13579.440 16748.738 16664.364 4935.020 14492.502 10228.547 10740.058 13980.111 15583.654 8510.194 7356.795 12660.867 16621.627 15342.986 12693.593 15748.217 14333.473 18420.604 16029.631 19914.944 7473.109 12946.554 24102.826 0.000 20995.836 11595.946 14591.422 5315.308 18045.815 13256.448 22092.941 6112.419 15651.468 2978.650 17447.528 23008.631 4847.518 19145.573 13772.560 16824.627 15709.030 16561.176 16065.561 17520.004 9693.252 14653.782 16466.671 14059.855 11451.926 15545.934 13956.500
10628.573 7681.760 8457.885 10187.399 8980.575 12494.594 18045.379 6817.577 14737.267 11174.744 13326.594 11936.158 14654.790 14581.364 8144.372 12286.848 13731.086 12361.993 8430.291 16232.852 9210.124 22165.434 9653.600 16180.913 15960.138 7709.176 4775.164 12643.448 14642.158 15575.153 15477.011 15983.318 13219.993 8959.215 12235.416 7711.332 11988.178 4524.034 7723.598 5678.529 6609.551 16057.509 8692.240 16885.713 12323.598 7001.417 9960.267 13177.506 8034.172 18663.752 8430.232 4262.758 11903.682 25529.184 6512.789 15002.415 14785.972 7505.249 5553.024 12601.377 16768.782 8357.995 4426.601 12359.647 8355.330 5309.611 7208.364 4940.663 5030.306 1331.015 15765.827 8271.507 8225.960 20995.836 0.000 9403.331 12593.224 25863.521 8028.173 10844.544 11365.346 21221.095 13446.847 23764.476 4201.004 9786.091 22630.849 4715.634 7229.596 10553.996 5481.343 4438.524 16147.394 4065.627 11303.202 6441.096 4668.963 8182.583 9552.851 8440.830 12404.993
1444.101 2724.136 3132.233 3552.791 1777.503 11000.830 15210.875 12125.264 7842.384 7162.179 4936.209 3881.026 9130.260 5998.560 4393.949 3602.354 7764.413 3013.462 3501.256 7946.452 3670.306 13145.116 532.034 7424.211 6572.091 5163.416 10114.598 3451.408 7891.320 6180.233 6662.444 9273.212 4261.110 1726.301 3475.144 2362.524 3272.530 5343.022 10389.903 9341.372 3447.340 7384.169 2086.535 8838.131 3485.897 5643.148 5292.945 4784.695 5114.495 9362.771 3411.443 5176.847 9490.076 16206.648 2896.977 8046.470 8130.503 2971.984 4148.161 3400.112 8517.956 1096.973 5078.555 8798.745 1206.628 4232.746 3295.980 7611.500 4508.348 8359.797 7181.255 2105.080 13619.531 11595.946 9403.331 0.000 8408.022 16552.103 8660.882 5695.836 13292.419 12415.707 9838.044 14398.439 6153.186 13314.234 13512.838 8117.171 2218.804 8724.858 4312.265 4978.520 12081.862 6191.283 1904.590 3120.811 4986.413 3897.364 515.464 6043.987 7760.442
7693.671 10480.693 5785.731 4861.273 10102.911 19242.990 6808.159 10149.965 15803.917 1497.364 5985.264 11876.304 17402.060 6637.773 5092.203 11185.479 16022.294 9537.678 11638.418 14923.507 4930.696 12780.232 7936.898 13874.714 11138.540 5102.510 9622.709 7722.294 15906.414 10780.174 7530.414 17175.663 7170.287 6809.784 11017.201 7154.197 10930.404 8597.425 7308.287 8174.970 7360.093 13975.340 6593.131 15915.297 10931.651 5656.446 3316.078 5978.624 4821.762 13839.586 5574.107 10204.069 2118.600 19467.157 8730.659 15959.758 16159.245 6735.595 10368.719 10240.955 15436.421 8158.870 10384.727 759.843 7913.070 10096.211 6754.406 13974.838 10208.399 12377.372 7124.786 10144.174 10943.695 14591.422 12593.224 8408.022 0.000 19851.601 16157.796 2718.666 7706.529 11409.655 1442.008 17506.639 11995.049 9110.990 13501.023 8230.287 9058.328 2802.734 10578.096 9973.241 3866.146 11926.843 8769.232 8162.304 10663.177 5387.216 8906.538 4181.916 720.945
15550.382 18284.291 18605.512 17387.536 16923.028 20642.282 24144.273 28065.667 13365.180 19800.613 14366.348 14231.341 15226.456 13365.256 19671.623 13669.960 14903.742 13542.237 17875.026 10617.208 18372.315 8699.616 16407.999 10065.612 10020.451 20530.578 26358.188 13807.848 13591.222 10429.158 12389.714 13119.110 13669.345 17481.634 13695.457 18654.605 13942.352 21871.898 25723.907 25317.378 19841.486 10267.582 17860.321 10526.368 13590.009 21294.111 19024.373 14447.654 20299.037 7201.651 18799.403 21601.344 21940.066 384.520 19431.432 13162.162 13652.615 19115.951 20347.397 13262.534 10280.188 17642.316 21442.383 20607.285 17704.817 20559.430 19471.644 22809.739 20840.351 24712.266 12727.962 17640.988 29386.102 5315.308 25863.521 16552.103 19851.601 0.000 21928.748 18571.747 27397.777 10034.632 20859.276 2348.196 22088.538 28322.865 7950.809 24336.545 18650.666 22132.625 20448.764 21432.977 21059.632 22177.650 14657.824 19662.794 21238.985 19291.690 16337.634 20840.297 19231.719
10041.762 5980.715 10406.147 11747.283 6996.003 4467.945 22778.418 14478.718 8840.179 14694.400 13574.602 8170.657 7799.079 14553.576 11111.231 9052.568 7404.886 10297.189 5260.783 11330.543 11307.167 21040.959 9184.060 11918.960 13382.176 11345.970 12193.899 11797.332 8653.673 13130.411 15071.531 9665.162 12732.935 9698.756 9119.523 9039.039 8924.144 8368.276 14441.373 12497.386 8849.018 11695.636 9773.290 11589.287 9274.332 11158.568 12848.930 13426.233 11543.619 15243.439 10596.538 6467.651 16499.384 21664.807 7427.315 9088.707 8685.954 9422.368 5842.242 10056.178 11721.873 8334.364 6190.480 16302.429 8543.159 6172.353 9416.384 3139.353 6134.861 6824.712 15687.794 6556.004 16005.044 18045.815 8028.173 8660.882 16157.796 21928.748 0.000 13562.692 18140.286 20576.594 17453.899 20254.870 4785.899 17079.192 21242.804 11089.351 7181.709 15327.450 5642.961 6631.053 20020.255 4919.464 9828.827 8011.804 5796.726 10775.438 8359.230 12440.264 15647.816
5069.143 7793.789 3157.455 2166.997 7384.249 16537.982 9526.812 9934.788 13215.745 1552.740 4214.481 9251.079 14739.345 5241.566 2772.352 8619.467 13361.091 7071.750 8931.032 12553.965 2259.443 12439.455 5233.876 11604.442 9195.060 3146.039 8806.135 5456.774 13305.893 8803.388 6249.445 14608.973 5135.032 4093.079 8453.918 4523.882 8346.347 6500.512 7304.097 7459.609 4915.436 11675.342 3889.814 13537.125 8381.872 3918.021 884.492 4146.301 2817.956 12058.083 2982.278 7882.713 4011.014 18191.325 6164.689 13383.981 13556.556 4180.122 7854.868 7764.428 13088.933 5450.833 8023.103 3121.982 5207.045 7622.112 4265.665 11554.928 7767.233 10406.865 6113.889 7435.171 11053.242 13256.448 10844.544 5695.836 2718.666 18571.747 13562.692 0.000 8922.208 11220.710 4142.513 16231.250 9614.555 9758.509 13073.384 7038.889 6406.928 3687.647 8067.289 7641.424 6500.667 9563.505 6196.882 5647.990 8251.703 2920.225 6197.993 2707.132 2111.170
13338.706 14072.589 10182.548 10593.269 14454.129 22222.893 8559.074 5199.135 21109.451 7599.699 13115.746 17173.248 22142.823 14037.483 8906.741 16809.388 20838.737 15585.860 15360.842 21055.748 9884.129 20471.793 13031.121 20266.875 18097.894 8134.274 6625.731 14270.220 21141.049 17699.779 15008.130 22542.721 14047.041 11615.955 16661.833 11070.828 16492.468 9891.122 3732.466 5775.516 10372.204 20299.488 11223.852 22002.800 16634.298 7775.152 8669.049 13057.688 8181.159 20978.436 9906.737 11750.074 5593.718 27014.722 11818.719 21322.930 21371.803 10435.632 12755.928 16224.585 21616.195 12477.986 12049.403 6954.230 12253.533 12349.851 10182.435 15159.676 12276.118 11983.611 14711.160 14116.911 4843.334 22092.941 11365.346 13292.419 7706.529 27397.777 18140.286 8922.208 0.000 19082.053 7118.211 25049.987 13354.392 2271.341 21200.746 7087.649 12599.026 5271.671 12900.088 11629.825 8670.368 13221.418 14527.400 11169.750 12476.455 9402.279 13784.696 7286.352 8240.753
10983.992 15043.323 12793.912 11105.244 13754.572 21407.320 14363.590 21124.812 14687.664 11925.354 7894.564 12672.480 16946.853 6642.523 13378.976 11692.898 15883.710 10279.874 15383.014 12060.519 12139.575 1465.315 11990.533 10724.663 7702.002 14079.767 19997.258 8973.965 14911.856 7797.727 5796.245 15426.356 8174.898 12322.131 11590.388 13545.014 11749.323 16709.231 18401.023 18676.259 14612.406 10986.252 12549.426 12771.704 11429.589 14909.745 11972.081 8044.081 13768.992 7839.537 12859.221 17309.833 13497.792 9680.903 14987.707 14651.181 15119.718 13715.891 16510.353 10570.920 12217.933 13229.755 17290.071 12146.302 13145.195 16523.028 14017.472 20013.127 16779.897 20414.673 5455.773 14354.751 22145.513 6112.419 21221.095 12415.707 11409.655 10034.632 20576.594 11220.710 19082.053 0.000 12026.505 8004.288 18538.193 20499.400 2260.627 18140.318 14551.729 14113.189 16690.264 17078.193 11540.133 18563.104 10839.116 14875.423 17288.963 13196.904 12531.185 13907.050 10969.594
9135.512 11854.842 7142.368 6296.890 11520.302 20629.146 5399.922 10276.726 17240.910 2772.989 7296.775 13317.529 18844.007 7836.151 6345.305 12621.421 17464.253 10960.837 13031.695 16318.041 6315.001 13443.605 9371.613 15246.178 12430.401 6231.630 10072.539 9115.733 17344.860 12083.971 8669.924 18609.281 8520.865 8221.507 12452.909 8501.639 12368.509 9677.243 7438.172 8625.083 8615.825 15354.234 7989.581 17310.619 12365.694 6677.709 4672.372 7303.913 5981.580 15064.353 6916.806 11369.664 1807.864 20474.946 10033.430 17395.056 17597.887 8049.121 11633.356 11664.678 16824.781 9556.806 11569.063 1160.003 9309.255 11341.054 8037.654 15169.137 11435.127 13345.143 8187.428 11540.819 10876.427 15651.468 13446.847 9838.044 1442.008 20859.276 17453.899 4142.513 7118.211 12026.505 0.000 18524.290 13177.690 8801.943 14193.704 8906.418 10409.675 3037.014 11839.893 11146.240 2712.701 13100.732 10207.417 9442.534 11871.106 6684.264 10338.939 5215.492 2141.919
13338.265 16264.572 16337.869 15081.576 14885.406 19351.307 21905.348 25770.551 11980.557 17453.332 12030.184 12339.952 14007.467 11019.039 17381.330 11696.604 13506.463 11405.874 15947.636 9102.726 16076.440 6776.629 14224.578 8338.233 7830.316 18236.146 24097.733 11541.860 12216.301 8230.335 10041.859 11957.995 11362.741 15250.250 11705.298 16441.648 11949.057 19686.590 23402.268 23033.020 17631.090 8568.343 15621.620 9200.512 11588.428 19008.007 16694.215 12113.988 17998.788 5153.610 16524.811 19503.664 19593.235 1964.767 17291.209 11806.042 12313.620 16883.871 18287.038 11181.277 8858.728 15479.780 19358.772 18261.815 15529.023 18478.456 17238.735 20919.746 18760.136 22644.226 10382.215 15603.453 27076.234 2978.650 23764.476 14398.439 17506.639 2348.196 20254.870 16231.250 25049.987 8004.288 18524.290 0.000 20086.179 25985.559 6094.263 22079.553 16536.100 19785.490 18399.225 19326.353 18780.392 20168.119 12495.376 17491.021 19176.653 17010.971 14213.998 18522.118 16884.762
7562.158 3824.608 6565.847 8198.594 5213.820 9003.067 18365.750 9878.210 10539.985 10498.647 10817.807 7934.893 10495.034 11995.285 6918.153 8418.767 9536.555 8839.833 4320.977 12142.789 7478.432 19297.225 6551.108 12203.001 12418.012 6948.095 7560.189 9600.802 10442.399 12063.866 12751.913 11782.632 10363.299 6393.501 8394.543 5341.038 8148.259 3666.152 9659.123 7738.033 4699.352 12057.445 6291.710 12750.256 8504.204 6608.518 8797.435 10661.909 7197.578 14936.583 6677.818 1816.196 12029.068 21770.094 3676.681 10805.507 10585.083 5489.556 2030.488 8938.163 12664.669 5315.042 1610.648 12018.070 5420.264 2086.716 5355.215 1995.891 1881.100 2878.852 13199.837 4501.075 11441.028 17447.528 4201.004 6153.186 11995.049 22088.538 4785.899 9614.555 13354.392 18538.193 13177.690 20086.179 0.000 12337.313 19664.050 6314.771 3987.062 10785.495 1848.002 2032.339 15839.729 150.651 7924.915 4028.118 1371.664 6696.414 6131.712 7999.125 11583.848
13603.387 13650.232 10335.312 11094.765 14240.031 21329.232 10808.139 3158.781 20973.936 8664.586 13956.519 17145.345 21790.262 14995.805 9078.607 16908.651 20540.917 15884.729 14907.670 21235.469 10236.428 21843.116 13136.266 20571.789 18712.729 8227.872 5028.739 14813.739 20979.714 18303.171 15998.134 22399.373 14736.494 11740.272 16773.736 10981.641 16581.335 9163.399 2944.263 4606.199 10094.760 20574.585 11331.636 22146.099 16767.940 7671.564 9314.990 13876.572 8361.767 21643.253 10076.127 10902.397 7096.401 27943.397 11412.749 21203.288 21197.542 10353.204 12069.606 16475.604 21804.737 12383.225 11210.748 8400.511 12182.933 11656.041 10051.190 13999.684 11534.666 10581.316 15799.294 13806.283 2575.105 23008.631 9786.091 13314.234 9110.990 28322.865 17079.192 9758.509 2271.341 20499.400 8801.943 25985.559 12337.313 0.000 22541.763 6052.942 12261.670 6393.214 12184.560 10824.332 10669.862 12194.803 14767.674 10802.105 11646.761 9551.307 13774.030 7616.539 9531.080
12129.768 16012.382 14317.473 12696.445 14662.644 21610.453 16620.887 23008.170 14557.885 13906.887 9404.252 13133.595 16815.836 8148.456 15030.241 12204.031 15883.915 11038.449 16183.724 11748.691 13747.671 798.947 13141.739 10492.562 7930.985 15781.040 21756.299 10079.810 14792.758 8136.634 7188.815 15103.813 9416.888 13672.065 12128.146 14919.624 12319.128 18166.667 20338.080 20479.891 16042.391 10763.124 13944.050 12322.246 11971.718 16610.481 13770.664 9542.404 15482.545 7208.202 14415.338 18580.636 15607.385 7614.347 16241.738 14481.139 14976.005 15164.617 17659.281 11196.160 11801.235 14425.064 18528.657 14248.373 14373.873 17718.550 15486.442 20995.726 17986.671 21738.611 7048.973 15312.684 24091.779 4847.518 22630.849 13512.838 13501.023 7950.809 21242.804 13073.384 21200.746 2260.627 14193.704 6094.263 19664.050 22541.763 0.000 19845.511 15711.768 16148.724 17825.102 18358.861 13793.590 19704.019 11780.599 16207.802 18481.143 14797.848 13549.932 15713.319 13019.743
8839.449 7824.000 5747.151 7187.207 8634.784 15284.475 13334.659 4065.717 15311.606 6938.670 10482.534 11695.245 15915.822 11717.803 4828.877 11656.595 14722.034 11028.097 9027.287 15984.245 6136.786 19271.291 8102.495 15539.017 14344.846 4066.726 2024.292 10537.806 15289.189 13930.874 12710.928 16711.059 10804.944 6881.186 11547.030 5794.465 11325.251 3200.318 3361.517 1454.402 4670.648 15491.562 6489.761 16822.163 11576.783 3236.212 6212.447 10355.567 4372.477 17262.868 5576.597 4853.505 7271.499 23973.718 5687.426 15555.552 15490.621 5260.916 6069.469 11499.492 16554.719 7055.113 5162.348 7882.234 6911.648 5657.286 4906.928 8074.713 5513.811 5020.240 12797.154 8096.530 5621.268 19145.573 4715.634 8117.171 8230.287 24336.545 11089.351 7038.889 7087.649 18140.318 8906.418 22079.553 6314.771 6052.942 19845.511 0.000 6580.854 5925.423 6168.755 4785.804 11568.788 6176.107 9868.286 5166.924 5598.505 5121.019 8492.291 4352.327 8178.330
3585.899 1520.247 3272.649 4577.142 2057.473 10259.822 15795.969 10646.356 8752.495 7637.019 6862.956 5146.109 9558.939 8019.513 4192.810 5243.888 8284.664 5132.404 2804.341 9484.932 4147.722 15326.888 2572.777 9189.111 8732.542 4685.842 8481.012 5633.404 8742.578 8350.595 8764.982 10165.545 6376.941 2565.436 5161.946 1908.068 4922.321 3495.128 9322.294 7941.821 2228.202 9105.079 2595.925 10283.618 5224.659 4845.673 5744.730 6707.205 4781.872 11449.067 3492.900 2976.289 9678.987 18312.388 897.090 8991.593 8953.183 2414.098 1958.806 5394.791 10050.441 1333.680 2862.897 9281.389 1468.739 2014.462 2540.432 5605.555 2289.549 6151.498 9221.929 1544.814 12198.581 13772.560 7229.596 2218.804 9058.328 18650.666 7181.709 6406.928 12599.026 14551.729 10409.675 16536.100 3987.062 12261.670 15711.768 6580.854 0.000 8668.123 2140.036 2791.131 12898.603 4011.862 4090.406 1459.672 2771.611 3772.257 2323.310 5756.112 8509.587
8458.978 10184.750 5640.537 5564.729 10184.673 18883.427 7628.380 7368.738 16524.666 2332.473 7850.209 12532.730 17841.916 8768.694 4495.222 12022.483 16483.364 10613.973 11450.207 16119.386 5074.811 15450.470 8360.861 15229.077 12882.353 4025.151 7036.266 9121.378 16589.411 12491.034 9745.316 17945.186 8821.727 6998.995 11863.738 6840.200 11725.074 7147.118 4520.187 5588.169 6577.582 15285.858 6659.484 17091.395 11812.223 4183.915 3591.492 7796.351 3889.734 15736.235 5367.133 8974.494 1350.154 21749.957 8093.981 16714.229 16833.202 6264.067 9503.518 11287.072 16666.066 8136.837 9214.038 2192.916 7889.614 9157.336 6133.516 12775.233 9195.673 10573.626 9477.056 10027.517 8142.093 16824.627 10553.996 8724.858 2802.734 22132.625 15327.450 3687.647 5271.671 14113.189 3037.014 19785.490 10785.495 6393.214 16148.724 5925.423 8668.123 0.000 9695.316 8774.231 5648.365 10689.275 9639.029 7445.404 9569.087 4957.631 9239.394 2927.609 3144.872
5715.038 2200.433 4936.521 6484.659 3526.328 9356.031 17140.959 10089.717 9508.893 9097.516 8987.169 6458.818 9831.384 10155.226 5496.499 6817.436 8713.890 7069.094 3077.720 10777.922 5856.353 17452.639 4703.506 10699.638 10667.154 5703.119 7791.975 7755.920 9446.446 10302.423 10904.919 10842.785 8515.390 4597.086 6773.320 3630.402 6525.615 3030.451 9338.011 7620.559 3224.301 10576.661 4532.727 11467.669 6868.706 5548.771 7298.582 8831.268 5902.552 13264.816 5087.243 1426.799 10856.639 20121.952 1935.676 9767.752 9620.360 3887.423 212.929 7220.055 11321.856 3470.658 1150.556 10683.755 3584.331 555.354 3826.427 3553.311 656.139 4270.177 11358.780 2809.407 11672.635 15709.030 5481.343 4312.265 10578.096 20448.764 5642.961 8067.289 12900.088 16690.264 11839.893 18399.225 1848.002 12184.560 17825.102 6168.755 2140.036 9695.316 0.000 1411.608 14443.887 1879.446 6112.946 2422.902 815.274 5195.747 4316.181 6798.336 10107.558
6257.633 3430.755 4679.324 6376.219 4616.621 10593.238 16338.866 8679.492 10877.209 8476.066 9231.064 7668.017 11242.296 10454.989 4912.372 7919.972 10116.601 7923.527 4449.843 12018.677 5570.999 17935.413 5261.375 11850.951 11522.918 4915.916 6380.374 8298.713 10822.380 11139.521 11286.122 12225.795 8951.707 4764.494 7856.226 3585.802 7610.855 1749.843 8013.103 6240.091 2753.739 11745.609 4580.869 12746.122 7934.718 4591.223 6806.900 9076.721 5167.596 14231.684 4757.892 245.783 10005.295 21096.643 2120.379 11133.739 11001.758 3606.217 1359.110 8171.059 12571.774 3961.639 442.495 9986.801 3989.587 986.126 3421.270 4027.236 764.288 3392.250 11658.834 3931.448 10262.489 16561.176 4438.524 4978.520 9973.241 21432.977 6631.053 7641.424 11629.825 17078.193 11146.240 19326.353 2032.339 10824.332 18358.861 4785.804 2791.131 8774.231 1411.608 0.000 13812.061 1955.388 6871.801 2229.284 848.474 4722.711 5114.436 5968.283 9576.662
11190.276 14294.133 9630.554 8543.287 13823.001 23022.611 3387.525 12579.700 19104.063 5350.597 8709.717 15296.149 20858.776 8891.899 8954.077 14508.733 19483.519 12749.492 15417.445 17855.146 8753.865 13004.115 11583.281 16678.002 13595.171 8908.840 12619.475 10769.131 19230.739 13298.395 9523.026 20419.538 10012.231 10568.394 14339.134 11001.362 14289.303 12375.716 9804.566 11187.100 11224.343 16820.454 10387.117 18842.651 14233.004 9383.406 7171.926 8760.986 8645.492 15955.941 9428.007 14039.334 4316.776 20680.130 12594.177 19233.653 19485.733 10598.162 14234.657 13446.461 18323.291 11941.328 14229.186 3849.921 11700.195 13959.825 10620.550 17825.339 14068.060 16057.819 8879.907 13920.980 12975.232 16065.561 16147.394 12081.862 3866.146 21059.632 20020.255 6500.667 8670.368 11540.133 2712.701 18780.392 15839.729 10669.862 13793.590 11568.788 12898.603 5648.365 14443.887 13812.061 0.000 15767.399 12157.502 12028.428 14517.264 9253.142 12561.201 7915.387 4390.802
7593.144 3903.733 6530.259 8174.744 5289.134 9148.629 18276.499 9729.241 10672.719 10429.905 10825.719 8037.511 10639.884 12009.049 6856.424 8509.050 9676.641 8903.574 4433.397 12257.115 7440.216 19331.891 6580.958 12305.713 12487.167 6869.552 7411.637 9635.210 10576.590 12130.659 12773.809 11919.613 10388.589 6390.822 8482.415 5321.267 8235.765 3559.810 9523.061 7596.908 4650.427 12162.213 6279.609 12870.500 8590.357 6516.076 8741.283 10669.866 7122.938 15020.133 6636.559 1731.827 11938.254 21858.015 3668.693 10938.075 10720.612 5452.781 2053.075 9012.355 12780.798 5335.174 1544.899 11941.482 5434.030 2079.278 5309.646 2086.170 1859.633 2746.871 13214.249 4574.216 11291.563 17520.004 4065.627 6191.283 11926.843 22177.650 4919.464 9563.505 13221.418 18563.104 13100.732 20168.119 150.651 12194.803 19704.019 6176.107 4011.862 10689.275 1879.446 1955.388 15767.399 0.000 7976.978 3998.040 1342.641 6643.869 6181.848 7914.858 11522.521
1190.039 4234.427 4432.840 4091.438 2915.634 11501.798 15436.540 13813.163 7035.405 7746.844 3993.046 3138.910 8701.304 4784.929 5693.124 2423.483 7326.297 1159.893 4576.810 6528.553 4646.520 11461.657 1773.214 5805.306 4667.684 6539.879 11884.430 1980.983 7137.444 4275.782 5242.962 8416.638 2944.861 3054.946 2257.289 4076.834 2161.174 7218.092 11889.815 11019.957 5238.229 5807.991 3465.493 7481.438 2186.826 7147.680 6054.262 3866.215 6416.591 7478.878 4691.930 7064.342 10190.498 14310.337 4801.295 7195.309 7390.520 4617.317 5965.911 1708.695 7088.917 2985.847 6951.501 9287.836 3049.805 6089.973 4967.229 9220.485 6369.343 10241.888 5876.100 3536.502 15268.983 9693.252 11303.202 1904.590 8769.232 14657.824 9828.827 6196.882 14527.400 10839.116 10207.417 12495.376 7924.915 14767.674 11780.599 9868.286 4090.406 9639.029 6112.946 6871.801 12157.502 7976.978 0.000 5005.013 6829.720 5216.433 1796.779 7250.350 8066.792
4207.705 2903.099 2542.502 4180.882 3481.545 11441.752 14775.257 9229.900 10204.017 6687.991 7010.074 6528.359 11009.851 8241.628 3099.852 6525.775 9742.237 6132.815 4193.137 10830.549 3459.889 15762.975 3269.354 10448.209 9660.874 3420.522 7107.699 6204.290 10197.550 9261.338 9092.182 11620.192 6790.969 2553.433 6426.214 1356.735 6196.557 2223.630 7863.263 6502.422 868.056 10383.437 2352.058 11657.840 6469.323 3459.117 4875.915 6856.319 3574.365 12480.171 2673.690 2470.681 8540.782 19314.867 661.811 10441.069 10409.742 1473.827 2211.482 6504.877 11399.784 2024.449 2516.144 8290.628 1962.223 1979.769 1408.056 5921.216 2149.384 5542.749 9443.146 3004.473 10771.755 14653.782 6441.096 3120.811 8162.304 19662.794 8011.804 5647.990 11169.750 14875.423 9442.534 17491.021 4028.118 10802.105 16207.802 5166.924 1459.672 7445.404 2422.902 2229.284 12028.428 3998.040 5005.013 0.000 2657.310 2775.853 3410.980 4518.352 7684.990
6351.924 3013.692 5194.186 6832.197 4323.094 9747.437 17104.663 9433.735 10289.589 9169.217 9513.150 7273.852 10540.266 10708.515 5575.316 7622.646 9454.901 7818.269 3867.031 11592.502 6107.046 18089.273 5339.473 11512.247 11422.251 5657.134 7120.693 8401.478 10221.411 11051.906 11493.976 11610.406 9121.451 5063.187 7575.418 3979.040 7327.826 2597.952 8851.291 7052.288 3336.951 11390.518 4941.223 12278.583 7668.026 5386.290 7442.073 9357.480 5891.269 14049.280 5307.550 745.069 10781.298 20910.186 2338.025 10549.861 10390.362 4118.020 891.636 7995.387 12135.816 4065.316 436.161 10711.153 4144.039 766.022 3988.414 3313.674 520.126 3473.355 11914.565 3609.175 11015.788 16466.671 4668.963 4986.413 10663.177 21238.985 5796.726 8251.703 12476.455 17288.963 11871.106 19176.653 1371.664 11646.761 18481.143 5598.505 2771.611 9569.087 815.274 848.474 14517.264 1342.641 6829.720 2657.310 0.000 5336.890 5036.874 6728.978 10236.503
4055.763 5268.333 787.522 2102.053 5236.539 14032.077 12046.628 8788.064 11736.468 3919.174 5397.606 7776.853 12927.733 6649.568 496.601 7417.320 11582.469 6337.379 6512.962 11707.962 1057.332 14255.810 3632.149 11020.665 9372.273 1324.203 7114.330 5490.624 11780.309 8956.734 7625.008 13168.338 5689.587 2217.182 7273.487 1892.159 7097.047 3699.062 6685.446 6025.974 2000.492 11023.944 1821.612 12636.609 7254.350 2008.725 2108.469 5264.010 1221.568 12315.320 525.490 4964.763 5911.376 18924.026 3349.914 11942.760 12016.915 1369.780 4985.317 6924.640 12274.578 3190.396 5102.903 5540.001 2946.675 4727.387 1369.323 8645.942 4859.318 7607.916 7773.891 5072.955 10169.407 14059.855 8182.583 3897.364 5387.216 19291.690 10775.438 2920.225 9402.279 13196.904 6684.264 17010.971 6696.414 9551.307 14797.848 5121.019 3772.257 4957.631 5195.747 4722.711 9253.142 6643.869 5216.433 2775.853 5336.890 0.000 4398.016 2152.110 4914.386
1682.894 2517.825 3638.668 4046.857 1383.532 10558.992 15705.708 12521.153 7338.506 7671.671 5215.728 3391.198 8614.859 6219.680 4894.289 3175.144 7248.967 2809.163 3137.812 7520.115 4185.694 13209.723 977.928 7053.004 6410.139 5651.653 10475.365 3561.174 7384.317 6030.276 6824.474 8770.327 4433.688 2240.434 3058.436 2797.540 2843.408 5629.871 10843.463 9745.355 3826.435 6999.984 2594.847 8396.414 3084.527 6107.648 5806.327 5067.954 5611.839 9137.525 3917.907 5297.746 10004.644 15997.199 3099.668 7545.118 7622.454 3421.249 4169.765 3105.697 8091.881 1438.005 5171.434 9305.530 1604.117 4302.969 3732.641 7483.940 4583.487 8464.750 7382.769 1845.419 14027.873 11451.926 9552.851 515.464 8906.538 16337.634 8359.230 6197.993 13784.696 12531.185 10338.939 14213.998 6131.712 13774.030 13549.932 8492.291 2323.310 9239.394 4316.181 5114.436 12561.201 6181.848 1796.779 3410.980 5036.874 4398.016 0.000 6547.582 8253.704
6065.026 7275.740 2913.288 3487.858 7366.508 15955.972 10375.783 7338.894 13885.784 2734.932 6551.719 9918.988 15070.428 7711.200 1658.585 9524.794 13729.346 8330.347 8550.594 13775.361 2632.447 15099.043 5754.026 13022.987 11105.190 1100.385 6100.603 7200.732 13931.284 10694.005 8726.016 15317.059 7179.570 4341.942 9376.342 3973.604 9209.400 4461.837 4886.524 4771.827 3650.835 13043.569 3959.724 14718.389 9347.972 1476.405 1942.744 6448.795 978.396 14042.605 2634.655 6183.835 4060.377 20465.193 5166.379 14090.441 14168.344 3371.907 6602.098 8953.825 14337.791 5328.162 6400.061 4065.708 5088.162 6269.161 3216.140 9994.914 6326.908 8195.660 8692.803 7154.384 8564.360 15545.934 8440.830 6043.987 4181.916 20840.297 12440.264 2707.132 7286.352 13907.050 5215.492 18522.118 7999.125 7616.539 15713.319 4352.327 5756.112 2927.609 6798.336 5968.283 7915.387 7914.858 7250.350 4518.352 6728.978 2152.110 6547.582 0.000 3964.920
7003.556 9904.761 5245.801 4207.736 9474.311 18646.420 7452.328 10371.546 15099.412 1243.293 5277.562 11181.386 16715.981 5966.087 4666.108 10479.689 15336.110 8822.584 11039.314 14202.836 4363.371 12314.111 7279.997 13154.197 10431.775 4785.557 9685.110 7001.415 15204.122 10070.750 6878.430 16467.396 6452.996 6195.324 10311.131 6616.463 10227.696 8278.554 7555.466 8250.731 6909.264 13254.486 6000.600 15194.689 10223.775 5413.496 2809.100 5267.382 4484.493 13149.663 5051.440 9812.210 2708.593 18847.489 8230.245 15253.181 15457.290 6234.868 9896.415 9526.154 14715.516 7559.788 9977.645 1407.244 7316.812 9641.500 6282.704 13549.867 9768.218 12116.778 6505.950 9543.007 11249.764 13956.500 12404.993 7760.442 720.945 19231.719 15647.816 2111.170 8240.753 10969.594 2141.919 16884.762 11583.848 9531.080 13019.743 8178.330 8509.587 3144.872 10107.558 9576.662 4390.802 11522.521 8066.792 7684.990 10236.503 4914.386 8253.704 3964.920 0.000
NODE_COORD_SECTION
1 -2164.012052 1974.697434
2 -3261.241105 5981.580209
3 743.638847 3490.599941
4 759.225770 1751.716619
5 -3657.168894 4645.217194
6 -10782.804191 10510.167579
7 11226.683960 -3383.077759
8 8044.780193 9581.494137
9 -10225.782234 3153.303468
10 4384.984484 1070.624713
11 -666.347884 -1225.061698
12 -6239.692877 2930.667729
13 -11355.148934 5116.004061
14 -1013.046561 -2437.586789
15 1991.560331 3764.958280
16 -5734.279999 2069.195460
17 -10045.510430 4681.385623
18 -4237.895353 1023.120904
19 -4540.807800 6162.098120
20 -9691.970864 272.811020
21 1215.503948 2700.873647
22 -3273.849433 -9713.759909
23 -2059.465750 2982.418218
24 -8643.124368 -596.555397
25 -5714.283701 -2266.351279
26 2703.061805 4266.778796
27 5726.373021 9440.715680
28 -2496.353346 -48.258176
29 -10278.633049 3387.964757
30 -5399.365487 -1995.135541
31 -1659.138693 -3221.103177
32 -11652.570886 3017.154758
33 -1914.437896 -833.361312
34 -668.293612 3243.156408
35 -5573.687984 2014.448806
36 -258.533759 4426.011804
37 -5440.420576 2223.269308
38 1153.097953 7403.088491
39 7431.610440 6798.280921
40 5749.859244 7989.181118
41 418.193697 5404.730317
42 -8749.204791 -347.229061
43 -300.950770 3427.363678
44 -10681.848998 349.637095
45 -5515.936599 1864.137561
46 3013.513300 5037.297233
47 2716.784870 2000.235272
48 -685.286519 -1070.303253
49 2698.926879 3938.188196
50 -8060.090251 -4047.142884
51 1022.877510 3493.434809
52 -552.300112 8242.133380
53 6843.459674 1198.208600
54 -11628.294188 -9912.472137
55 -1005.152354 5947.419666
56 -10422.392185 2973.221091
57 -10517.471674 3477.428645
58 372.994060 4502.940096
59 -1752.585033 7500.737424
60 -4931.253368 1145.504705
61 -10210.127957 31.069178
62 -1654.367139 4217.591190
63 -861.336066 8245.297970
64 5838.762570 279.021854
65 -1421.721452 4125.004463
66 -1338.985403 7502.296504
67 613.003410 4765.802874
68 -3217.499315 10967.519386
69 -1212.333989 7753.966860
70 468.857797 11258.171855
71 -995.079426 -3643.575960
72 -3328.784490 5284.248744
73 9602.936086 9860.938536
74 -7724.681188 -6893.162319
75 1634.084401 11901.481293
76 -2387.324113 3401.427500
77 5224.997560 -168.922327
78 -11964.965071 -10098.235675
79 -6354.033152 11100.524155
80 2833.143019 1123.429973
81 10787.620895 5164.727143
82 -1989.744003 -9007.911965
83 6603.052909 -593.599466
84 -9991.941108 -8824.971475
85 -1833.293481 9529.620425
86 10316.482104 7386.666941
87 -4014.612134 -10013.069492
88 4295.588642 8008.719199
89 -1805.735984 5542.653163
90 6282.892164 2426.492229
91 -1864.501466 7681.881852
92 -490.212958 8004.321421
93 7861.246625 -2996.867263
94 -1684.418333 9552.680580
95 -3332.209827 1747.748381
96 -365.250422 5778.542802
97 -1296.948302 8267.164491
98 1496.994339 3720.047074
99 -2895.028816 3490.529819
100 3649.049920 3704.681516
101 4504.055624 -166.953344
DEMAND_SECTION
1 0
2 6
3 7
4 92
5 9
6 2
7 9
8 82
9 10
10 9
11 9
12 4
13 4
14 5
15 5
16 7
17 10
18 8
19 8
20 9
21 75
22 4
23 5
24 90
25 6
26 1
27 2
28 5
29 8
30 8
31 10
32 7
33 8
34 3
35 4
36 6
37 9
38 5
39 10
40 3
41 2
42 8
43 9
44 7
45 7
46 6
47 2
48 63
49 3
50 3
51 10
52 7
53 8
54 4
55 6
56 6
57 7
58 71
59 7
60 9
61 3
62 3
63 1
64 51
65 7
66 9
67 8
68 5
69 5
70 8
71 4
72 55
73 4
74 8
75 1
76 4
77 8
78 3
79 8
80 10
81 4
82 5
83 2
84 9
85 9
86 7
87 3
88 2
89 1
90 75
91 6
92 74
93 10
94 10
95 4
96 2
97 4
98 2
99 7
100 7
101 4
DEPOT_SECTION
1
-1
EOF
