NAME : poryos-san_francisco-n50-hyb
COMMENT : Poryos2026 shortest metric; city san_francisco; 3-decimal seconds/meters; ENU ref in poryos-san_francisco-n50-hyb.vrp.json
TYPE : CVRP
DIMENSION : 51
EDGE_WEIGHT_TYPE : EXPLICIT
EDGE_WEIGHT_FORMAT : FULL_MATRIX
CAPACITY : 217
EDGE_WEIGHT_SECTION
0.000 710.123 2620.171 3650.355 10665.062 18986.877 1741.016 3082.199 18000.262 3185.835 4509.036 830.240 22044.784 6414.443 4860.991 1573.366 8873.420 1874.941 6348.368 3457.715 2652.825 10227.158 1918.000 2753.404 15891.133 13794.869 2242.597 15112.616 16127.866 3447.180 15574.567 1632.899 3482.834 983.017 7707.472 2306.078 13120.818 15650.713 2590.840 5579.022 17770.670 13156.450 2906.066 13074.418 17939.312 5225.294 14830.092 15184.367 3122.260 18262.254 3286.395
631.044 0.000 2702.296 3843.937 10858.644 19070.450 1819.456 2986.737 18083.834 2475.741 4702.618 958.012 21335.515 5772.849 4219.397 1416.844 9067.002 1957.568 5706.775 3651.297 2470.299 10420.740 1996.440 2853.516 16084.715 13878.441 2460.928 15196.189 16321.448 3945.011 15768.149 1826.481 3050.878 693.233 7065.878 2313.444 13204.391 15844.295 2408.314 6209.715 17854.242 13350.032 2989.639 13268.000 18132.894 5418.876 15023.674 15377.949 3345.749 18345.827 3784.227
2359.537 2012.526 0.000 5075.342 12278.958 17280.924 563.773 2026.835 16294.309 3709.435 6122.933 2541.747 22507.164 7785.375 6082.663 1259.480 10487.317 519.284 7719.301 4882.702 1802.220 11841.055 887.122 1496.145 17203.358 12088.916 1411.338 13406.663 17440.091 3788.975 16886.792 2843.499 5063.404 2699.758 8678.772 4162.343 11414.865 16962.938 2083.447 5833.007 16064.717 14468.675 905.755 14386.643 18867.472 6423.568 16142.317 16496.592 2723.325 16556.301 3684.508
3492.178 4165.369 5391.216 0.000 7891.281 21337.373 4914.950 6256.133 20350.757 5424.267 1366.869 3312.627 23755.548 7964.709 6413.084 4747.300 6099.639 4819.632 7871.025 254.679 5826.759 7353.889 5091.934 4812.410 12303.080 16145.364 4658.143 17463.112 12539.813 3894.076 11986.514 2680.857 4982.174 3453.557 9216.565 4030.183 15471.314 12062.660 5764.775 4387.239 20121.165 9568.397 5370.099 9486.365 15324.488 2411.205 11242.039 11596.314 4660.223 20612.749 3935.007
10427.651 11100.842 12622.467 7912.965 0.000 28721.047 11850.423 13191.605 27734.431 12359.739 6510.615 10248.100 23163.005 5845.410 7670.978 11682.773 1914.097 11955.850 5941.149 8063.079 12762.232 4328.069 12027.407 12196.084 10900.195 23529.038 12041.817 24846.786 12165.640 11504.557 8674.903 9912.108 8525.499 10389.030 5534.027 9134.591 22854.988 10659.776 12700.247 11117.056 27504.839 8549.921 12743.118 6698.979 17451.889 9076.359 10305.177 10193.429 12175.043 27996.424 11472.780
18995.131 19117.739 17120.852 21087.367 28475.476 0.000 17684.626 19147.688 2842.067 20830.287 22319.450 19165.630 39628.017 24890.589 23203.516 18374.884 26683.834 17390.162 24824.514 20895.116 18923.072 28037.572 18007.974 17673.796 33181.805 7785.994 17574.591 9103.742 33418.538 19875.423 32865.240 18988.578 21974.693 19391.679 25799.624 20797.937 8504.889 32941.386 19204.299 21996.261 1477.108 30447.122 17054.022 30365.090 34406.858 21900.877 32120.764 32475.040 18886.579 2872.850 19714.639
1911.288 1562.813 1056.833 4818.090 11832.797 17519.260 0.000 1646.775 16532.644 3329.374 5676.772 2095.586 22127.104 7335.662 5617.623 809.766 10041.155 575.760 7269.587 4625.450 1422.159 11394.893 506.703 1471.708 17058.868 12327.251 1359.867 13644.999 17295.601 3750.141 16742.303 2781.096 4613.690 2250.045 8298.353 3714.094 11653.201 16818.449 1703.386 5794.172 16303.052 14324.185 1355.574 14242.153 18828.638 6365.608 15997.827 16352.103 2684.490 16794.637 3632.455
2852.359 2304.533 2186.904 5759.162 12773.868 18797.937 1406.258 0.000 17811.321 2212.984 6617.843 3036.657 21010.714 7845.614 5925.442 1551.487 10982.227 1885.878 7779.540 5566.522 305.769 12335.964 1058.397 2781.826 17999.940 13605.928 2523.370 14923.676 18236.673 4757.739 17683.374 3731.573 5262.915 2997.766 8311.560 4592.248 12931.878 17759.520 586.996 7007.655 17581.729 15265.256 2491.591 15183.224 19863.836 7316.944 16938.898 17293.174 3898.103 18073.314 4596.955
18636.361 18758.969 16762.082 20728.596 28116.705 2772.863 17325.856 18788.918 0.000 20471.517 21960.680 18806.860 39269.247 24531.818 22844.745 18016.113 26325.064 17031.391 24465.744 20536.346 18564.302 27678.802 17649.204 17315.026 32823.035 6618.287 17215.821 7751.579 33059.768 19516.653 32506.470 18629.807 21615.923 19032.909 25440.854 20439.167 7329.589 32582.616 18845.529 21637.491 1429.484 30088.352 16695.252 30006.320 34048.088 21542.106 31761.994 32116.270 18527.809 329.936 19355.869
2860.004 2731.702 3829.154 5397.771 12412.478 20440.187 3048.508 2201.215 19453.572 0.000 6256.452 2690.043 19241.200 6874.147 4953.974 3080.539 10620.836 3528.128 6808.072 5205.131 1684.776 11974.574 2700.647 4424.076 17638.549 15248.178 4165.620 16565.926 17875.282 6173.972 17321.983 3639.032 4294.985 2034.449 7340.092 3625.347 14574.128 17398.129 1702.617 8438.675 19223.980 14903.866 4133.842 14821.834 19968.950 7106.024 16577.508 16931.783 5427.155 19715.564 6013.187
4293.849 4967.040 6488.666 1402.350 6524.412 22587.245 5716.621 7057.804 21600.630 6225.938 0.000 4114.298 22993.936 7080.698 5532.934 5548.971 4732.770 5822.048 6987.015 1552.463 6628.430 5987.019 5893.605 6062.282 11910.988 17395.237 5908.015 18712.984 12147.721 4998.771 11594.423 3778.306 4202.533 4255.228 8327.626 3425.953 16721.186 11670.569 6566.446 5138.579 21371.038 9176.305 6609.316 9094.273 15731.153 3097.882 10849.947 11204.223 5958.006 21862.622 5051.408
554.679 889.660 2989.023 3341.385 10356.092 19355.729 2107.957 3373.007 18369.113 2778.462 4200.066 0.000 21637.149 6005.896 4452.444 1803.418 8564.450 2243.793 5939.821 3148.745 2856.568 9918.188 2284.941 3127.854 15582.163 14163.720 2617.048 15481.468 15818.896 3867.817 15265.597 1324.118 3074.123 575.382 7298.925 1897.367 13489.670 15341.743 2794.584 6133.702 18139.521 12847.480 3274.918 12765.448 17654.036 4916.513 14521.122 14875.397 3500.044 18631.105 3707.033
21866.424 21738.512 22897.660 23778.517 23034.771 39508.693 22117.014 21269.721 38522.077 19117.515 22992.137 21686.874 0.000 18076.435 18231.864 22149.045 22474.343 22596.634 18120.160 23587.201 20753.282 24541.538 21769.153 23492.582 31407.198 34316.684 23234.126 35634.432 32713.967 25178.532 31148.815 22634.832 19385.704 21029.127 17770.106 19820.814 33642.634 31166.778 20771.123 27445.447 38292.485 29056.923 23202.347 27977.028 38000.216 26072.332 30812.180 30700.432 24495.661 38784.070 25017.747
6365.537 6248.691 8448.246 8066.595 5751.691 24816.400 7565.406 8366.823 23829.784 6896.109 7266.872 6185.987 18103.798 0.000 2055.868 7006.950 5153.400 7703.518 312.580 7877.486 7850.384 7220.595 7459.770 8599.466 14086.255 19624.391 8206.877 20942.139 15393.024 9674.573 13827.872 7130.874 3278.789 5539.307 1294.553 4256.906 18950.341 13845.835 7788.400 11944.560 23600.192 11735.980 8735.589 10656.086 20679.273 10355.593 13491.237 13379.489 9091.699 24091.777 9513.789
4723.103 4606.257 6479.336 6424.161 7545.109 22941.763 5550.084 6358.053 21955.147 4887.339 5624.437 4543.552 18267.829 1967.271 0.000 5283.497 5828.323 6001.824 1901.196 6235.051 5841.614 7895.518 5451.000 6897.773 14761.178 17749.754 6564.443 19067.502 15785.544 8032.139 14502.795 5488.439 1636.355 3896.872 2847.895 2614.471 17075.704 14520.759 5779.630 10302.125 21725.555 12410.904 6778.077 11331.009 20993.036 8713.158 14166.160 14054.412 7449.264 22217.139 7871.354
1382.938 753.046 1955.857 4307.062 11321.769 18324.011 1073.017 2088.699 17337.395 3228.081 5165.743 1584.558 22088.561 6525.896 4972.444 0.000 9530.127 1211.129 6459.821 4114.422 1572.261 10883.865 1108.239 2107.077 16547.840 13132.002 1747.420 14449.750 16784.573 3491.878 16231.274 2287.254 3803.924 1446.279 7818.925 3066.491 12457.952 16307.420 1510.276 5741.794 17107.803 13813.157 2243.200 13731.125 18420.231 5873.339 15486.799 15841.074 2632.242 17599.387 3331.094
8515.099 9188.290 10709.915 6000.413 1950.182 26808.495 9937.871 11279.053 25821.879 10447.187 4598.063 8335.548 22492.442 5144.163 5868.055 9770.221 0.000 10043.298 5239.903 6150.526 10849.680 2616.762 10114.855 10283.532 9482.421 21616.486 10129.265 22934.234 10789.191 9592.005 9224.038 7999.556 6722.576 8476.478 5682.904 7222.039 20942.436 9242.002 10787.695 9204.504 25592.287 7132.147 10830.566 6052.252 16075.439 7163.807 8887.404 8775.656 10262.491 26083.872 9560.227
2088.143 1742.498 912.227 4726.938 11972.809 17206.639 617.333 2264.109 16220.024 3946.708 5816.783 2270.354 22744.438 7515.347 5961.895 989.451 10181.167 0.000 7449.272 4534.299 2039.493 11534.905 1124.037 1006.530 16828.893 12014.630 906.820 13332.378 17065.626 3284.962 16512.327 2328.048 4793.375 2429.730 8808.376 3890.949 11340.580 16588.473 2320.720 5328.994 15990.432 14094.209 1042.953 14012.177 18363.460 5912.560 15767.851 16122.127 2219.312 16482.016 3179.407
6052.957 5936.111 8135.665 7754.015 6006.403 24503.819 7252.826 8082.044 23517.204 6611.330 6954.291 5873.406 18075.835 282.381 1770.358 6694.370 5408.112 7390.937 0.000 7564.905 7565.606 7475.307 7174.992 8286.886 14340.967 19311.811 7894.297 20629.558 15647.737 9361.993 14082.584 6818.293 2966.209 5226.726 1576.934 3944.325 18637.760 14100.548 7503.621 11631.979 23287.612 11990.693 8423.008 10910.798 20933.985 10043.012 13745.949 13634.201 8779.119 23779.196 9201.208
3237.499 3910.690 5136.861 192.640 8076.875 21083.115 4660.271 6001.453 20096.500 5169.587 1552.463 3057.948 23585.907 7795.067 6243.443 4492.621 6285.233 4565.276 7701.384 0.000 5572.080 7539.483 4837.255 4558.152 12460.507 15891.107 4403.886 17208.854 12697.240 3639.818 12143.941 2426.501 4812.533 3198.878 9046.923 3860.542 15217.056 12220.088 5510.095 4464.967 19866.908 9725.824 5115.842 9643.792 15406.074 2492.791 11399.466 11753.741 4405.965 20358.492 3680.750
2944.756 2314.587 2441.520 5871.281 12885.988 19052.552 1660.874 813.580 18065.937 1907.215 6729.963 3148.777 20704.945 7848.260 5928.087 1692.904 11094.346 2140.493 7782.185 5678.642 0.000 12448.084 1313.013 3036.442 18112.059 13860.544 2777.985 15178.291 18348.792 4899.157 17795.494 3851.474 5268.631 3005.813 8314.206 4597.964 13186.494 17871.640 382.974 7149.073 17836.345 15377.376 2746.207 15295.344 19984.450 7437.559 17051.018 17405.294 4039.520 18327.929 4738.372
9972.792 10645.983 12167.609 7415.227 4249.917 28266.189 11395.565 12736.747 27279.573 11904.881 6012.877 9793.242 24796.366 7448.087 8171.978 11227.914 2868.103 11500.991 7543.827 7565.341 12307.373 0.000 11572.548 11741.225 6865.660 23074.180 11586.959 24391.928 8172.429 10742.252 6607.277 9457.250 8592.749 9934.171 7986.828 9004.786 22400.130 6625.240 12245.389 10075.630 27049.981 4515.385 12288.260 3435.490 13458.678 7489.765 6270.642 6158.894 11720.184 27541.565 10794.888
2172.081 1761.017 1287.349 5078.884 12093.590 17897.638 505.959 1384.508 16911.022 2960.134 5937.565 2356.379 21757.864 7371.336 5444.194 1070.559 10301.949 983.169 7305.261 4886.244 1052.919 11655.686 0.000 1879.117 17319.662 12705.629 1620.661 14023.377 17556.395 4054.032 17003.096 3041.889 4724.698 2453.907 7837.281 3974.887 12031.579 17079.242 1334.146 6201.581 16681.430 14584.978 1592.037 14502.946 19173.293 6626.401 16258.620 16612.896 3091.899 17173.015 3893.248
2970.243 2638.446 1369.559 4748.735 12265.173 17045.427 1513.282 3160.057 16058.812 4842.656 6108.558 3144.982 23640.386 8411.296 6857.844 1885.400 10473.531 1006.530 8345.221 4556.485 2935.441 11827.269 2019.985 0.000 16843.174 11853.419 888.343 13171.166 17079.907 2501.396 16526.608 2897.720 5689.324 3325.678 9704.325 4773.049 11179.368 16602.754 3216.668 4545.428 15829.220 14108.491 807.564 14026.458 17579.894 5353.106 15782.132 16136.408 1435.746 16320.804 2402.897
15634.033 16307.224 17451.526 12291.587 11104.414 33394.838 17056.805 18397.987 32408.222 17606.746 11906.048 15454.482 31603.625 14255.346 14846.263 16889.155 9675.363 16879.941 14351.086 12460.803 17968.614 8182.887 17233.789 16869.875 0.000 28202.829 16715.608 29520.577 2532.085 15471.021 2667.134 14741.166 15158.185 15595.412 14794.087 15161.066 27528.779 328.660 17906.629 14804.400 32178.630 2718.290 17427.564 4576.426 8220.319 12240.562 1198.343 674.618 16622.618 32670.215 15523.657
14143.713 14266.321 12269.434 16235.948 23624.057 7962.793 12833.207 14296.269 6511.355 15978.869 17468.032 14314.212 34776.598 20039.170 18352.097 13523.465 21832.416 12538.743 19973.095 16043.698 14071.654 23186.153 13156.556 12822.378 28330.387 0.000 12723.173 1319.549 28567.120 15024.005 28013.821 14137.159 17123.275 14540.261 20948.206 15946.519 2291.582 28089.967 14352.881 17144.842 6746.586 25595.704 12202.603 25513.672 29555.440 17049.458 27269.346 27623.621 14035.160 6773.347 14863.221
2188.724 1923.401 1162.644 4691.770 11937.640 17364.106 1259.958 2601.141 16377.490 4176.767 5781.615 2366.211 22974.496 7696.250 6142.798 1170.354 10145.999 769.230 7630.175 4499.130 2269.552 11499.736 1436.942 1145.156 16793.724 12172.097 0.000 13489.845 17030.457 3200.667 16477.158 2292.880 4974.278 2585.272 8989.279 3991.530 11498.047 16553.304 2550.779 5450.583 16147.898 14059.041 1283.295 13977.009 18324.890 5778.943 15732.683 16086.958 2341.031 16639.483 3039.883
15458.229 15580.838 13583.951 17550.465 24938.574 9277.310 14147.724 15610.786 7641.957 17293.385 18782.549 15628.728 36091.115 21353.687 19666.614 14837.982 23146.932 13853.260 21287.612 17358.215 15386.171 24500.670 14471.073 14136.895 29644.904 1320.140 14037.690 0.000 29881.637 16338.522 29328.338 15451.676 18437.792 15854.778 22262.723 17261.035 3606.098 29404.484 15667.397 18459.359 8061.102 26910.221 13517.120 26828.189 30869.957 18363.975 28583.863 28938.138 15349.677 7903.949 16177.738
15443.478 16116.669 17260.971 12101.032 11453.364 33204.283 16866.250 18207.433 32217.668 17416.192 11715.494 15263.927 31938.420 14590.141 15181.057 16698.600 10010.157 16689.386 14685.881 12270.248 17778.059 8517.681 17043.234 16679.320 2216.514 28012.274 16525.053 29330.022 0.000 15280.466 4283.986 14550.612 15444.338 15404.857 15128.882 14970.511 27338.224 2200.905 17716.075 14613.845 31988.076 3223.990 17237.010 5036.309 6373.408 12050.007 1830.364 2188.552 16432.064 32479.660 15333.103
3447.244 3654.095 3681.682 3818.420 11518.353 19329.836 3792.975 5134.157 18343.220 6129.807 4998.771 3354.205 24988.756 9358.132 7804.680 3703.371 9726.712 3290.939 9292.057 3626.169 4802.568 10980.961 3969.958 2516.400 15548.214 14137.827 2639.840 15455.575 15784.947 0.000 15231.649 2802.530 6426.359 3926.989 10651.161 5249.603 13463.777 15307.795 5083.795 2449.300 18113.628 12813.531 3177.975 12731.499 15483.765 3957.711 14487.173 14841.449 1256.276 18605.213 229.985
15338.591 16011.782 17156.084 11996.145 8613.601 33099.396 16761.364 18102.546 32112.781 17311.305 11610.607 15159.040 31304.691 13956.412 14553.258 16593.713 9376.429 16584.499 14052.152 12165.361 17673.172 7889.881 16938.347 16574.433 2677.087 27907.387 16420.166 29225.135 4697.134 15175.579 0.000 14445.725 14865.180 15299.970 14091.976 14865.624 27233.337 2519.087 17611.188 14508.958 31883.189 2641.078 17132.123 3493.523 10385.369 11945.120 2635.012 2139.705 16327.177 32374.773 15228.216
2078.932 2751.726 3391.585 2780.015 10168.124 19105.051 3475.150 4816.333 18118.436 4473.197 4012.098 1899.382 23324.606 7685.568 6132.116 3333.657 8376.482 2998.171 7619.493 2587.765 4413.116 9730.220 3652.134 2679.656 14874.454 13913.042 2425.821 15230.790 15111.187 2583.183 14557.888 0.000 4753.305 2265.421 8978.597 3576.549 13238.992 14634.034 4351.132 4870.324 17888.844 12139.771 3137.778 12057.738 16329.918 3593.525 13813.412 14167.688 2722.426 18380.428 2422.399
3182.793 3242.904 5442.458 5024.495 8637.759 21810.612 4559.619 5563.134 20823.997 4097.777 4237.041 3003.242 20064.546 3896.920 2343.469 4001.163 6920.973 4697.730 3830.846 4833.179 5046.696 8788.718 4614.807 5593.679 15355.650 16618.604 5201.090 17936.351 16052.945 6491.828 15097.266 3948.129 0.000 2533.519 5191.324 1074.161 15944.553 15115.230 4984.711 8761.815 20594.405 13005.375 5729.801 11925.480 19964.666 7318.310 14755.171 14648.884 6085.912 21085.989 6331.044
837.874 1129.094 3228.805 3363.322 10378.029 19595.511 2347.740 3610.966 18608.895 2210.358 4222.004 658.324 21061.767 5499.102 3945.650 2042.572 8586.387 2483.575 5433.027 3170.682 3094.528 9940.125 2524.723 3367.637 15604.100 14403.502 2856.831 15721.250 15840.833 4149.404 15287.535 1605.705 2777.130 0.000 6792.131 1631.659 13729.452 15363.681 3032.543 6416.897 18379.303 12869.417 3514.700 12787.385 17935.623 5071.575 14543.059 14897.335 3739.826 18870.888 3988.620
7529.408 7412.562 9082.180 9251.842 5540.485 25653.183 8261.504 8744.171 24666.567 7273.457 8452.119 7349.857 17897.735 1394.930 2847.193 7994.917 5792.434 8713.244 1518.486 9062.733 8227.732 7859.629 7837.119 9609.193 14725.289 20461.174 9350.736 21778.922 16032.058 10838.443 14159.737 8294.744 4442.660 6703.177 0.000 5420.776 19787.124 14484.869 8165.748 13108.430 24436.975 12375.014 9386.868 11295.119 21318.307 11540.840 14130.271 14018.523 10255.569 24928.559 10677.659
2159.849 2554.208 4653.919 4078.641 9055.402 21020.625 3772.854 5027.907 20034.009 3562.550 3513.618 1980.298 19821.301 4156.108 2602.656 3463.763 7338.616 3908.689 4090.033 3887.325 4511.469 9054.851 3949.837 4792.751 15253.671 15828.616 4281.945 17146.364 15490.404 5468.156 14937.105 2924.456 1325.732 1674.360 5449.137 0.000 15154.566 15013.251 4449.484 7738.871 19804.417 12518.988 4939.814 12191.613 19086.980 6333.663 14192.630 14546.905 5164.940 20296.002 5307.371
13503.826 13626.434 11629.547 15596.062 22984.171 8691.594 12193.321 13656.383 7223.911 15338.982 16828.145 13674.325 34136.712 19399.284 17712.211 12883.579 21192.529 11898.857 19333.209 15403.811 13431.767 22546.267 12516.669 12182.492 27690.501 2265.789 12083.287 3583.536 27927.233 14384.119 27373.935 13497.273 16483.388 13900.374 20308.319 15306.632 0.000 27450.081 13712.994 16504.956 7475.386 24955.817 11562.717 24873.785 28915.553 16409.572 26629.459 26983.735 13395.274 7485.903 14223.334
15439.477 16112.668 17256.970 12097.031 10924.014 33200.282 16862.249 18203.432 32213.666 17412.190 11711.492 15259.926 31409.070 14060.790 14651.707 16694.599 9480.807 16685.385 14156.530 12266.247 17774.058 7988.331 17039.233 16675.319 699.876 28008.273 16521.052 29326.021 2956.587 15276.465 2575.496 14546.610 14963.629 15400.856 14599.532 14966.510 27334.223 0.000 17712.073 14609.844 31984.074 2523.734 17233.009 4381.870 8644.821 12046.006 1003.787 480.062 16428.062 32475.659 15329.101
2774.058 2143.889 2319.867 5700.071 12714.778 18930.899 1539.221 691.927 17944.284 1945.029 6558.753 2977.567 20835.875 7680.632 5760.460 1569.383 10923.137 2018.840 7614.558 5507.432 175.489 12276.874 1191.360 2914.789 17940.850 13738.891 2656.332 15056.639 18177.582 4775.635 17624.284 3680.264 5097.933 2835.115 8146.578 4427.266 13064.841 17700.430 0.000 7025.552 17714.692 15206.166 2624.554 15124.134 19813.240 7266.349 16879.808 17234.084 3915.999 18206.276 4614.851
5844.556 6051.407 5696.132 4323.507 11127.478 21344.286 5807.424 7148.607 20357.670 8527.118 5133.489 5751.517 27386.068 11755.444 10201.992 5717.820 9335.837 5305.388 11689.369 4397.519 6817.018 10382.714 5984.408 4530.849 14983.580 16152.277 4654.290 17470.025 15220.313 2452.986 14667.014 5053.831 8823.671 6324.301 13048.473 7646.915 15478.227 14743.161 7098.245 0.000 20128.078 12248.897 5192.424 12166.865 14423.685 3300.245 13922.539 14276.814 3270.726 20619.662 2682.971
19115.954 19238.562 17241.675 21208.189 28596.298 1527.433 17805.449 19268.511 1507.900 20951.110 22440.273 19286.453 39748.840 25011.411 23324.338 18495.706 26804.657 17510.984 24945.337 21015.939 19043.895 28158.395 18128.797 17794.619 33302.628 7151.801 17695.414 8285.093 33539.361 19996.246 32986.063 19109.400 22095.516 19512.502 25920.447 20918.760 7863.103 33062.209 19325.122 22117.084 0.000 30567.945 17174.845 30485.913 34527.681 22021.699 32241.587 32595.863 19007.401 1538.683 19835.462
12915.743 13588.934 14733.236 9573.297 8402.716 30676.548 14338.515 15679.698 29689.932 14888.456 9187.758 12736.192 28887.772 11539.493 12130.409 14170.865 6959.509 14161.651 11635.232 9742.513 15250.324 5467.033 14515.499 14151.585 2743.204 25484.539 13997.318 26802.287 3657.044 12752.731 2693.176 12022.876 12442.331 12877.122 12078.234 12442.776 24810.489 2502.784 15188.339 12086.110 29460.340 0.000 14709.275 1929.944 8943.293 9522.272 1755.257 2036.438 13904.328 29951.925 12805.367
3127.211 2784.577 777.499 5244.032 12632.141 16906.667 1341.272 2664.538 15920.051 4352.507 6476.116 3304.699 23150.236 8557.426 6801.367 2031.530 10840.500 1046.808 8491.351 5051.782 2445.292 12194.237 1532.032 807.564 17338.471 11714.658 1045.311 13032.406 17575.204 3143.103 17021.905 3145.243 5835.454 3471.809 9327.026 4930.017 11040.608 17098.051 2726.519 5187.135 15690.459 14603.788 0.000 14521.756 18221.600 6057.542 16277.430 16631.705 2077.453 16182.044 3045.696
13047.503 13720.694 14864.996 9705.057 6754.116 30808.308 14470.275 15811.458 29821.693 15020.217 9319.519 12867.952 28448.767 11100.488 11691.405 14302.625 6520.505 14293.411 11196.228 9874.273 15382.084 5028.029 14647.259 14283.345 4527.469 25616.299 14129.078 26934.047 5528.205 12884.491 3513.385 12154.637 12003.327 13008.882 11639.229 12415.364 24942.249 4287.049 15320.100 12217.870 29592.101 2009.256 14841.035 0.000 10814.454 9654.032 3764.513 3820.703 14036.089 30083.685 12937.128
17348.864 17873.011 18195.357 14840.160 17049.732 33843.511 18306.649 19647.832 32856.895 19891.542 15501.939 17169.313 37534.788 20186.509 20777.426 18217.045 15606.526 17804.613 20282.249 15009.376 19316.243 14114.049 18483.633 17030.074 8242.730 28651.502 17153.515 29969.250 6280.706 14952.211 10310.201 16203.190 19701.297 17683.766 20725.250 18749.306 27977.452 8227.120 19466.094 13841.356 32627.303 8820.358 17691.649 10632.677 0.000 12854.276 7838.528 8214.767 15769.951 33118.887 15182.196
5054.231 5727.025 6366.884 2306.376 9073.720 22033.787 6450.449 7791.632 21047.172 7287.060 3079.731 4874.680 26049.671 10160.429 8612.665 6308.956 7282.078 5973.470 10066.745 2475.592 7388.415 7748.788 6627.433 5427.662 12282.811 16841.779 5354.557 18159.526 12519.544 3727.667 11966.246 3656.525 7276.297 5079.284 11407.357 6324.306 16167.728 12042.392 7326.431 3044.564 20817.580 9548.128 6066.514 9466.096 13249.135 0.000 11221.770 11576.046 4789.948 21309.164 3780.304
14595.919 15269.110 16413.413 11253.474 10134.742 32356.725 16018.692 17359.874 31370.109 16568.633 10867.935 14416.369 30619.798 13271.519 13862.435 15851.042 8691.535 15841.828 13367.259 11422.690 16930.500 7199.059 16195.676 15831.762 1255.599 27164.716 15677.495 28482.464 2286.929 14432.908 2638.605 13703.053 14174.357 14557.299 13810.260 14122.953 26490.666 1015.179 16868.516 13766.286 31140.517 1732.026 16389.451 3661.970 7929.397 11202.449 0.000 548.833 15584.505 31632.101 14485.544
15016.757 15689.948 16834.250 11674.312 10501.294 32777.562 16439.530 17780.712 31790.947 16989.471 11288.773 14837.207 30986.350 13638.071 14228.988 16271.879 9058.088 16262.666 13733.811 11843.528 17351.338 7565.611 16616.513 16252.599 706.766 27585.554 16098.333 28903.301 2614.773 14853.745 2095.434 14123.891 14540.910 14978.136 14176.812 14543.791 26911.504 466.346 17289.354 14187.124 31561.355 2101.015 16810.289 3959.150 8303.007 11623.287 581.067 0.000 16005.343 32052.939 14906.382
3360.022 3352.340 2577.605 4550.963 12172.082 18225.758 2688.897 4030.080 17239.143 5605.706 5910.786 3431.107 24403.435 9125.189 7571.737 2599.293 10380.440 2186.861 9059.114 4358.713 3698.491 11734.178 2865.881 1412.322 16645.402 13033.750 1535.763 14351.498 16882.135 1256.284 16328.836 2917.490 6339.584 3756.570 10418.218 5162.828 12359.700 16404.982 3979.718 3300.316 17009.551 13910.719 2073.897 13828.687 16334.781 5000.569 15584.361 15938.636 0.000 17501.135 1167.825
18840.581 18963.189 16966.302 20932.817 28320.926 2880.158 17530.076 18993.138 398.707 20675.737 22164.900 19011.080 39473.467 24736.039 23048.966 18220.334 26529.284 17235.612 24669.964 20740.566 18768.522 27883.022 17853.424 17519.247 33027.256 6822.507 17420.042 7955.799 33263.988 19720.874 32710.690 18834.028 21820.143 19237.129 25645.074 20643.387 7533.809 32786.836 19049.749 21841.711 1537.417 30292.572 16899.472 30210.540 34252.308 21746.327 31966.214 32320.490 18732.029 0.000 19560.089
3286.460 3493.311 3553.251 3873.679 11496.619 19201.405 3664.543 5005.726 18214.789 5969.022 5058.411 3193.421 24827.972 9197.348 7643.896 3574.939 9704.978 3162.507 9131.273 3681.429 4674.137 11040.600 3841.527 2387.968 15607.854 14009.396 2511.409 15327.144 15844.586 229.985 15291.288 2641.746 6265.575 3766.205 10490.377 5088.819 13335.346 15367.434 4955.364 2679.285 17985.197 12873.170 3049.543 12791.138 15697.032 4017.350 14546.812 14901.088 1168.162 18476.781 0.000
NODE_COORD_SECTION
1 27567.380647 -311.862562
2 27443.153503 198.501384
3 29194.524315 615.108414
4 27016.614788 -3298.735731
5 20153.498359 -4712.093979
6 36792.916186 10358.908771
7 28801.944746 667.602397
8 28243.596457 1635.927498
9 38367.228602 9256.426147
10 26633.842747 1818.864431
11 25953.591451 -3692.035034
12 27343.250560 -307.104312
13 15961.901141 13455.540048
14 21723.849186 -488.686418
15 23468.702881 -176.727762
16 28186.067540 321.248818
17 21978.666303 -4642.509811
18 29002.944747 337.869916
19 21934.281840 -489.982384
20 27013.995501 -3117.893236
21 28043.763183 1677.377682
22 22242.849753 -7023.118427
23 28560.084004 893.141950
24 29638.440600 -215.111101
25 22837.315674 -13447.502388
26 38642.248746 3417.829940
27 29070.868021 -129.171645
28 38587.437261 2309.552161
29 24601.518827 -13155.176432
30 29676.324229 -2207.819183
31 21121.054520 -12214.376386
32 27739.749211 -1308.677174
33 24745.340040 -366.474471
34 26999.771572 -86.539905
35 20939.392912 7.051344
36 25566.262359 -479.588873
37 37076.151115 4042.052529
38 22907.030945 -13216.027499
39 27980.109649 1595.914068
40 30578.788136 -3836.144458
41 37438.038037 9502.350802
42 22659.557167 -11123.662188
43 29744.342570 373.012583
44 21873.178522 -9919.458678
45 28837.186312 -15834.650504
46 28185.702723 -4473.192705
47 23263.749201 -12559.464442
48 22818.167135 -12819.760602
49 29859.285812 -1277.904008
50 38553.302338 9411.512487
51 29560.604201 -2113.769234
DEMAND_SECTION
1 0
2 1
3 2
4 6
5 5
6 10
7 3
8 10
9 79
10 9
11 3
12 8
13 10
14 10
15 91
16 5
17 9
18 8
19 9
20 9
21 10
22 3
23 9
24 6
25 10
26 10
27 1
28 4
29 5
30 99
31 8
32 10
33 6
34 3
35 5
36 5
37 3
38 8
39 9
40 8
41 10
42 7
43 7
44 10
45 2
46 9
47 10
48 8
49 99
50 9
51 2
DEPOT_SECTION
1
-1
EOF
