NAME : poryos-paris-n25-hyb
COMMENT : Poryos2026 fastest metric; city paris; 3-decimal seconds/meters; ENU ref in poryos-paris-n25-hyb.vrp.json
TYPE : CVRP
DIMENSION : 26
EDGE_WEIGHT_TYPE : EXPLICIT
EDGE_WEIGHT_FORMAT : FULL_MATRIX
CAPACITY : 122
EDGE_WEIGHT_SECTION
0.000 341.281 90.823 96.874 299.829 105.538 127.571 313.805 130.147 328.667 273.386 137.295 375.202 273.342 201.015 253.705 229.095 356.840 368.075 326.913 458.594 87.702 436.819 281.664 361.335 232.269
384.802 0.000 395.041 418.975 184.573 424.626 323.916 317.423 404.385 678.387 333.076 239.626 648.000 592.430 494.209 296.406 539.244 675.928 371.693 520.563 652.244 414.077 203.502 220.618 60.654 273.149
132.082 319.861 0.000 172.570 278.408 178.221 106.151 374.451 202.830 441.291 346.069 115.875 483.306 346.025 273.698 314.351 346.533 429.523 428.721 393.692 525.373 167.672 435.905 260.244 339.915 292.915
115.782 365.211 114.753 0.000 323.759 66.643 151.501 313.130 129.472 273.657 268.476 161.225 382.393 214.330 162.120 253.030 180.656 297.828 367.401 334.104 465.785 111.632 436.144 305.594 385.266 231.594
260.517 200.896 270.755 282.565 0.000 272.333 185.231 214.687 241.565 551.286 221.852 162.966 555.985 448.021 313.556 166.036 424.215 531.519 268.957 466.371 598.052 277.667 230.098 241.515 222.596 133.151
145.983 379.824 139.989 95.803 290.770 0.000 176.737 277.574 93.916 342.549 232.920 172.943 415.874 243.067 107.769 217.474 249.548 326.565 331.845 367.584 499.265 136.868 400.588 320.207 399.878 196.038
158.961 280.590 169.199 181.009 204.469 186.660 0.000 300.512 169.411 449.730 295.897 73.709 466.729 354.464 259.235 240.412 334.959 437.962 354.783 377.115 508.796 176.111 361.967 220.973 300.645 218.976
388.713 340.916 382.719 348.326 200.404 299.409 354.855 0.000 270.235 574.806 114.867 332.589 599.219 393.461 332.364 128.273 481.805 476.959 212.602 620.107 751.788 379.598 298.495 411.139 362.616 131.379
196.389 392.894 190.395 156.504 264.926 107.587 208.278 235.898 0.000 391.252 169.873 186.013 476.575 283.275 148.810 181.305 298.251 366.773 299.028 428.285 559.966 187.274 367.771 333.276 412.948 163.222
320.891 623.392 372.934 283.055 581.939 324.824 409.682 571.311 387.652 0.000 516.575 419.406 287.483 259.475 325.905 511.211 202.057 312.150 625.581 426.909 586.375 369.813 694.324 563.775 643.446 489.775
311.601 313.937 305.606 271.213 173.425 222.296 290.960 133.789 193.122 497.693 0.000 268.694 564.100 358.342 255.252 69.953 404.693 441.840 207.527 542.994 674.675 302.485 276.271 347.244 335.636 88.420
145.176 238.650 155.415 179.349 213.781 185.001 84.290 309.824 178.723 438.761 305.209 0.000 431.389 352.804 268.547 249.724 299.618 436.302 364.094 341.775 473.456 174.451 371.279 179.032 258.704 228.288
352.560 642.876 437.182 389.547 603.666 431.316 465.607 600.005 476.506 333.693 564.193 441.132 0.000 237.472 405.207 591.344 287.219 260.456 707.836 244.625 439.528 434.061 761.163 573.749 662.930 578.629
310.373 557.328 306.870 262.684 491.095 258.760 343.618 417.367 321.588 244.104 381.555 353.342 208.823 0.000 222.568 408.705 214.199 104.628 525.197 348.250 543.226 303.749 593.940 497.711 577.383 419.818
194.184 438.648 188.190 144.004 347.982 63.061 224.938 313.405 156.976 301.190 247.380 234.662 399.805 194.047 0.000 258.812 208.189 277.545 382.085 415.785 547.466 185.068 450.828 379.031 458.702 246.279
334.688 283.866 328.694 294.301 143.355 245.384 264.226 103.719 216.210 520.781 105.881 241.960 587.188 381.429 278.339 0.000 427.780 464.927 177.457 545.365 677.046 325.573 246.200 320.509 305.566 51.055
195.860 487.273 275.488 185.609 448.063 227.378 310.004 473.865 290.207 177.745 424.947 285.530 262.461 215.205 230.600 413.765 0.000 267.880 528.136 286.704 418.385 272.367 596.879 427.656 507.328 392.329
399.495 643.959 393.500 349.315 577.725 345.391 430.249 503.998 408.219 347.083 468.185 439.973 290.632 155.098 309.199 495.336 324.297 0.000 611.828 447.465 642.442 390.379 680.571 584.341 664.013 506.449
406.229 300.884 401.925 369.127 175.529 320.210 330.944 119.236 289.441 603.875 166.431 308.678 657.073 451.314 361.433 129.760 510.874 534.812 0.000 612.084 743.765 398.804 256.439 387.228 322.584 106.503
330.516 586.680 415.138 351.538 581.622 393.307 443.563 638.121 454.462 406.537 595.140 419.088 157.194 310.316 467.076 578.021 297.273 355.105 692.391 0.000 357.782 412.017 719.385 505.388 606.735 556.585
383.013 617.153 467.635 420.826 622.335 462.595 484.275 690.617 506.959 534.820 650.199 459.801 393.315 546.145 555.910 630.517 386.107 590.934 744.888 248.931 0.000 464.514 749.858 533.559 637.208 609.082
23.318 343.424 114.141 120.193 301.972 128.857 130.188 337.124 153.465 351.985 296.705 139.438 398.521 296.660 224.333 277.023 252.414 380.158 391.394 348.554 480.235 0.000 459.469 283.807 363.479 255.588
402.552 182.535 412.791 424.600 142.035 414.369 327.267 267.496 383.600 693.321 289.109 305.001 698.021 573.993 455.591 252.438 566.250 657.491 321.766 608.406 740.088 419.702 0.000 324.105 205.636 229.182
284.678 175.110 294.917 318.851 261.921 324.503 223.792 368.045 304.261 578.263 363.430 139.502 547.876 492.306 394.085 307.945 439.120 575.804 422.315 409.608 541.168 313.953 307.815 0.000 195.164 286.509
387.832 66.266 398.070 422.004 179.557 427.656 326.945 312.407 407.414 681.416 328.060 242.655 651.029 595.459 493.113 291.389 542.274 678.957 366.677 523.592 655.273 417.106 207.834 222.953 0.000 268.133
332.404 242.215 328.100 295.302 101.704 246.385 257.119 81.536 215.616 530.049 88.701 234.853 579.343 373.584 287.607 52.030 437.048 457.082 135.806 538.258 669.939 324.979 204.549 313.402 263.915 0.000
NODE_COORD_SECTION
1 -500.874011 70.822412
2 4532.192554 3564.094497
3 166.984340 335.141569
4 -588.944601 -792.968899
5 4120.443653 654.122726
6 415.314351 -1288.544346
7 1105.266364 713.285891
8 5163.088515 -2340.546063
9 1662.220133 -1711.921113
10 -3498.227137 -1950.945654
11 4204.133521 -2188.207592
12 799.973175 1567.271729
13 -7412.432748 -2185.927410
14 -2811.179308 -3538.729095
15 227.780222 -2321.220408
16 4505.568424 -1655.403667
17 -2850.446418 -1005.567118
18 -3710.334449 -4482.090006
19 6130.390267 -1434.990247
20 -5875.321694 627.847685
21 -8626.614990 3587.161089
22 -324.785551 278.688697
23 6228.987345 1883.450036
24 1919.382643 3826.279340
25 4278.097632 3078.283647
26 4615.996590 -1306.279882
DEMAND_SECTION
1 0
2 2
3 3
4 2
5 8
6 4
7 4
8 10
9 8
10 3
11 65
12 2
13 61
14 8
15 57
16 1
17 10
18 99
19 7
20 51
21 7
22 5
23 2
24 4
25 71
26 95
DEPOT_SECTION
1
-1
EOF
