NAME : mamut-hong_kong-n100-poi
COMMENT : Mamut2026 shortest metric; city hong_kong; 3-decimal seconds/meters; ENU ref in mamut-hong_kong-n100-poi.vrp.json
TYPE : CVRP
DIMENSION : 101
EDGE_WEIGHT_TYPE : EXPLICIT
EDGE_WEIGHT_FORMAT : FULL_MATRIX
CAPACITY : 178
EDGE_WEIGHT_SECTION
0.000 10291.554 13200.157 10749.127 10374.638 5640.523 3642.851 8853.189 10782.940 12981.282 5339.848 6235.531 5542.505 10550.473 8496.728 10371.932 4200.650 5518.672 8705.212 7951.235 13743.346 12477.691 11307.536 4301.054 9040.306 8378.745 15839.639 13664.371 9807.128 3480.464 5003.997 3994.806 9183.978 9750.834 12652.445 13720.341 12853.644 2728.851 8715.834 10019.467 9148.203 10089.402 6051.962 10525.528 18443.964 8530.529 4057.620 4819.335 19021.925 5793.347 4080.251 5809.657 5790.533 13597.018 8941.244 9410.585 13121.918 4358.575 10938.453 5654.751 10077.726 5855.337 4610.515 9155.193 13096.022 16683.777 4047.038 8543.618 3348.250 12401.070 5734.835 6055.417 5845.259 23355.863 5811.712 4122.635 5967.991 4092.143 5386.169 5004.623 10470.316 8518.647 9003.664 8843.191 5832.620 2752.564 8874.112 4381.403 16399.547 14086.041 4795.159 3287.072 6768.406 5833.380 9112.570 10504.632 8687.361 9395.540 2610.130 8988.044 10727.687
10606.719 0.000 14430.409 5510.773 17173.821 6518.338 8940.231 2841.348 4833.582 7031.924 7531.380 7476.798 6702.578 8928.513 3059.925 5863.228 7714.205 7455.044 17578.570 10824.976 22435.163 6544.127 5358.178 7814.609 6983.382 2897.999 9890.281 7073.927 6519.661 10365.834 7457.269 8066.281 3324.360 17513.397 21838.838 7770.984 6904.286 9194.564 2703.993 17674.144 7129.244 5970.379 7497.737 17738.459 27545.327 3459.603 8129.095 7599.407 28123.287 12246.546 9320.615 8001.190 7233.772 22288.835 2104.894 3461.227 7118.782 9543.275 5683.311 7503.386 17732.403 7920.333 7063.787 3373.253 7146.664 23052.094 11600.398 10446.549 8901.764 6467.506 7799.832 12052.427 15031.653 30568.793 7348.534 10316.488 6922.937 10977.513 7326.016 7227.771 8812.395 3447.722 3221.725 3379.717 7369.442 9389.866 2037.761 9353.674 22767.865 22777.858 8415.457 9065.776 15954.799 12201.698 6926.716 5754.877 2675.520 18581.933 9355.798 10315.998 5472.545
12756.261 13738.668 0.000 15424.936 20860.509 12210.457 12430.953 13157.682 9787.884 9700.813 11331.421 12917.590 12144.421 17971.486 12253.883 15777.391 12240.887 11510.245 15252.157 5417.470 20108.750 10368.775 10312.479 12341.291 16413.772 12328.449 12720.986 18340.181 16080.052 13856.556 12693.553 9814.052 13626.516 21079.074 20471.805 10648.690 9573.175 12685.286 12839.872 21239.821 16569.215 15793.504 12734.021 21304.136 25218.914 13229.635 9876.867 10342.705 25796.874 15812.223 13124.797 11801.231 12470.055 19962.422 12102.892 10395.437 17547.840 9111.518 15614.263 12739.670 21298.080 13156.617 12300.071 13597.731 9815.553 11398.082 10484.412 5039.043 12392.486 10292.153 13036.115 7877.179 16193.448 34134.471 12696.082 10174.482 12647.513 14468.235 12562.300 12464.055 17891.328 13217.754 13446.203 13338.770 12716.990 10565.677 12035.759 8921.917 11113.852 20451.445 9600.718 12631.453 17116.595 7733.601 16357.106 15608.824 12796.328 17167.800 12509.759 5412.774 15403.497
10693.766 5730.288 16477.546 0.000 14370.966 7096.625 8255.790 3028.673 7074.658 9111.791 8109.667 7607.451 7280.865 3681.551 3920.693 493.119 6901.757 8033.331 17978.652 12826.553 22957.029 8591.264 7599.253 7002.161 1736.421 3575.406 12131.356 4022.470 1272.699 8923.435 6228.331 8644.568 2614.367 14902.569 21925.884 10012.059 8984.153 8510.123 3633.072 15063.316 1882.283 723.417 7479.732 15104.604 27717.404 2664.787 8707.383 8177.694 28295.365 9880.967 7471.160 8579.477 7333.390 22810.701 4421.719 5702.302 8074.431 10121.562 721.583 7110.012 15121.575 6676.401 6580.636 2707.990 9226.531 23630.381 12122.264 12493.686 7950.923 8514.642 6555.900 12630.715 15118.699 27849.662 7239.482 10800.201 7501.224 9514.327 6841.430 6102.566 3565.434 2733.345 2952.465 3087.797 7260.390 9717.919 4364.777 9931.961 23346.152 23299.724 8993.744 7904.523 16041.846 12779.985 1679.755 328.503 3395.097 18668.979 9151.836 12363.135 961.583
10214.381 17210.756 21481.525 14867.770 0.000 11831.925 8990.816 15772.391 17702.143 19900.485 12614.296 11706.547 11757.746 14619.053 15415.931 14440.512 10006.905 12793.119 15095.428 16142.897 20133.562 19396.894 18226.738 10107.309 13108.886 15297.948 22758.841 18050.510 13875.708 8061.514 10327.426 11807.060 16103.181 4367.802 18020.199 20639.544 19772.847 9258.794 15635.037 4528.550 13216.783 14157.982 11578.828 4460.359 23811.718 15449.731 11869.874 12538.738 24389.679 6261.088 8292.952 13084.105 11432.486 19987.234 15860.447 16329.787 20041.120 12457.596 15063.399 11209.108 4586.809 10775.497 10275.390 16074.396 20015.224 25505.920 13004.397 16642.639 8674.995 19320.272 10654.995 14506.253 11985.062 15552.981 11338.578 12669.621 11948.736 7512.558 10940.526 10201.662 14538.895 15437.850 15922.867 15762.394 11359.486 11393.784 15793.314 12480.424 25221.690 20476.257 12673.257 8613.817 12908.209 14655.523 13181.149 14573.212 15606.563 14644.437 10003.585 17087.065 15157.395
5802.017 6836.182 12782.192 7293.755 11832.064 0.000 4063.727 5397.816 7327.568 9525.910 1696.200 1201.168 415.087 7803.587 5041.356 7625.046 2619.171 1839.807 12773.867 7443.564 17630.460 9022.319 7852.164 2719.575 6293.420 4923.373 12384.267 10208.999 7060.242 5489.330 2166.674 3261.579 5728.606 12363.667 17034.136 10264.969 9398.272 4318.060 5260.462 12524.414 6401.317 7342.516 1125.176 12565.702 22740.625 5075.156 3324.393 2549.860 23318.585 7342.065 4302.429 2166.009 861.211 17484.132 5485.872 5955.213 9666.545 4738.573 7483.081 1130.825 12582.673 1842.054 1968.753 5699.821 9640.650 18247.392 6795.696 7943.306 4025.260 8945.697 1721.553 7247.725 10226.951 25310.760 1072.904 5511.786 465.604 6101.009 1005.365 1813.509 7723.429 5063.275 5548.292 5387.819 1093.812 4585.164 5418.739 4548.972 17963.162 17973.155 3610.755 4167.900 11150.097 7396.995 6365.684 7497.087 5231.989 13777.231 4551.096 8387.732 7272.315
3088.934 9244.748 12777.390 8478.454 8755.690 4010.225 0.000 7806.382 9736.134 11934.476 4469.328 3975.831 3936.046 8229.737 7449.922 8051.196 1940.950 4648.152 10762.084 7438.763 15800.218 11430.885 10260.730 2041.354 6719.570 7331.939 14792.833 11661.195 7486.392 1652.944 2744.296 3343.514 8137.172 8935.488 14709.316 12673.535 11806.838 596.676 7669.028 9104.725 6827.467 7768.666 3792.262 9169.040 20500.836 7483.723 3406.328 4075.192 21078.796 3683.919 1790.677 4939.138 3618.428 15653.890 7894.438 8363.779 12075.112 3753.462 8674.084 3395.050 9162.984 3595.636 2350.814 8108.387 12049.216 16801.786 5259.646 7938.505 519.004 11354.264 3475.134 5802.119 7902.131 21999.374 3552.012 3965.486 4162.169 2264.623 3126.468 2744.922 8149.579 7471.841 7956.858 7796.385 3572.920 2689.650 7827.306 3776.289 16517.556 16142.913 4190.046 876.076 8825.277 5951.389 6791.834 8183.896 7640.555 11452.411 1299.451 8382.931 8768.079
8754.031 2718.824 14014.969 2669.426 15321.132 4665.649 7087.542 0.000 4418.143 6616.485 5678.692 5624.110 4849.890 6087.165 1143.691 3021.880 5861.516 5602.355 15725.881 10395.578 20582.474 6128.687 4942.738 5961.920 4142.035 798.405 9474.841 5567.881 3678.313 8513.145 5604.581 6213.593 560.691 15660.708 19986.150 7355.544 6488.847 7341.875 604.399 15821.456 4287.897 3129.031 5645.049 15885.771 25692.638 694.838 6276.407 5746.719 26270.599 10393.858 7467.927 6148.501 5381.084 20436.146 1490.004 3045.787 5499.103 7690.587 2841.963 5650.698 15879.715 6067.645 5211.099 531.906 6731.224 21199.406 9747.710 10031.109 7049.076 6052.066 5947.143 10199.739 13178.964 28716.105 5495.845 8463.800 5070.248 9124.825 5473.328 5375.083 5971.048 682.957 380.377 595.036 5516.754 7537.178 1433.062 7500.986 20915.176 20925.169 6562.768 7213.088 14102.111 10349.009 4085.369 2913.530 575.926 16729.245 7503.109 9900.558 2631.197
11620.848 5010.974 11085.374 6742.478 18187.949 7532.467 9954.360 4446.150 0.000 2198.342 8545.509 8490.927 7716.707 9838.300 3542.351 7094.933 8728.334 8469.173 17314.627 7479.941 22171.220 1889.656 524.596 8828.738 7855.272 3616.917 5056.698 9657.722 7521.552 11379.963 8471.398 9080.410 4914.984 18527.526 22534.275 2937.401 2070.704 10208.693 4128.339 18688.273 8039.032 7130.491 8511.866 18752.588 27281.384 4518.103 9143.224 8613.536 27859.345 13260.675 10334.744 9015.319 8247.901 22024.892 3375.198 1667.743 8820.146 10557.404 6931.805 8517.515 18746.532 8934.462 8077.916 4886.199 2313.081 20510.716 12554.004 7101.513 9915.893 1813.034 8813.961 9939.650 16045.782 31582.922 8362.663 11330.617 7937.065 11991.642 8340.145 8241.900 9722.183 4506.222 4734.670 4627.238 8383.571 10403.995 3308.065 10367.803 20226.486 22513.915 9429.586 10079.905 16968.928 11781.450 7798.606 6945.810 4084.796 19230.270 10369.927 6970.963 6721.039
14510.347 7915.732 11126.639 9602.902 21077.448 10421.965 12843.858 7335.648 2934.448 0.000 11435.007 11380.425 10606.205 12574.766 6431.849 9955.357 11617.832 11358.671 17355.892 7521.206 22212.485 1812.920 2807.140 11718.236 10591.738 6506.415 4212.133 12518.147 10258.018 14269.461 11360.896 11917.788 7804.482 21417.024 22575.540 2092.836 769.125 13098.191 7017.838 21577.772 10775.498 9971.470 11401.365 21642.086 27322.649 7407.601 11980.602 11503.034 27900.610 16150.173 13224.242 11904.817 11137.399 22066.157 6279.956 4572.502 11724.905 11215.254 9792.229 11407.014 21636.030 11823.961 10967.415 7775.697 114.739 20551.981 12595.269 7142.778 12805.392 1736.299 11703.459 9980.915 18304.304 34472.421 11252.161 12278.217 10826.564 14881.140 11229.644 11131.399 12458.649 7395.720 7624.169 7516.736 11273.069 12669.413 6212.824 11025.653 20267.751 22555.180 11704.453 12969.403 19227.451 11822.715 10535.072 9786.790 6974.294 19271.535 13259.425 7012.227 9581.463
5693.631 7111.983 11669.598 7569.556 12683.630 1956.493 4329.115 5673.617 7603.369 9801.711 0.000 2914.953 2345.109 8804.303 5317.157 7922.010 3300.659 775.257 11813.059 6330.971 16669.652 9298.120 8127.965 3401.063 7294.136 5199.174 12660.068 10484.800 8060.958 5754.718 3043.723 2298.764 6004.407 12902.281 16925.750 10540.770 9674.073 4583.448 5536.263 13063.029 7402.033 7957.568 3081.669 13127.343 21779.816 5350.957 2361.578 1256.953 22357.777 7635.431 4709.499 717.346 2817.704 16523.324 5761.673 6231.014 9942.346 3432.176 7758.882 3087.318 13121.287 3506.788 2650.242 5975.622 9916.451 17305.089 5834.888 6830.713 4290.649 9221.498 3386.286 6226.575 10118.565 25957.678 2786.689 4468.790 2361.091 6366.397 2912.471 2814.226 8724.146 5339.076 5824.093 5663.620 2807.597 3695.729 5694.540 3242.575 17020.860 17012.347 2304.358 4454.660 11041.711 6454.693 7366.400 7772.888 5507.790 13668.845 4744.682 7275.139 7548.116
6065.246 7494.461 13310.720 7952.034 11976.965 658.279 4208.866 6056.095 7985.847 10184.189 2314.021 0.000 1073.366 7948.488 5699.635 7769.947 2764.309 2457.629 13302.395 7972.092 18158.988 9680.598 8510.443 2864.714 6438.321 5581.652 13042.546 10867.278 7205.143 5634.468 2311.574 3790.107 6386.885 12508.568 17297.364 10923.248 10056.551 4463.198 5918.741 12669.315 6546.218 7487.417 285.294 12710.602 23088.884 5733.436 3852.921 3105.851 23666.845 7486.966 4447.330 2783.831 975.447 18012.660 6144.151 6613.492 10324.825 5267.101 8141.360 1245.061 12727.574 1661.279 2113.892 6358.100 10298.929 18775.920 7324.224 8471.834 4170.399 9603.976 1540.777 7776.253 10490.179 25455.661 670.815 6040.314 655.202 6246.148 1119.600 1958.410 7868.330 5721.554 6206.571 6046.098 691.723 5074.009 6077.019 5077.500 18491.690 18501.683 4139.283 4313.039 11413.326 7925.523 6510.584 7902.647 5890.268 14040.459 4813.596 8916.260 7930.594
5554.683 6770.145 12716.155 7227.718 11583.856 415.087 3815.519 5331.780 7261.531 9459.873 2111.287 1428.950 0.000 7555.379 4975.319 7376.838 2370.963 2231.690 12707.831 7377.527 17564.424 8956.282 7786.127 2471.367 6045.212 4857.336 12318.230 10142.962 6812.034 5241.122 1918.466 3195.542 5662.569 12115.459 16786.802 10198.933 9332.235 4069.852 5194.425 12276.206 6153.109 7094.308 1245.381 12317.494 22578.322 5009.120 3258.357 2584.919 23156.282 7093.857 4054.222 2581.097 981.416 17418.096 5419.835 5889.176 9600.509 4672.536 7417.044 1251.030 12334.465 1936.047 1720.545 5633.784 9574.613 18181.355 6729.659 7877.270 3777.052 8879.661 1815.545 7181.688 9979.617 25062.552 1207.443 5445.750 880.691 5852.801 1125.569 1565.302 7475.222 4997.238 5482.256 5321.782 1228.351 4519.127 5352.703 4482.935 17897.126 17907.119 3544.718 3919.692 10902.764 7330.959 6117.476 7431.050 5165.952 13529.897 4303.034 8321.695 7206.278
10489.588 8611.883 18465.858 3798.215 14166.789 7528.652 8051.613 5910.268 9545.712 11560.427 8552.341 7403.273 7454.473 0.000 6728.088 3303.374 6697.579 8634.957 17774.474 13127.230 22752.851 11039.900 10070.307 6797.983 1804.110 6382.801 14580.600 5940.346 2738.570 8719.258 6024.153 8992.190 5495.962 14698.391 21721.707 12483.113 11432.789 8305.945 6514.667 14859.139 1912.007 3077.114 7275.555 14900.426 27513.226 5546.382 9055.004 8609.464 28091.187 9676.790 7266.983 9022.150 7129.212 22606.523 7303.314 8173.356 8214.026 10411.902 3926.261 6905.834 14917.398 6472.224 6376.459 5589.584 11675.167 23432.322 11918.087 13626.972 7746.746 10963.279 6351.722 12432.656 14914.521 27645.485 7035.304 10596.023 7645.462 9310.149 6637.252 5898.389 507.261 5614.940 5834.060 5969.391 7056.213 9513.742 7246.372 10363.731 23148.093 23095.546 9425.514 7700.345 15837.668 12581.926 1876.374 3436.074 6276.692 18464.802 8947.658 14071.398 4020.257
8705.079 2359.572 13385.501 3410.774 15272.180 4616.698 7038.591 1004.661 3788.674 5987.016 5629.740 5575.158 4800.938 6726.832 0.000 3763.229 5812.565 5553.404 15676.929 9780.068 20533.523 5499.219 4313.269 5912.969 4746.336 175.427 8845.372 6326.019 4317.980 8464.194 5555.629 6164.641 1473.495 15611.757 19937.198 6726.075 5859.378 7292.924 686.850 15772.504 4927.564 3798.787 5596.097 15836.819 25643.687 1180.321 6227.455 5697.767 26221.647 10344.906 7418.975 6099.550 5332.132 20387.194 973.080 2416.318 5566.454 7641.635 3600.101 5601.746 15830.763 6018.693 5162.147 1444.710 6101.755 21150.454 9698.758 9401.640 7000.124 5422.597 5898.192 10150.787 13130.013 28667.153 5446.894 8414.848 5021.296 9075.873 5424.376 5326.131 6610.715 1168.440 1293.181 1217.231 5467.802 7488.226 916.137 7452.034 20866.225 20876.218 6513.817 7164.136 14053.159 10300.058 4689.670 3614.107 643.306 16680.293 7454.158 9271.090 3389.335
10794.026 5925.683 16739.026 788.932 14471.226 7292.020 8356.050 3224.069 7270.053 9373.271 8305.063 7707.711 7476.261 3781.811 4116.089 0.000 7002.017 8228.726 18078.912 13021.949 23057.289 8852.744 7794.649 7102.421 1836.681 3770.802 12326.751 4217.865 1372.959 9023.695 6328.591 8839.964 2809.762 15002.829 22026.144 10207.454 9245.633 8610.383 3828.468 15163.576 1982.543 823.677 7579.992 15204.864 27817.664 2860.182 8902.778 8373.090 28395.624 9981.227 7571.420 8774.872 7433.650 22910.961 4617.115 5897.698 8269.826 10316.958 916.978 7210.272 15221.835 6776.661 6680.896 2903.385 9488.010 23736.760 12222.524 12755.165 8051.183 8776.122 6656.160 12737.093 15218.959 27949.922 7339.742 10900.461 7696.619 9614.587 6941.690 6202.826 3665.694 2928.741 3147.860 3283.192 7360.650 9818.179 4560.173 10127.357 23452.530 23399.984 9189.140 8004.783 16142.106 12886.363 1780.015 426.791 3590.492 18769.239 9252.096 12624.615 1156.979
4438.568 7303.798 12751.948 7047.644 10424.258 2069.275 2091.115 5865.433 7795.184 9993.526 2707.337 2034.881 1995.096 6798.927 5508.972 6620.386 0.000 2886.161 11723.454 7413.320 16701.831 9489.935 8319.780 100.404 5288.760 5390.989 12851.883 10230.384 6055.582 3516.718 803.347 2941.170 6196.222 10642.909 15670.686 10732.586 9865.888 2345.448 5728.078 10803.656 5396.657 6337.856 1851.312 10867.971 21462.206 5542.773 3003.984 2764.461 22040.167 5376.058 2437.735 3177.147 1677.478 16555.503 5953.488 6422.829 10134.162 4360.882 7243.274 1454.100 10861.915 1659.563 409.865 6167.437 10108.266 17381.302 5867.066 7913.062 2052.648 9413.314 1539.062 6381.635 8863.501 23698.305 1611.062 4545.003 2221.220 4128.397 1185.519 808.849 6718.769 5530.891 6015.909 5855.435 1631.970 3462.721 5886.356 4383.709 17097.072 17044.526 3580.511 2195.288 9786.648 6530.905 5361.024 6753.086 5699.605 12413.781 2983.253 8357.488 7337.269
6064.384 7467.745 12040.351 7925.318 12785.941 1484.400 4548.654 6029.380 7959.131 10157.473 370.753 2442.861 1873.017 8829.969 5672.919 8277.773 3326.325 0.000 12183.812 6701.723 17040.405 9653.882 8483.727 3426.729 7319.802 5554.936 13015.830 10840.562 8086.624 5974.257 3069.389 2669.516 6360.169 13121.820 17296.502 10896.532 10029.835 4802.987 5892.025 13282.567 7427.699 8313.330 2609.577 13346.882 22150.569 5706.720 2732.331 1627.705 22728.529 7854.969 4929.038 840.562 2345.611 16894.077 6117.435 6586.776 10298.109 3802.928 8114.644 2615.226 13340.826 3083.747 2675.907 6331.384 10272.213 17675.842 6205.640 7201.465 4510.187 9577.261 2963.245 6597.328 10489.317 26177.216 2314.596 4839.543 1888.999 6585.936 2489.765 2839.891 8749.811 5694.838 6179.856 6019.382 2335.504 4066.481 6050.303 3613.327 17391.612 17383.100 2675.110 4674.199 11412.464 6825.445 7392.066 8128.650 5863.552 14039.597 4964.221 7645.891 7903.878
8892.763 17371.062 15262.394 17828.634 14518.561 12819.707 11123.488 15932.696 16569.321 16482.251 11990.684 13526.840 12753.670 17908.502 15576.236 17729.961 11558.678 12169.508 0.000 9970.571 5936.052 17150.212 17093.917 11659.083 16398.334 15458.253 19502.424 20743.879 17165.157 11581.680 12362.025 9918.680 16263.486 11474.670 5629.956 17430.128 16354.613 10831.902 15795.342 11858.974 16506.231 17447.430 13343.270 11772.358 11046.216 15610.036 9981.495 10868.699 11624.177 11952.249 11970.937 12460.493 13079.305 5789.724 16020.752 16490.092 20201.425 9971.620 18017.961 13012.779 11294.613 13213.365 11968.543 16234.701 16596.990 18746.013 7419.820 10583.035 11085.021 17073.591 13092.863 8074.753 4403.897 24467.520 13169.740 8205.526 13256.763 11300.684 12744.197 12362.651 17828.344 15598.155 16083.172 15922.699 13190.648 9535.593 15953.619 9994.448 18461.784 6278.747 10705.595 11323.988 4522.452 7895.617 16470.598 17862.661 15766.869 2325.951 10713.182 11131.737 17807.195
7746.758 10721.686 5615.749 12286.636 15927.761 7277.709 7498.204 10140.700 6770.902 6683.831 6398.673 7984.841 7211.672 13038.737 9236.901 12639.091 7308.138 6577.497 10235.532 0.000 15092.125 7351.793 7295.497 7408.543 11528.570 9311.467 9704.004 15201.880 12295.392 8923.807 7760.804 4881.304 10609.534 16146.325 15455.180 7631.708 6556.193 7752.537 9822.889 16307.073 11636.467 12577.666 7801.272 16371.388 20202.290 10068.038 4944.118 5409.956 20780.250 10879.475 8192.049 6868.482 7537.307 14945.797 9085.909 7378.455 14530.858 4178.770 12475.963 7806.921 16365.332 8223.868 7367.322 10580.749 6798.571 13360.580 5474.909 759.849 7459.738 7275.171 8103.366 2731.305 11183.945 29201.722 7763.334 5157.858 7714.764 9535.487 7629.551 7531.306 12958.579 10056.157 10429.220 10321.788 7784.242 5632.929 9018.777 3989.169 13076.350 15434.820 4667.969 7698.705 12107.091 4702.356 11600.833 12489.968 9779.346 12151.176 7577.011 1449.466 12265.197
13888.208 22183.307 20074.639 22640.880 19514.007 17631.953 16118.933 20744.942 21381.567 21294.497 16802.930 18339.086 17565.916 22903.947 20388.482 22725.406 16554.124 16981.753 5804.615 14782.817 0.000 21962.458 21906.163 16654.528 21393.780 20270.499 24314.670 25556.125 22160.602 16577.125 17357.471 14730.926 21075.732 16470.115 7286.329 22242.374 21166.859 15827.348 20607.588 16854.420 21501.677 22442.876 18155.516 16767.804 11318.808 20422.282 14793.741 15680.945 11896.769 16947.694 16966.383 17272.739 17891.551 972.178 20832.998 21302.338 25013.671 14783.866 22830.207 18008.224 16290.058 18208.810 16963.989 21046.947 21409.236 23558.259 12232.066 15395.281 16080.467 21885.837 18088.309 12886.999 9399.342 24740.112 18117.578 13017.772 18069.009 16296.129 17739.643 17358.096 22823.789 20410.401 20895.418 20734.945 18138.486 14347.839 20765.865 14806.694 23274.030 1350.998 15517.841 16319.434 9517.897 12707.863 21466.043 22844.213 20579.115 7321.397 15708.627 15943.983 22619.441
13067.316 6457.441 11530.741 8188.946 19634.417 8978.934 11400.828 5892.618 1476.157 1807.396 9991.977 9937.395 9163.175 11183.282 4988.819 8541.401 10174.801 9915.640 17759.994 7925.308 22616.587 0.000 1031.285 10275.205 9200.254 5063.384 4665.752 11104.190 8866.535 12826.430 9917.866 10526.878 6361.452 19973.993 22979.642 2546.455 1679.758 11655.160 5574.807 20134.741 9384.014 8576.958 9958.334 20199.056 27726.751 5964.571 10589.692 10060.004 28304.712 14707.143 11781.212 10461.786 9694.369 22470.259 4821.665 3114.210 10266.614 11619.356 8378.272 9963.983 20193.000 10380.930 9524.384 6332.667 1922.135 20956.083 12999.371 7546.880 11362.361 872.995 10260.428 10385.017 17492.249 33029.390 9809.131 12682.320 9383.533 13438.110 9786.613 9688.368 11067.165 5952.689 6181.138 6073.705 9830.039 11850.463 4754.533 11429.755 20671.853 22959.282 10876.054 11526.373 18415.396 12226.818 9143.588 8392.278 5531.263 19675.638 11816.394 7416.330 8167.506
12069.926 5460.052 11534.452 7191.556 18637.027 7981.545 10403.438 4895.228 478.768 2082.240 8994.587 8940.005 8165.785 10287.378 3991.429 7544.011 9177.412 8918.251 17763.705 7929.019 22620.298 1522.216 0.000 9277.816 8304.350 4065.995 4940.596 10106.800 7970.630 11829.041 8920.476 9529.488 5364.062 18976.604 22983.353 2821.299 1954.602 10657.771 4577.417 19137.351 8488.110 7579.569 8960.944 19201.666 27730.462 4967.181 9592.302 9062.614 28308.423 13709.753 10783.822 9464.397 8696.979 22473.970 3824.276 2116.821 9269.224 11006.482 7380.883 8966.593 19195.610 9383.540 8526.994 5335.277 2196.979 20959.794 13003.082 7550.591 10364.971 1445.594 9263.039 10388.728 16494.860 32032.000 8811.741 11779.695 8386.143 12440.720 8789.223 8690.978 10171.261 4955.300 5183.748 5076.316 8832.649 10853.073 3757.143 10816.881 20675.564 22962.993 9878.664 10528.983 17418.006 12230.528 8247.684 7394.888 4533.874 19679.348 10819.005 7420.041 7170.117
4751.887 7203.394 12651.544 6999.873 10419.494 1968.871 2404.434 5765.029 7694.780 9893.122 2606.933 1934.477 1894.692 6751.156 5408.568 6572.615 959.878 2785.757 12036.774 7312.916 17015.150 9389.531 8219.376 0.000 5240.989 5290.585 12751.479 10182.614 6007.811 3830.037 702.943 3130.931 6095.818 10951.096 15984.006 10632.181 9765.484 2658.767 5627.674 11111.844 5348.886 6290.085 1750.908 11153.131 21775.526 5442.369 3193.745 2664.057 22353.486 5689.378 2663.790 3076.743 1577.074 16868.822 5853.084 6322.425 10033.758 4607.925 7195.503 1353.696 11170.103 1611.793 309.461 6067.033 10007.862 17694.622 6180.386 7812.658 2365.968 9312.910 1491.291 6694.955 9176.821 23898.190 1510.658 4858.322 2120.816 4441.716 1085.115 761.079 6670.999 5430.487 5915.505 5755.031 1531.566 3776.041 5785.952 4418.324 17410.392 17357.845 3480.107 2508.607 10099.967 6844.225 5313.253 6705.315 5599.201 12727.101 3296.572 8257.084 7289.499
9449.744 6975.639 17289.938 2161.971 13126.945 6488.808 7011.768 4274.024 7909.468 9924.183 7512.497 6363.429 6414.629 2146.023 5091.844 1667.130 5657.735 7595.113 16734.630 12087.386 21713.007 9403.656 8434.063 5758.139 0.000 4746.557 12944.356 5180.482 1102.326 7679.414 4984.309 7952.346 3859.718 13658.547 20681.863 10846.869 9796.545 7266.101 4878.423 13819.295 346.754 1440.870 6235.710 13860.582 26473.382 3910.138 8015.160 7569.620 27051.343 8636.945 6227.139 7982.306 6089.368 21566.679 5667.070 6537.112 8945.744 9372.058 2290.017 5865.990 13877.554 5432.380 5336.615 3953.340 10038.923 22392.478 10878.243 12587.128 6706.902 9327.035 5311.878 11392.811 13874.677 26605.640 5995.460 9556.179 6605.618 8270.305 5597.408 4858.544 2029.905 3978.696 4197.816 4333.148 6016.368 8473.897 5610.128 9323.887 22108.249 22055.702 8385.670 6660.501 14797.824 11542.082 240.130 1799.830 4640.448 17424.958 7907.814 13031.554 2384.013
8529.652 2309.697 13335.626 3290.127 15096.753 4441.270 6863.163 841.747 3738.799 5937.141 5454.313 5399.731 4625.511 6658.166 345.287 3642.582 5637.137 5377.976 15501.502 9730.192 20358.095 5449.344 4263.394 5737.541 4677.670 0.000 8795.497 6188.582 4249.315 8288.766 5380.202 5989.214 1310.581 15436.329 19761.771 6676.200 5809.503 7117.496 523.936 15597.077 4858.898 3730.121 5420.670 15661.392 25468.259 1111.656 6052.028 5522.340 26046.220 10169.479 7243.548 5924.122 5156.705 20211.767 923.205 2366.443 5403.540 7466.208 3462.664 5426.319 15655.336 5843.266 4986.720 1281.796 6051.880 20975.027 9523.331 9351.765 6824.697 5372.722 5722.764 9975.360 12954.585 28491.726 5271.466 8239.421 4845.869 8900.446 5248.949 5150.704 6542.049 1099.774 1130.267 1041.804 5292.375 7312.799 866.262 7276.607 20690.797 20700.790 6338.389 6988.709 13877.732 10124.630 4621.004 3534.231 480.392 16504.866 7278.730 9221.214 3251.898
16563.446 9953.571 13289.638 11685.076 23130.547 12475.065 14896.958 9388.748 4972.287 3666.861 13488.107 13433.525 12659.305 14737.766 8484.949 12037.531 13670.931 13411.770 19518.892 9684.205 24375.485 3850.759 4844.979 13771.336 12754.738 8559.514 0.000 14600.320 12421.018 16322.560 13413.996 14023.008 9857.582 23470.123 24738.540 2412.910 3539.223 15151.290 9070.937 23630.871 12938.497 12073.088 13454.464 23695.186 29485.649 9460.701 14085.822 13556.134 30063.609 18203.273 15277.342 13957.916 13190.499 24229.157 8317.795 6610.341 13762.744 13378.253 11874.402 13460.113 23689.130 13877.060 13020.514 9828.797 3781.600 22714.981 14758.268 9305.778 14858.491 3774.138 13756.558 12143.914 20467.304 36525.520 13305.261 14441.217 12879.663 16934.240 13282.743 13184.498 14621.648 9448.820 9677.268 9569.835 13326.169 14832.412 8250.663 13188.652 22430.751 24718.180 13867.453 15022.503 21390.451 13985.715 12698.072 11888.408 9027.393 21434.535 15312.524 9175.227 11663.636
14183.762 7138.767 20373.510 5471.776 17860.963 10899.292 11745.786 6875.011 10877.324 13007.755 11912.334 11097.447 11083.532 5915.890 7767.031 4976.935 10391.753 11835.997 21468.648 16629.220 26447.025 12487.228 11401.920 10492.157 5420.423 7421.744 15934.023 0.000 6055.803 12413.431 9718.327 12447.235 6460.705 18392.565 25415.881 13814.725 12880.117 12000.119 7479.410 18553.313 5043.014 5506.521 10969.728 18594.600 31207.400 6511.124 12510.049 11980.361 31785.361 13370.963 10961.156 12382.143 10823.386 26300.697 8053.226 9504.969 7493.535 13924.229 5186.261 10600.008 18611.572 10166.397 10070.633 6554.327 13122.495 27126.496 15612.261 16389.650 11440.920 12410.606 10045.896 16126.829 18608.695 31339.658 10729.478 14290.197 11303.890 13004.323 10331.426 9592.562 5257.029 6579.683 6798.802 6934.134 10750.386 13207.915 7986.093 13734.628 26842.267 26789.720 12796.411 11394.519 19531.842 16276.100 5379.658 5109.635 7241.434 22158.975 12641.832 16259.099 4975.495
10569.994 6271.357 16880.376 1134.606 14247.195 7509.459 8132.019 3569.742 7499.905 9514.621 8522.501 7483.679 7534.879 3426.886 4461.762 639.765 6777.985 8446.165 17854.880 13207.636 22833.257 8994.094 8024.501 6878.389 1612.649 4116.475 12534.794 4563.539 0.000 8799.664 6104.559 9057.403 3155.436 14778.797 21802.113 10437.306 9386.983 8386.351 4174.141 14939.545 1627.617 789.603 7355.961 14980.832 27593.632 3205.856 9120.217 8590.528 28171.593 9757.196 7347.389 8992.311 7209.618 22686.929 4962.789 6127.550 8615.500 10492.308 1262.652 6986.240 14997.804 6552.630 6456.865 3249.059 9629.361 23512.728 11998.493 12896.516 7827.152 8917.472 6432.128 12513.062 14994.927 27725.891 7115.710 10676.429 7725.868 9390.555 6717.658 5978.795 3310.768 3274.414 3493.534 3628.866 7136.619 9594.148 4905.846 10344.796 23228.499 23175.952 9406.578 7780.751 15918.074 12662.332 1555.983 772.465 3936.166 18545.208 9028.064 12765.965 1502.653
3179.722 10502.862 14007.843 9218.055 8237.249 5268.339 2044.042 9064.496 10994.248 13192.590 5717.463 5233.945 5194.160 8969.338 8708.036 8790.798 3199.064 5896.287 10954.400 8669.216 15992.533 12688.999 11518.844 3299.468 7459.171 8590.053 16050.946 12400.796 8225.993 0.000 4002.410 4573.967 9395.286 8379.057 14349.709 13931.649 13064.952 1287.341 8927.142 8586.285 7567.068 8508.267 5050.376 8650.599 20141.229 8741.836 4636.781 5305.646 20719.189 3165.478 2399.298 6187.273 4876.542 15846.205 9152.552 9621.893 13333.225 4983.915 9413.685 4653.164 8644.543 4822.719 3608.928 9366.501 13307.330 18032.239 6146.538 9168.958 1728.221 12612.377 4702.217 7032.572 7905.252 21480.934 4810.125 5195.940 5420.283 1370.858 4384.582 4003.036 8889.181 8729.955 9214.972 9054.499 4831.034 3920.103 9085.419 5006.743 17748.009 16335.228 5420.499 1667.043 9017.593 7181.842 7531.435 8923.498 8898.669 10973.948 2132.760 9613.384 9507.681
4894.223 7435.241 12883.391 6814.492 10521.752 2022.060 2546.770 5996.876 7926.628 10124.970 2838.781 1980.023 1947.881 6565.775 5640.416 6387.234 1102.214 3017.604 12179.110 7544.763 17157.486 9621.379 8451.223 1202.618 5055.608 5522.433 12983.326 9997.232 5822.430 3972.373 0.000 3362.778 6327.666 11053.355 16126.342 10864.029 9997.332 2801.103 5859.522 11214.102 5163.505 6104.704 1796.454 11255.390 21917.862 5674.216 3425.593 2895.904 22495.822 5831.714 2766.048 3308.590 1622.620 17011.158 6084.932 6554.272 10265.605 4816.537 7010.122 1399.242 11272.361 1426.411 352.306 6298.881 10239.709 17836.958 6322.722 8044.506 2508.304 9544.757 1305.910 6837.291 9319.157 24000.448 1556.204 5000.658 2166.362 4584.052 1130.661 575.697 6485.617 5662.335 6147.352 5986.878 1577.112 3918.377 6017.799 4650.171 17552.728 17500.181 3711.954 2650.943 10242.303 6986.561 5127.871 6519.934 5831.048 12869.437 3438.908 8488.931 7104.117
4221.967 7763.370 10262.261 8220.943 11861.975 3212.016 3507.460 6325.005 8254.756 10453.098 2382.992 3919.148 3145.979 9288.980 5968.544 8573.398 2939.157 2561.816 9863.013 4923.634 14719.607 9949.507 8779.352 3039.561 7778.813 5850.561 13311.455 11136.187 8545.635 4933.063 3695.111 0.000 6655.794 12080.626 15082.661 11192.158 10325.460 3761.793 6187.650 12241.373 7886.710 8608.955 3735.579 12305.688 19829.771 6002.345 62.814 1261.007 20407.731 6813.775 3887.844 2852.802 3471.614 14573.278 6413.060 6882.401 10593.734 1974.294 8410.269 3741.228 12299.632 4158.175 3301.629 6627.009 10567.838 15336.538 3884.842 5423.376 3468.994 9872.886 4037.673 4336.871 8383.843 25136.023 3697.641 2600.932 3649.071 5544.742 3563.858 3465.613 9208.823 5990.463 6475.481 6315.007 3718.549 1674.310 6345.928 1973.445 15052.309 15062.302 1185.970 3633.005 9306.990 4486.142 7851.077 8424.275 6159.177 11778.657 3618.392 5867.801 8199.503
9355.050 3167.098 14669.738 2296.046 15922.151 5266.668 7688.561 654.769 5072.911 7271.253 6279.710 6225.128 5450.908 5713.785 1794.505 2648.501 6462.535 6203.374 16326.900 10996.597 21183.493 6783.456 5597.507 6562.939 3768.655 1449.218 10129.610 5194.501 3304.934 9114.164 6205.599 6814.611 0.000 16261.727 20587.168 8010.312 7143.615 7942.894 1259.168 16422.474 3914.517 2755.651 6246.068 16486.789 26293.657 620.437 6877.426 6347.737 26871.618 10994.876 8068.945 6749.520 5982.102 21037.165 1938.279 3700.556 5511.241 8291.605 2468.584 6251.717 16480.733 6668.664 5812.117 284.041 7385.993 21800.424 10348.728 10685.878 7650.095 6706.835 6548.162 10800.758 13779.983 29317.124 6096.864 9064.819 5671.267 9725.843 6074.347 5976.102 5597.668 688.995 389.275 928.969 6117.772 8138.196 1881.337 8102.004 21516.195 21526.188 7163.787 7814.106 14703.130 10950.028 3711.989 2540.150 1230.694 17330.263 8104.128 10555.327 2257.818
9838.513 17903.224 21704.085 15560.237 4502.928 12524.393 9222.492 16464.858 18394.610 20592.952 13190.498 12399.014 12450.214 15311.520 16108.398 15132.979 10662.119 13369.321 11184.919 16365.457 16223.053 20089.361 18919.206 10762.523 13801.353 15990.415 23451.308 18742.977 14568.175 7882.131 11019.894 12165.551 16795.648 0.000 14109.690 21332.011 20465.314 9169.472 16327.504 512.955 13909.250 14850.449 12271.295 1048.959 19901.210 16142.198 12228.365 12897.230 20479.170 6191.701 8985.419 13660.307 12124.953 16076.725 16552.914 17022.255 20733.587 12680.156 15755.867 11901.575 571.214 11467.964 10967.857 16766.863 20707.692 25265.268 12628.529 16865.200 8906.672 20012.739 11347.463 14652.385 8256.304 14421.041 12031.045 12892.181 12641.203 7213.625 11632.993 10894.129 15231.362 16130.317 16615.334 16454.861 12051.953 11616.345 16485.781 12702.984 24981.039 16565.748 13031.748 8845.494 9854.430 14414.872 13873.617 15265.679 16299.031 10733.929 10014.891 17309.625 15849.862
12952.408 21709.227 20753.001 22166.800 17535.781 17058.196 15183.133 20270.862 22059.929 21972.859 16757.521 17653.205 16960.179 21968.147 19914.401 21789.606 15618.323 16936.345 5654.843 15461.179 8977.797 22640.820 22584.525 15718.727 20457.979 19796.418 24993.031 25082.044 21224.802 14722.159 16421.670 15324.813 20601.651 14491.890 0.000 22920.735 21845.221 14805.567 20133.507 14876.194 20565.876 21507.075 17469.635 14789.578 6474.254 19948.202 15387.628 16230.879 7052.214 14999.247 15982.545 17227.331 17208.206 8831.469 20358.917 20828.258 24539.591 15462.228 22356.126 17072.424 14311.833 17273.010 16028.188 20572.866 22087.598 24236.621 12910.428 16073.643 15144.666 22564.198 17152.508 13565.361 7887.955 19895.557 17229.385 13696.134 17385.664 14347.682 16803.842 16422.296 21887.989 19936.320 20421.338 20260.864 17250.293 13912.929 20291.785 15485.056 23952.391 9320.492 16125.167 15189.366 8600.881 13386.224 20530.243 21922.306 20105.034 4851.731 14772.827 16622.345 22145.360
14554.086 7944.211 11172.674 9648.938 21121.187 10465.705 12887.598 7379.388 2962.927 1334.283 11478.747 11424.165 10649.945 12620.802 6475.589 10001.393 11661.571 11402.410 17401.927 7567.241 22258.521 1841.399 2835.619 11761.976 10637.774 6550.154 2721.418 12564.182 10304.054 14313.200 11404.636 11963.823 7848.222 21460.763 22621.575 0.000 1206.645 13141.930 7061.577 21621.511 10821.533 10017.506 11445.104 21685.826 27368.685 7451.341 12026.638 11546.774 27946.645 16193.913 13267.982 11948.556 11181.139 22112.192 6308.435 4600.981 11753.384 11261.289 9838.265 11450.753 21679.770 11867.700 11011.154 7819.437 1449.022 20598.016 12641.304 7188.814 12849.131 1764.778 11747.198 10026.950 18350.340 34516.160 11295.901 12324.253 10870.303 14924.880 11273.383 11175.138 12504.684 7439.459 7667.908 7560.475 11316.809 12715.448 6241.303 11071.688 20313.787 22601.216 11750.489 13013.143 19273.487 11868.751 10581.108 9832.826 7018.033 19317.571 13303.164 7058.263 9627.499
13932.351 7337.737 10548.643 9024.907 20499.452 9843.969 12265.862 6757.653 2356.453 127.638 10857.012 10802.430 10028.210 11996.770 5853.854 9377.361 11039.836 10780.675 16777.896 6943.210 21634.489 1234.925 2229.144 11140.240 10013.743 5928.419 3634.137 11940.151 9680.023 13691.465 10782.901 11339.792 7226.487 20839.028 21997.544 1508.452 0.000 12520.195 6439.842 20999.776 10197.502 9393.474 10823.369 21064.091 26744.653 6829.606 11402.606 10925.039 27322.614 15572.178 12646.247 11326.821 10559.404 21488.161 5701.961 3994.506 11146.909 10637.258 9214.233 10829.018 21058.035 11245.965 10389.419 7197.701 242.377 19973.985 12017.273 6564.783 12227.396 1158.303 11125.463 9402.919 17726.308 33894.425 10674.165 11700.222 10248.568 14303.145 10651.648 10553.403 11880.653 6817.724 7046.173 6938.740 10695.074 12091.417 5634.828 10447.657 19689.755 21977.184 11126.458 12391.408 18649.455 11244.720 9957.077 9208.794 6396.298 18693.540 12681.429 6434.232 9003.467
3056.402 9215.521 12744.858 8449.227 9353.122 3980.998 914.000 7777.155 9706.907 11905.249 4440.101 3946.604 3906.819 8200.510 7420.695 8021.969 1911.723 4618.925 10729.551 7406.230 15767.685 11401.658 10231.503 2012.127 6690.343 7302.712 14763.605 11631.967 7457.165 2339.603 2715.069 3310.981 8107.945 9571.773 14676.784 12644.308 11777.611 0.000 7639.801 9732.520 6798.240 7739.439 3763.035 9796.835 20468.303 7454.495 3373.795 4042.660 21046.264 4304.922 1761.449 4909.911 3589.201 15621.357 7865.211 8334.552 12045.884 3720.929 8644.857 3365.823 9790.779 3566.409 2321.587 8079.160 12019.989 16769.253 5227.114 7905.973 875.534 11325.036 3445.907 5769.586 7869.598 22627.170 3522.785 3932.954 4132.942 2951.283 3097.241 2715.695 8120.352 7442.614 7927.631 7767.158 3543.693 2657.118 7798.078 3743.757 16485.024 16110.380 4157.513 1124.152 8792.745 5918.857 6762.606 8154.669 7611.328 11419.879 1266.918 8350.398 8738.852
8516.659 2714.366 13740.295 2816.869 15083.760 4428.278 6850.171 317.811 4143.468 6341.810 5441.320 5386.738 4612.518 6234.608 862.843 3169.324 5624.144 5364.983 15488.509 10134.862 20345.102 5854.013 4668.064 5724.549 4289.478 517.556 9200.167 5715.324 3825.757 8275.773 5367.209 5976.221 786.645 15423.336 19748.778 7080.869 6214.172 7104.503 0.000 15584.084 4435.340 3276.474 5407.677 15648.399 25455.266 755.610 6039.035 5509.347 26033.227 10156.486 7230.555 5911.129 5143.712 20198.774 1327.874 2771.113 5595.794 7453.215 2989.407 5413.326 15642.343 5830.273 4973.727 757.860 6456.550 20962.034 9510.338 9756.435 6811.704 5777.391 5709.771 9962.367 12941.592 28478.733 5258.474 8226.428 4832.876 8887.453 5235.956 5137.711 6118.491 743.729 606.331 675.724 5279.382 7299.806 1270.932 7263.614 20677.804 20687.797 6325.397 6975.716 13864.739 10111.637 4232.812 3060.973 301.251 16491.873 7265.737 9625.884 2778.641
10200.197 17564.361 21542.132 15221.374 4155.603 12185.530 9051.423 16125.996 18055.748 20254.090 12967.900 12060.152 12111.351 14972.658 15769.535 14794.117 10360.510 13146.724 11531.689 16203.504 16569.823 19750.498 18580.343 10460.914 13462.490 15651.552 23112.446 18404.115 14229.313 7893.629 10681.031 11994.482 16456.785 868.376 14456.460 20993.149 20126.452 9127.681 15988.641 0.000 13570.387 14511.586 11932.433 536.004 20247.979 15803.336 12057.296 12726.160 20825.940 6032.658 8646.557 13437.710 11786.091 16423.495 16214.051 16683.392 20394.725 12518.203 15417.004 11562.712 58.259 11129.102 10628.995 16428.000 20368.829 25566.527 12990.212 16703.247 8735.602 19673.877 11008.600 14566.860 8603.074 14206.720 11692.183 12730.228 12302.340 7284.128 11294.131 10555.267 14892.500 15791.455 16276.472 16115.998 11713.091 11454.392 16146.919 12541.031 25282.298 16912.518 12860.679 8674.424 10201.200 14716.131 13534.754 14926.817 15960.168 11080.699 10023.781 17147.672 15511.000
9321.873 7366.307 17298.142 2552.639 12999.073 6360.936 6883.897 4664.692 8300.135 10314.851 7384.625 6235.558 6286.758 1869.211 5482.512 2057.798 5529.864 7467.242 16606.759 11959.515 21585.136 9794.324 8824.731 5630.268 558.534 5137.225 13335.024 5500.158 1492.994 7551.542 4856.438 7824.474 4250.386 13530.676 20553.991 11237.536 10187.213 7138.230 5269.091 13691.423 0.000 1831.537 6107.839 13732.711 26345.511 4300.805 7887.289 7441.749 26923.471 8509.074 6099.267 7854.435 5961.497 21438.808 6057.738 6927.780 9265.421 9244.186 2680.685 5738.119 13749.682 5304.508 5208.743 4344.008 10429.591 22264.607 10750.371 12459.257 6579.030 9717.702 5184.007 11264.940 13746.806 26477.769 5867.589 9428.308 6477.747 8142.434 5469.537 4730.673 1787.977 4369.364 4588.483 4723.815 5888.497 8346.026 6000.796 9196.016 21980.377 21927.831 8257.799 6532.630 14669.953 11414.210 630.797 2190.498 5031.115 17297.086 7779.943 12903.683 2774.681
10252.700 5796.079 16233.661 1055.115 13929.901 6862.744 7814.725 3094.465 6853.190 8867.906 7875.786 7166.385 7046.984 3240.486 3986.485 1138.313 6460.691 7799.450 17537.586 12592.673 22515.963 8347.379 7377.786 6561.095 1295.355 3641.198 11888.079 4858.992 831.634 8482.370 5787.265 8410.687 2680.158 14461.503 21484.819 9790.591 8740.268 8069.057 3698.864 14622.251 1441.217 0.000 7038.667 14663.538 27276.338 2730.578 8473.502 7943.813 27854.299 9439.902 7030.095 8345.596 6892.324 22369.635 4487.511 5480.835 8140.222 9887.681 1558.105 6668.946 14680.510 6235.336 6139.571 2773.781 8982.645 23195.434 11681.199 12249.800 7509.858 8270.757 6114.834 12195.768 14677.633 27408.597 6798.416 10359.135 7267.343 9073.261 6400.364 5661.501 3124.368 2799.137 3018.256 3153.588 6819.325 9276.854 4430.569 9698.080 22911.205 22858.658 8759.863 7463.457 15600.780 12345.038 1238.689 1151.665 3460.888 18227.914 8710.770 12119.250 1798.105
5779.951 7209.166 13025.425 7666.739 11697.392 372.985 3929.292 5770.801 7700.553 9898.895 2028.727 940.500 788.072 7668.915 5414.341 7490.374 2484.736 2172.334 13017.101 7686.798 17873.694 9395.304 8225.148 2585.140 6158.747 5296.358 12757.251 10581.984 6925.570 5354.895 2032.001 3504.813 6101.591 12228.994 17012.070 10637.954 9771.257 4183.625 5633.447 12389.742 6266.644 7207.843 0.000 12431.029 22803.590 5448.141 3567.627 2820.556 23381.550 7207.392 4167.757 2498.537 690.152 17727.366 5858.857 6328.197 10039.530 4981.807 7856.066 959.767 12448.001 1581.386 1834.319 6072.806 10013.634 18490.626 7038.930 8186.540 3890.826 9318.682 1460.885 7490.959 10204.885 25176.087 812.236 5755.020 369.908 5966.574 834.306 1678.837 7588.757 5436.260 5921.277 5760.804 833.144 4788.715 5791.724 4792.206 18206.396 18216.389 3853.988 4033.465 11128.031 7640.229 6231.011 7623.074 5604.974 13755.165 4528.302 8630.966 7645.300
10096.597 17990.425 21962.169 15647.438 4581.668 12611.594 9477.487 16552.060 18481.812 20680.154 13393.964 12486.216 12537.415 15398.722 16195.599 15220.181 10786.574 13572.788 11794.176 16623.541 16832.310 20176.563 19006.407 10886.978 13888.554 16077.617 23538.510 18830.179 14655.377 8140.216 11107.095 12420.546 16882.850 644.900 14718.947 21419.213 20552.516 9427.557 16414.706 444.893 13996.451 14937.650 12358.497 0.000 20510.467 16229.400 12483.360 13152.224 21088.427 6449.785 9072.621 13863.774 12212.155 16685.982 16640.115 17109.456 20820.789 12938.240 15843.068 11988.777 503.152 11555.166 11055.059 16854.064 20794.893 25523.353 12886.613 17123.284 9161.666 20099.941 11434.664 14910.469 8865.561 14393.704 12118.247 13150.265 12728.405 7471.709 11720.195 10981.331 15318.564 16217.519 16702.536 16542.062 12139.155 11874.429 16572.983 12961.068 25239.123 17175.005 13286.743 9100.488 10463.687 14672.956 13960.818 15352.881 16386.232 11343.186 10272.976 17567.709 15937.064
18617.894 27374.713 25305.751 27832.286 23236.581 22723.682 20848.619 25936.348 26612.679 26525.608 22034.041 23318.691 22625.665 27633.633 25579.887 27455.092 21283.810 22212.865 11035.726 20013.929 11113.329 27193.570 27137.274 21384.214 26123.465 25461.904 29545.781 30747.530 26890.288 20422.960 22087.156 19962.038 26267.137 20192.690 6528.587 27473.485 26397.970 20506.367 25798.993 20576.994 26231.362 27172.561 23135.122 20490.378 0.000 25613.688 20024.852 20912.056 1398.682 20700.047 21683.346 22503.851 22873.692 10967.001 26024.403 26493.744 30205.077 20014.978 28021.613 22737.910 20012.633 22938.496 21693.674 26238.352 26640.348 28789.371 17463.178 20626.393 20810.152 27116.948 22817.994 18118.111 13594.262 13968.211 22894.871 18248.884 23051.150 20048.483 22469.328 22087.782 27553.475 25601.807 26086.824 25926.350 22915.780 19578.415 25957.271 20037.806 28505.141 11456.024 20748.953 20890.167 14307.188 17938.974 26195.729 27587.792 25770.520 10760.446 20438.313 21175.095 27810.846
8816.451 3190.742 14246.245 2671.333 15383.552 4728.070 7149.963 471.919 4649.418 6847.760 5741.112 5686.530 4912.310 6041.034 1255.906 3023.788 5923.937 5664.776 15788.301 10457.998 20644.895 6359.963 5174.014 6024.341 4060.538 910.620 9706.117 5569.788 3632.182 8575.566 5667.001 6276.013 763.797 15723.129 20048.570 7586.819 6720.122 7404.296 1076.317 15883.876 4241.766 3112.989 5707.469 15948.191 25755.059 0.000 6338.827 5809.139 26333.019 10456.278 7530.347 6210.922 5443.504 20498.566 1833.824 3277.063 5893.301 7753.007 2843.871 5713.118 15942.135 6130.065 5273.519 735.012 6962.500 21261.826 9810.130 10262.385 7111.496 6283.342 6009.564 10262.159 13241.385 28778.525 5558.266 8526.220 5132.668 9187.245 5535.748 5437.503 5924.917 478.291 583.483 423.010 5579.174 7599.598 1776.882 7563.406 20977.597 20987.590 6625.189 7275.508 14164.531 10411.430 4003.872 2915.437 828.604 16791.665 7565.530 10131.834 2633.105
4171.838 7713.242 10212.133 8170.815 11811.847 3161.888 3457.332 6274.877 8204.628 10402.970 2332.864 3869.020 3095.851 9238.852 5918.416 8523.270 2889.029 2511.688 9812.885 4873.505 14669.478 9899.379 8729.224 2989.433 7728.685 5800.433 13261.327 11086.059 8495.507 4882.935 3644.983 462.195 6605.666 12030.498 15032.533 11142.029 10275.332 3711.665 6137.522 12191.245 7836.582 8558.827 3685.451 12255.560 19779.643 5952.217 0.000 1210.879 20357.603 6763.647 3837.716 2802.674 3421.486 14523.150 6362.932 6832.273 10543.606 1924.165 8360.141 3691.100 12249.504 4108.047 3251.501 6576.881 10517.710 15286.410 3834.714 5373.248 3418.865 9822.758 3987.545 4286.743 8333.715 25085.895 3647.512 2550.804 3598.943 5494.614 3513.730 3415.485 9158.695 5940.335 6425.353 6264.879 3668.421 1624.182 6295.800 1923.317 15002.180 15012.173 1135.842 3582.877 9256.861 4436.013 7800.949 8374.147 6109.049 11728.529 3568.264 5817.673 8149.375
5149.292 7385.269 10589.881 7842.842 12568.700 2833.915 4214.184 5946.904 7876.656 10074.998 1770.238 3541.047 2767.878 9077.590 5590.444 8195.297 3573.946 1949.062 10733.342 5251.254 15589.935 9571.407 8401.251 3674.350 7567.423 5472.461 12933.354 10758.087 8334.245 5639.787 3317.010 1219.047 6277.694 12787.350 15952.990 10814.057 9947.360 4468.517 5809.550 12948.098 7675.320 8230.855 3357.478 13012.413 20700.100 5624.244 1281.861 0.000 21278.060 7520.500 4594.568 2240.048 3093.513 15443.607 6034.960 6504.300 10215.633 2352.459 8032.169 3363.127 13006.357 3780.074 2923.528 6248.909 10189.737 16225.373 4755.171 5750.996 4175.718 9494.785 3659.573 5146.858 9337.970 25842.747 3319.540 3389.073 3270.971 6251.467 3185.757 3087.512 8997.432 5612.363 6097.380 5936.906 3340.448 2628.438 5967.827 2162.858 15941.143 15932.630 1224.641 4339.730 10261.117 5374.976 7639.686 8046.175 5781.076 12648.986 4357.809 6195.422 7821.403
19208.020 27964.840 25895.878 28422.412 23826.708 23313.808 21438.746 26526.474 27202.805 27115.735 22624.168 23908.817 23215.791 28223.759 26170.014 28045.218 21873.936 22802.992 11625.853 20604.055 11703.455 27783.696 27727.401 21974.340 26713.592 26052.031 30135.908 31337.657 27480.414 21013.086 22677.283 20552.165 26857.264 20782.816 7118.714 28063.612 26988.097 21096.494 26389.120 21167.121 26821.489 27762.688 23725.248 21080.505 1201.845 26203.814 20614.979 21502.183 0.000 21290.174 22273.472 23093.977 23463.819 11557.127 26614.530 27083.870 30795.203 20605.104 28611.739 23328.036 20602.760 23528.622 22283.801 26828.479 27230.474 29379.497 18053.304 21216.519 21400.279 27707.075 23408.121 18708.237 14184.388 13750.699 23484.998 18839.010 23641.276 20638.609 23059.455 22677.908 28143.601 26191.933 26676.950 26516.477 23505.906 20168.541 26547.397 20627.932 29095.268 12046.150 21339.079 21480.293 14897.314 18529.101 26785.856 28177.918 26360.647 11350.573 21028.439 21765.221 28400.973
5638.236 12697.043 16444.326 10732.749 6217.181 7462.519 3953.618 11258.677 13188.429 15386.771 7921.623 7428.126 7388.341 10484.033 10902.217 10305.492 5393.245 8100.447 10760.290 11105.699 15798.424 14883.180 13713.024 5493.649 8973.865 10784.234 18245.127 13915.490 9740.688 2757.697 6077.425 6896.676 11589.467 5933.459 14291.406 16125.830 15259.133 3991.750 11121.323 6202.092 9081.762 10022.961 7244.556 6527.230 20082.925 10936.017 6959.491 7628.355 20660.886 0.000 3918.827 8391.432 7070.723 15652.096 11346.733 11816.073 15527.406 7420.398 10928.379 6847.345 6260.350 6540.291 5731.766 11560.682 15501.510 20468.722 8428.252 11605.441 3637.797 14806.558 6419.789 9469.055 7622.952 19460.865 7004.306 7632.423 7614.464 2148.197 6578.763 5951.660 10403.875 10924.136 11409.153 11248.680 7025.214 6356.586 11279.600 7443.225 20184.492 16141.119 7762.873 3576.619 8546.098 9618.325 9046.129 10438.192 11092.850 10915.644 4887.850 12049.867 11022.375
4310.485 9192.511 13629.524 7232.916 8868.347 3904.942 1812.288 7754.145 9683.897 11882.239 4596.050 3779.563 3830.763 6984.199 7397.685 6805.658 1955.657 4774.874 12162.009 8290.896 17200.143 11378.648 10208.493 2056.061 5474.032 7279.702 14740.595 10415.657 6240.854 2688.110 2400.443 3687.036 8084.935 9321.512 15947.636 12621.298 11754.601 2066.621 7616.791 9482.260 5581.929 6523.128 3651.844 9546.575 21739.155 7431.485 3749.850 4418.714 22317.116 4054.662 0.000 5065.859 3505.502 17053.814 7842.201 8311.541 12022.874 4865.119 7428.546 3282.124 9540.519 2848.513 2224.143 8056.150 11996.978 17885.540 6371.304 8790.639 1500.044 11302.026 2728.012 6885.873 9302.056 22347.043 3411.594 5049.241 4021.752 3292.794 3013.542 2274.678 6904.041 7419.604 7904.621 7744.148 3432.502 3966.959 7775.068 4887.947 17601.310 17542.837 4553.233 1453.644 10225.202 7035.143 5546.296 6938.358 7588.318 12571.874 2763.721 9235.064 7522.541
6226.441 7311.782 12202.408 7769.355 12866.440 1646.458 4629.153 5873.417 7803.169 10001.511 532.810 2604.918 2035.074 8910.468 5516.956 8121.810 3406.824 162.057 12345.869 6863.780 17202.462 9497.919 8327.764 3507.228 7400.301 5398.973 12859.867 10684.599 8167.123 6054.756 3149.888 2831.574 6204.206 13202.319 17458.560 10740.570 9873.873 4883.485 5736.062 13363.066 7508.198 8157.367 2771.634 13427.381 22312.626 5550.757 2894.388 1789.762 22890.587 7935.468 5009.537 0.000 2507.669 17056.134 5961.472 6430.813 10142.146 3964.986 7958.681 2777.283 13421.325 3245.804 2756.406 6175.421 10116.250 17837.899 6367.698 7363.523 4590.686 9421.298 3125.302 6759.385 10651.374 26257.715 2476.654 5001.600 2051.056 6666.435 2651.822 2920.390 8830.310 5538.876 6023.893 5863.419 2497.562 4228.539 5894.340 3775.385 17553.670 17545.157 2837.167 4754.698 11574.521 6987.503 7472.565 7972.687 5707.589 14201.655 5044.719 7807.948 7747.915
5815.367 7273.694 13060.840 7481.641 11261.402 812.424 3493.302 5835.329 7765.080 9963.422 2508.623 1051.512 932.628 7232.925 5478.868 7054.384 2048.746 2502.742 13052.516 7722.213 17909.109 9459.831 8289.676 2149.150 5722.757 5360.885 12821.779 10646.511 6489.580 4918.905 1596.011 3540.228 6166.118 11793.004 17047.485 10702.482 9835.784 3747.635 5697.974 11953.752 5830.654 6771.853 867.943 11995.039 22839.005 5512.669 3603.042 2855.971 23416.965 6771.402 3731.767 2978.433 0.000 17762.781 5923.384 6392.725 10104.058 5017.222 7677.271 470.731 12012.011 1601.922 1398.329 6137.333 10078.162 18526.041 7074.345 8221.955 3454.836 9383.210 1481.420 7526.374 10240.300 24740.097 627.693 5790.435 1139.892 5530.584 345.270 1242.847 7152.767 5500.787 5985.805 5825.331 648.601 4824.130 5856.252 4827.621 18241.811 18251.804 3889.404 3597.475 11163.447 7675.644 5795.021 7187.084 5669.501 13790.580 4385.440 8666.381 7709.827
14071.191 22366.290 20257.622 22823.863 19696.989 17814.936 16301.916 20927.925 21564.550 21477.480 16985.912 18522.068 17748.899 23086.930 20571.464 22908.389 16737.107 17164.736 5987.597 14965.800 467.393 22145.441 22089.146 16837.511 21576.762 20453.481 24497.653 25739.107 22343.585 16760.108 17540.453 14913.909 21258.714 16653.098 7469.312 22425.357 21349.842 16010.331 20790.570 17037.402 21684.659 22625.858 18338.499 16950.787 11501.791 20605.265 14976.723 15863.927 12079.751 17130.677 17149.365 17455.722 18074.534 0.000 21015.980 21485.321 25196.654 14966.849 23013.190 18191.207 16473.041 18391.793 17146.971 21229.929 21592.219 23741.242 12415.049 15578.264 16263.450 22068.819 18271.291 13069.982 9582.325 24923.094 18300.561 13200.755 18251.991 16479.112 17922.625 17541.079 23006.772 20593.384 21078.401 20917.927 18321.469 14530.821 20948.848 14989.677 23457.012 912.074 15700.824 16502.416 9700.880 12890.845 21649.026 23027.195 20762.097 7504.380 15891.610 16126.966 22802.424
8825.166 2442.008 13771.413 3586.155 15392.267 4736.785 7158.678 1087.097 4174.586 6372.928 5749.827 5695.245 4921.025 7003.894 1293.508 3938.610 5932.652 5673.491 15797.016 10165.980 20653.609 5885.131 4699.182 6033.056 5058.764 948.221 9231.285 6484.610 4595.043 8584.281 5675.716 6284.728 1555.931 15731.844 20057.285 7111.987 6245.290 7413.010 769.286 15892.591 5204.626 4045.760 5716.184 15956.906 25763.774 1524.896 6347.542 5817.854 26341.734 10464.993 7539.062 6219.636 5452.219 20507.281 0.000 2802.231 5648.890 7761.722 3758.693 5721.833 15950.850 6138.780 5282.234 1527.146 6487.668 21270.541 9818.845 9787.553 7120.211 5808.509 6018.278 10270.874 13250.099 28787.240 5566.981 8534.935 5141.383 9195.960 5544.463 5446.218 6887.777 1513.015 1375.617 1445.010 5587.889 7608.313 156.397 7572.121 20986.311 20996.304 6633.904 7284.223 14173.246 10420.144 5002.098 3830.259 725.742 16800.380 7574.244 9657.002 3547.927
10865.628 4280.894 11052.092 5958.184 17432.729 6777.246 9199.139 3690.929 1556.583 3686.337 7790.288 7735.707 6961.487 8930.047 2787.130 6310.638 7973.113 7713.952 17281.345 7446.659 22137.938 3165.810 2081.179 8073.517 6947.019 2861.696 6613.282 8873.428 6613.299 10624.742 7716.178 8325.189 4159.763 17772.305 22097.746 4493.984 3558.699 9453.472 3373.119 17933.053 7130.779 6326.751 7756.646 17997.367 27248.102 3762.883 8388.004 7858.315 27826.063 12505.455 9579.523 8260.098 7492.680 21991.610 2645.118 0.000 8090.067 9802.184 6147.510 7762.295 17991.312 8179.242 7322.696 4130.978 3801.076 20477.434 11859.307 7068.231 9160.673 3089.188 8058.740 9906.368 15290.561 30827.702 7607.442 10575.397 7181.845 11236.421 7584.925 7486.680 8813.930 3751.001 3979.450 3872.017 7628.350 9648.774 2577.986 9612.583 20193.204 22480.633 8674.365 9324.684 16213.708 11748.168 6890.353 6142.071 3329.575 18840.841 9614.706 6937.680 5936.744
13228.534 7008.091 18557.910 7704.478 19795.635 9140.152 11562.045 5395.766 8961.083 11159.425 10153.194 10098.612 9324.392 7341.909 5833.085 8056.933 10336.019 10076.858 20200.384 14870.081 25056.977 10671.628 9485.679 10436.423 7957.199 5487.798 14017.781 6662.292 8713.366 12987.648 10079.083 10688.095 5459.610 20135.211 24460.652 11898.484 11031.787 11816.378 5293.792 20295.959 7579.790 8164.084 10119.552 20360.273 30167.141 6036.713 10750.910 10221.221 30745.102 14868.360 11942.429 10623.004 9855.586 24910.649 5788.251 7588.727 0.000 12165.089 7790.638 10125.201 20354.217 10542.148 9685.602 5708.019 11274.164 25673.909 14222.212 14574.049 11523.579 10595.006 10421.646 14674.242 17653.467 33190.608 9970.348 12938.303 9544.751 13599.327 9947.831 9849.586 6683.047 6037.521 5573.073 5969.516 9991.256 12011.680 5731.309 11975.488 25389.679 25399.672 11037.271 11687.590 18576.614 14823.512 8029.463 7948.582 5265.319 21203.747 11977.612 14443.499 7579.872
4632.645 8968.707 9492.271 9426.280 12379.820 4417.353 3950.264 7530.342 9460.094 10368.000 3502.896 5124.485 4351.316 10165.592 7173.882 9778.735 3815.769 3681.720 9701.301 4153.644 14557.894 11035.961 9984.689 3916.173 8655.425 7055.899 13388.172 12341.525 9422.247 5375.867 4619.115 1471.884 7861.132 12598.385 14920.949 11315.876 10240.362 4204.597 7392.988 12759.133 8763.322 9704.520 4940.916 12823.447 19668.058 7207.682 1534.699 2466.344 20246.019 7331.535 4644.109 3972.706 4676.951 14411.566 7618.398 8087.738 11799.071 0.000 9615.607 4946.565 12817.391 5363.512 4225.633 7832.347 10482.739 15193.331 3723.130 4653.386 3911.798 10959.339 5243.011 4049.248 8794.521 25653.782 4902.978 2357.032 4854.409 5987.546 4769.195 4619.741 10085.434 7195.801 7680.818 7520.344 4923.886 2084.989 7551.265 223.905 14909.102 14900.589 1772.193 4150.764 9717.668 4342.935 8727.688 9629.613 7364.514 11616.944 4029.071 5097.812 9404.841
10882.185 5937.155 16665.965 376.547 14559.385 7295.048 8444.209 3235.540 7281.525 9300.210 8308.091 7795.870 7479.289 3869.970 4127.560 729.001 7090.176 8231.754 18167.071 13024.977 23145.448 8779.683 7806.120 7190.580 1924.840 3782.273 12320.383 4229.337 1461.118 9111.854 6416.750 8842.992 2821.234 15090.988 22114.303 10218.926 9172.572 8698.542 3839.939 15251.735 2070.702 911.836 7668.151 15293.023 27905.823 2871.654 8905.806 8376.118 28483.784 10069.386 7659.579 8777.900 7521.809 22999.120 4628.586 5909.169 8281.298 10319.986 0.000 7298.431 15309.994 6864.820 6769.055 2914.856 9414.950 23824.919 12310.683 12682.105 8139.342 8703.062 6744.319 12825.252 15307.118 28038.081 7427.901 10988.620 7699.647 9702.746 7029.849 6290.985 3753.853 2940.212 3159.332 3294.663 7448.809 9906.338 4571.644 10130.385 23540.689 23488.143 9192.167 8092.942 16230.265 12974.522 1868.174 620.650 3601.964 18857.398 9340.255 12551.554 1168.450
5837.628 7295.955 13083.102 7503.903 11283.663 834.685 3515.564 5857.590 7787.342 9985.684 2516.070 670.913 954.890 7255.186 5501.130 7076.645 2071.008 2525.004 13074.777 7744.474 17931.371 9482.093 8311.937 2171.412 5745.019 5383.147 12844.040 10668.773 6511.841 4941.167 1618.273 3562.489 6188.380 11815.266 17069.747 10724.743 9858.046 3769.896 5720.236 11976.013 5852.916 6794.115 487.343 12017.300 22861.266 5534.930 3625.303 2878.233 23439.227 6793.664 3754.028 2985.880 223.378 17785.042 5945.646 6414.986 10126.319 5039.483 7699.533 0.000 12034.272 1439.869 1420.590 6159.595 10100.423 18548.302 7096.606 8244.217 3477.097 9405.471 1319.367 7548.635 10262.561 24762.359 449.405 5812.696 857.251 5552.846 367.532 1265.108 7175.028 5523.049 6008.066 5847.592 470.313 4846.391 5878.513 4849.882 18264.073 18274.066 3911.665 3619.737 11185.708 7697.906 5817.282 7209.345 5691.762 13812.842 4407.702 8688.642 7732.089
10141.938 17506.102 21483.873 15163.115 4097.345 12127.271 8993.164 16067.737 17997.489 20195.831 12909.641 12001.893 12053.092 14914.399 15711.276 14735.858 10302.251 13088.465 11473.430 16145.245 16511.564 19692.240 18522.084 10402.655 13404.231 15593.294 23054.187 18345.856 14171.054 7835.370 10622.772 11936.223 16398.527 810.117 14398.201 20934.890 20068.193 9069.422 15930.383 610.110 13512.128 14453.327 11874.174 477.745 20189.721 15745.077 11999.037 12667.901 20767.681 5974.399 8588.298 13379.451 11727.832 16365.236 16155.792 16625.133 20336.466 12459.944 15358.745 11504.454 0.000 11070.843 10570.736 16369.741 20310.570 25508.268 12931.953 16644.988 8677.343 19615.618 10950.341 14508.601 8544.815 14148.461 11633.924 12671.969 12244.082 7225.869 11235.872 10497.008 14834.241 15733.196 16218.213 16057.739 11654.832 11396.133 16088.660 12482.772 25224.039 16854.259 12802.420 8616.165 10142.941 14657.872 13476.495 14868.558 15901.909 11022.440 9965.522 17089.413 15452.741
6060.875 7790.465 13577.611 7528.893 11308.654 1176.316 3713.422 6352.099 8281.851 10480.193 2832.058 986.900 1449.399 7280.176 5995.639 7101.636 2268.866 2975.665 13345.762 8238.984 18324.139 9976.602 8806.447 2369.270 5770.009 5877.656 13338.550 10711.634 6536.831 5139.025 1816.131 4056.999 6682.889 11840.256 17292.994 11219.252 10352.555 3967.755 6214.745 12001.004 5877.906 6819.105 803.331 12042.291 23084.514 6029.440 4119.813 3372.742 23662.474 6818.654 3779.019 3301.867 754.237 18177.810 6440.155 6909.496 10620.829 5533.993 7724.523 1023.851 12059.262 0.000 1618.449 6654.104 10594.933 19003.610 7489.374 8738.726 3674.956 9899.981 832.999 8003.943 10485.809 24787.349 563.081 6167.311 1173.239 5750.705 898.390 1462.967 7200.019 6017.558 6502.575 6342.102 583.989 5085.029 6373.023 5344.392 18719.380 18666.833 4406.174 3817.596 11408.955 8153.213 5842.273 7234.336 6186.272 14036.089 4605.561 9183.152 7818.519
4688.110 7229.128 12677.278 6690.412 10355.717 1897.981 2340.657 5790.763 7720.515 9918.857 2632.668 1855.944 1823.802 6441.696 5434.303 6263.155 896.101 2811.492 11972.997 7338.651 16951.373 9415.266 8245.110 996.505 4931.529 5316.320 12777.213 9873.153 5698.351 3766.260 393.482 3156.665 6121.553 10887.320 15920.229 10657.916 9791.219 2594.990 5653.409 11048.067 5039.425 5980.624 1672.375 11089.354 21711.749 5468.103 3219.480 2689.791 22289.709 5625.601 2600.013 3102.477 1498.541 16805.045 5878.819 6348.159 10059.492 4610.424 6886.042 1275.163 11106.326 1302.332 0.000 6092.768 10033.596 17630.845 6116.609 7838.393 2302.191 9338.644 1181.830 6631.178 9113.044 23834.413 1432.125 4794.545 2042.282 4377.940 1006.581 451.618 6361.538 5456.222 5941.239 5780.766 1453.033 3712.264 5811.686 4444.058 17346.615 17294.068 3505.841 2444.831 10036.190 6780.448 5003.792 6395.855 5624.936 12663.324 3232.796 8282.819 6980.038
9357.609 3239.925 14693.067 2292.512 15924.710 5269.228 7691.121 678.098 5096.240 7294.582 6282.270 6227.688 5453.468 5710.252 1797.064 2644.967 6465.095 6205.934 16329.459 10999.156 21186.052 6806.785 5620.836 6565.499 3765.122 1451.777 10152.939 5190.968 3301.400 9116.724 6208.159 6817.171 124.005 16264.287 20589.728 8033.641 7166.944 7945.453 1282.496 16425.034 3910.983 2752.118 6248.627 16489.349 26296.217 541.158 6879.985 6350.297 26874.177 10997.436 8071.505 6752.079 5984.662 21039.724 2011.106 3723.885 5584.068 8294.165 2465.050 6254.276 16483.293 6671.223 5814.677 0.000 7409.322 21802.984 10351.288 10709.207 7652.654 6730.163 6550.721 10803.317 13782.542 29319.683 6099.424 9067.378 5673.826 9728.403 6076.906 5978.661 5594.134 609.716 462.102 950.295 6120.332 8140.756 1954.164 8104.564 21518.754 21528.747 7166.347 7816.666 14705.689 10952.587 3708.455 2536.616 1254.023 17332.823 8106.687 10578.656 2254.284
14395.607 7800.993 11011.899 9488.163 20962.708 10307.226 12729.119 7220.909 2819.709 782.024 11320.268 11265.686 10491.466 12460.026 6317.110 9840.618 11503.093 11243.932 17241.152 7406.466 22097.745 1698.181 2692.401 11603.497 10476.999 6391.676 4097.394 12403.407 10143.279 14154.722 11246.157 11803.048 7689.743 21302.285 22460.800 1978.096 654.386 12983.452 6903.098 21463.032 10660.758 9856.731 11286.625 21527.347 27207.910 7292.862 11865.862 11388.295 27785.870 16035.434 13109.503 11790.077 11022.660 21951.417 6165.217 4457.762 11610.166 11100.514 9677.489 11292.274 21521.291 11709.221 10852.675 7660.958 0.000 20437.241 12480.529 7028.039 12690.652 1621.559 11588.719 9866.175 18189.565 34357.681 11137.422 12163.478 10711.824 14766.401 11114.904 11016.659 12343.909 7280.981 7509.429 7401.997 11158.330 12554.673 6098.084 10910.913 20153.012 22440.440 11589.714 12854.664 19112.711 11707.976 10420.333 9672.050 6859.554 19156.796 13144.686 6897.488 9466.723
16910.330 23029.435 11962.081 23487.008 25906.212 18478.081 17476.655 21591.070 20098.102 20011.031 17649.058 19185.214 18412.044 23970.129 21234.610 23791.588 17620.306 17827.881 19479.942 14203.451 24336.535 20678.993 20622.697 17720.710 22459.962 21116.627 23031.204 26402.253 23226.784 18902.258 18423.653 15577.054 21921.860 25681.498 24699.590 20958.908 19883.393 17730.988 21453.716 25950.130 22567.859 23509.058 19001.644 26349.839 29446.700 21268.410 15639.869 16527.073 30024.660 20857.926 18324.105 18118.867 18737.679 24190.207 21679.126 20705.655 25859.799 15672.625 23676.335 19007.293 26008.389 19274.992 18030.171 21893.075 20125.771 0.000 14638.481 14682.335 17438.189 20602.371 19154.491 13503.498 20347.516 39180.173 18963.706 14531.269 18915.137 19513.938 18805.825 18424.278 23889.971 21256.529 21741.546 21581.073 18984.614 15580.328 21611.993 15695.453 446.783 24679.230 16377.408 17677.156 21270.663 11846.853 22532.226 23690.341 21425.243 21395.586 17555.462 15371.951 23465.569
4040.278 11297.852 9698.326 11755.425 13449.213 6746.497 5712.412 9859.486 11060.760 10973.689 5917.474 7453.630 6680.461 12238.545 9503.026 12060.005 5888.722 6096.298 6518.030 4464.880 11374.623 11641.651 11585.355 5989.126 10728.378 9385.043 13993.862 14670.669 11495.200 6731.031 6692.069 3845.471 10190.276 12825.409 11737.678 11921.566 10846.051 5966.745 9722.132 13094.042 10836.275 11777.474 7270.061 13600.104 16484.788 9536.827 3908.285 4795.489 17062.748 8867.922 6559.861 6387.284 7006.095 11228.295 9947.542 10416.883 14128.216 4085.277 11944.751 7275.710 13152.301 7543.409 6298.587 10161.491 11088.429 13181.946 0.000 5077.344 5673.945 11565.029 7422.907 2569.062 7491.428 26430.438 7232.122 1948.776 7183.553 7300.086 7074.241 6692.695 12158.388 9524.945 10009.962 9849.489 7253.030 3071.187 9880.410 4108.105 12897.717 11717.318 4645.824 5912.912 8414.575 2331.550 10800.642 11958.757 9693.659 8433.674 5791.218 5626.047 11733.985
7724.339 11396.937 6703.068 12180.342 15821.466 7171.414 7391.910 10284.403 7446.153 7359.083 6292.378 7878.547 7105.378 12932.443 9912.153 12532.796 7201.844 6471.202 10213.114 1370.871 15069.707 8027.044 7970.749 7302.248 11422.275 9809.960 10379.256 15095.586 12189.098 8817.513 7654.510 4775.009 10615.193 16040.031 15432.761 8306.960 7231.445 7646.243 10147.049 16200.778 11530.172 12471.371 7694.978 16265.093 20179.871 9961.744 4837.824 5303.662 20757.831 10773.180 8085.754 6762.188 7431.012 14923.379 9761.161 8053.706 14553.133 4072.475 12369.668 7700.627 16259.037 8117.574 7261.028 10586.408 7473.822 14603.415 5452.490 0.000 7353.443 7950.423 7997.072 2838.136 11161.526 29095.428 7657.039 5135.439 7608.470 9429.192 7523.257 7425.012 12852.285 9949.862 10434.879 10274.406 7677.947 5526.634 9694.029 3882.874 14319.185 15412.402 4561.675 7592.410 12084.673 4679.937 11494.539 12383.674 10118.576 12128.757 7470.716 1861.940 12158.902
3419.198 9131.109 13107.654 8101.256 8985.256 3896.586 616.945 7692.744 9622.495 11820.837 4355.689 3862.192 3822.407 7852.540 7336.283 7673.999 1827.311 4534.513 11092.347 7769.026 16130.481 11317.246 10147.091 1927.715 6342.372 7218.300 14679.194 11283.997 7109.195 2054.800 2564.002 3330.743 8023.533 9203.821 15039.580 12559.897 11693.199 926.940 7555.389 9364.569 6450.269 7391.468 3678.623 9428.883 20831.099 7370.084 3393.557 4062.421 21409.060 3936.970 1413.479 4825.499 3504.789 15984.153 7780.799 8250.140 11961.473 4083.725 8296.886 3281.411 9422.827 3291.214 2170.520 7994.748 11935.577 17132.049 5589.910 8268.769 0.000 11240.625 3170.712 6132.382 8232.394 22259.218 3438.373 4295.750 4048.531 2666.479 3012.830 2440.500 7772.382 7358.202 7843.220 7682.746 3459.281 3019.914 7713.667 4106.553 16847.820 16473.176 4196.940 756.200 9155.541 6281.653 6414.636 7806.699 7526.916 11782.675 1629.714 8713.194 8390.882
13143.938 6534.063 11607.362 8265.567 19711.039 9055.556 11477.449 5969.239 1552.779 1884.017 10068.598 10014.016 9239.796 11259.904 5065.440 8618.022 10251.423 9992.262 17836.616 8001.929 22693.209 76.622 1107.907 10351.827 9276.876 5140.006 4742.374 11180.812 8943.156 12903.052 9994.487 10603.499 6438.073 20050.615 23056.264 2623.076 1756.379 11731.782 5651.428 20211.362 9460.635 8653.580 10034.955 20275.677 27803.373 6041.192 10666.314 10136.625 28381.333 14783.764 11857.833 10538.408 9770.990 22546.881 4898.287 3190.832 10343.236 11695.977 8454.894 10040.605 20269.621 10457.552 9601.005 6409.288 1998.757 21032.705 13075.992 7623.502 11438.982 0.000 10337.050 10461.638 17568.871 33106.012 9885.752 12758.941 9460.155 13514.731 9863.235 9764.989 11143.786 6029.311 6257.759 6150.327 9906.660 11927.084 4831.154 11506.376 20748.475 23035.904 10952.675 11602.994 18492.018 12303.439 9220.210 8468.900 5607.885 19752.259 11893.016 7492.951 8244.128
6136.761 7910.967 13698.113 7024.221 10803.981 1296.817 3770.053 6472.601 8402.353 10600.695 2952.559 1107.402 1569.901 6775.504 6116.141 6596.963 2344.752 3096.167 13421.648 8359.485 18400.025 10097.104 8926.948 2445.157 5265.337 5998.158 13459.051 10206.961 6032.159 5047.230 1445.367 4177.500 6803.391 11335.584 17368.880 11339.754 10473.057 4024.386 6335.247 11496.331 5373.234 6314.433 923.833 11537.618 23160.400 6149.941 4240.314 3493.244 23738.360 6313.982 3274.346 3422.369 874.738 18253.697 6560.657 7029.997 10741.330 5654.494 7219.850 1144.353 11554.590 120.502 1699.167 6774.606 10715.434 19079.496 7565.260 8859.228 3465.187 10020.482 0.000 8079.829 10561.695 24282.677 683.582 6243.197 1293.740 5658.910 1018.892 965.908 6695.346 6138.060 6623.077 6462.604 704.491 5160.915 6493.524 5464.893 18795.266 18742.720 4526.676 3418.786 11484.842 8229.099 5337.600 6729.663 6306.774 14111.975 4666.099 9303.653 7313.846
6312.253 11049.715 7445.449 11507.287 14963.771 6498.360 6534.215 9611.349 8600.602 8513.532 5434.683 7205.493 6432.323 12313.116 9254.889 11859.742 6399.719 5613.507 8801.028 1973.817 13657.621 9181.493 9125.198 6500.124 10802.949 9136.906 11533.705 14422.532 11569.771 7959.818 6981.455 4055.835 9942.139 15083.421 14020.676 9461.409 8385.894 6788.548 9473.995 15343.083 10910.846 11852.045 7021.923 15407.398 18767.785 9288.689 4118.649 4445.967 19345.745 9915.485 7228.059 5904.493 6757.958 13511.293 9699.405 9208.155 13880.078 3214.780 11696.614 7027.573 15401.342 7444.519 6587.973 9913.354 8628.271 14118.248 4040.404 2606.564 6495.748 9104.872 7324.018 0.000 9749.440 28237.732 6983.985 3723.353 6935.416 8571.497 6850.203 6751.957 12232.958 9276.808 9761.825 9601.352 7004.893 4668.939 9632.272 3025.179 13834.018 14000.316 3703.980 6734.715 10672.587 3267.851 10875.213 11710.620 9445.522 10716.671 6613.021 3155.267 11485.848
6445.160 15201.979 16324.034 15659.552 11073.824 10550.948 8675.885 13763.614 15693.366 17599.397 10250.273 11145.957 10452.931 15437.633 13407.153 15259.092 9111.076 10429.097 4199.662 11090.588 9237.796 17388.116 16217.961 9211.480 13927.465 13289.171 20619.570 18574.796 14694.288 8526.510 9914.422 8817.566 14094.403 8029.933 7572.692 18547.274 17471.759 8384.300 13626.260 8414.238 14035.362 14976.561 10962.388 8327.622 13364.212 13440.954 8880.380 9723.631 13942.172 8803.598 9066.681 10720.083 10700.958 9091.468 13851.669 14321.010 18032.343 9181.335 15848.879 10565.176 7849.876 10765.762 9520.940 14065.618 17714.137 19807.654 7170.915 11703.052 8637.419 17311.495 10645.260 9194.770 0.000 21539.270 10722.138 7815.632 10878.416 8152.034 10296.594 9915.048 15357.475 13429.073 13914.090 13753.616 10743.046 7405.681 13784.537 9204.163 19523.425 9580.491 9617.919 8876.385 2245.503 8957.258 13999.729 15391.792 13597.786 4268.688 8265.579 12251.755 15638.113
23495.950 30839.769 34817.539 28496.782 15827.673 25460.938 22326.830 29401.403 31331.155 33529.497 26243.308 25335.559 25386.759 28248.065 29044.943 28069.524 23635.917 26422.132 25088.846 29478.912 30126.980 33025.906 31855.751 23736.321 26737.898 28926.960 36387.854 31679.523 27504.720 21169.036 23956.439 25269.889 29732.193 14597.325 28013.617 34268.556 33401.859 22403.089 29264.049 14541.639 26845.795 27786.994 25207.840 14473.021 33805.137 29078.743 25332.704 26001.568 34383.097 19308.066 21921.964 26713.118 25061.498 29980.652 29489.459 29958.800 33670.132 25793.611 28692.412 24838.120 14599.898 24404.509 23904.403 29703.408 33644.237 38841.935 26285.966 29978.654 22011.010 32949.284 24284.008 27842.268 22160.231 0.000 24967.590 26005.635 25577.748 20559.536 24569.538 23830.674 28167.908 29066.862 29551.879 29391.406 24988.498 24729.799 29422.326 25816.438 38557.705 30469.675 26136.086 21949.832 23758.357 27991.538 26810.162 28202.224 29235.576 24637.856 23299.189 30423.080 28786.407
5885.503 7615.093 13402.239 7526.389 11306.150 1000.944 3538.050 6176.727 8106.479 10304.821 2524.767 505.034 1274.027 7277.673 5820.267 7099.132 2093.494 2668.375 13170.390 8063.612 18148.766 9801.230 8631.075 2193.898 5767.506 5702.284 13163.178 10709.130 6534.328 4963.653 1640.759 3881.626 6507.517 11837.752 17117.622 11043.880 10177.183 3792.383 6039.373 11998.500 5875.402 6816.601 627.959 12039.787 22909.142 5854.068 3944.441 3197.370 23487.102 6816.151 3776.515 2994.577 578.864 18002.438 6264.783 6734.124 10445.457 5358.621 7722.019 848.479 12056.759 990.464 1443.077 6478.732 10419.561 18828.238 7314.002 8563.354 3499.584 9724.608 869.962 7828.571 10310.437 24784.846 0.000 5991.938 848.225 5575.333 723.018 1287.595 7197.515 5842.186 6327.203 6166.730 20.908 4909.657 6197.651 5169.020 18544.008 18491.461 4230.802 3642.224 11233.583 7977.841 5839.769 7231.832 6010.900 13860.717 4430.189 9007.780 7816.015
3407.486 9846.392 10147.417 10303.965 12736.503 5295.038 4306.947 8408.027 10337.778 11207.747 4466.014 6002.170 5229.001 10787.086 8051.566 10608.545 4437.263 4644.838 7841.409 4696.068 12698.002 11875.709 10862.374 4537.667 9276.918 7933.583 14227.920 13219.209 10043.741 5732.550 5240.609 2394.011 8738.816 12368.609 13061.057 12155.624 11080.109 4561.280 8270.672 12637.241 9384.815 10326.014 5818.601 13143.303 17808.166 8085.367 2456.825 3344.029 18386.126 7688.217 5154.396 4935.824 5554.636 12551.674 8496.082 8965.423 12676.756 2757.780 10493.291 5824.250 12695.500 6091.949 4847.127 8710.031 11322.487 13799.917 1863.237 5308.532 4268.480 11799.087 5971.447 2800.250 7070.558 25973.637 5780.662 0.000 5732.093 6344.229 5622.781 5241.235 10706.928 8073.485 8558.503 8398.029 5801.570 2002.614 8428.950 2780.608 13515.687 13040.697 3194.364 4507.447 7993.704 2949.520 9349.182 10507.297 8242.199 9757.052 4385.753 5857.234 10282.525
5906.772 6940.937 12886.947 7398.510 11983.302 177.709 4214.965 5502.572 7432.323 9630.665 1676.543 1317.872 566.325 7954.825 5146.111 7750.965 2770.409 1820.150 12878.623 7548.319 17735.216 9127.074 7956.919 2870.813 6444.658 5028.128 12489.022 10313.754 7211.480 5640.568 2317.912 3366.334 5833.361 12514.905 17138.891 10369.724 9503.027 4469.298 5365.217 12675.652 6552.555 7493.754 1302.885 12716.939 22845.380 5179.912 3429.148 2530.203 23423.340 7493.303 4453.667 2146.352 1038.920 17588.888 5590.627 6059.968 9771.301 4791.314 7587.836 1308.534 12733.911 1958.758 2119.991 5804.576 9745.405 18352.147 6900.451 8048.062 4176.498 9050.453 1838.256 7352.480 10331.706 25461.998 1189.607 5616.541 0.000 6252.247 1183.074 1964.747 7874.667 5168.030 5653.048 5492.574 1210.516 4689.919 5523.495 4601.713 18067.918 18077.911 3663.496 4319.138 11254.853 7501.751 6516.921 7601.842 5336.744 13881.986 4655.851 8492.487 7377.070
4158.087 11145.578 14673.616 9640.129 6875.946 5911.055 2526.909 9707.213 11636.965 13835.307 6370.159 5876.661 5836.876 9391.413 9350.753 9212.872 3841.780 6548.982 10914.204 9334.988 15952.338 13331.716 12161.560 3942.184 7881.245 9232.770 16693.663 12822.870 8648.068 978.365 4645.127 5239.739 10038.003 7055.744 14445.320 14574.366 13707.669 2212.418 9569.859 7224.982 7989.142 8930.341 5693.092 7289.297 20236.839 9384.553 5302.553 5971.418 20814.800 1804.176 2821.372 6839.968 5519.259 15806.010 9795.269 10264.609 13975.942 5649.687 9835.759 5295.881 7283.241 5292.205 4251.645 10009.218 13950.046 18698.011 7124.904 9834.730 2211.088 13255.094 5171.704 7698.344 7776.866 20119.631 5452.842 5861.712 6063.000 0.000 5027.299 4638.335 9311.255 9372.672 9857.689 9697.215 5473.750 4585.875 9728.136 5672.515 18413.781 16295.033 6086.271 2149.910 8700.012 7847.614 7953.509 9345.572 9541.385 11069.558 3108.518 10279.156 9929.755
5657.142 7234.271 13021.418 7298.028 11077.788 1057.314 3309.689 5795.906 7725.658 9924.000 2539.656 867.899 1242.007 7049.311 5439.445 6870.770 1865.133 2463.320 12942.028 7682.790 17869.686 9420.408 8250.253 1965.537 5539.144 5321.462 12782.356 10480.769 6305.966 4735.292 1412.398 3500.805 6126.695 11609.391 16889.261 10663.059 9796.362 3564.022 5658.551 11770.138 5647.041 6588.240 684.329 11811.426 22680.780 5473.246 3563.619 2816.549 23258.741 6587.789 3548.153 3009.466 510.496 17723.358 5883.961 6353.302 10064.635 4977.799 7493.658 287.118 11828.397 1418.308 1214.715 6097.910 10038.739 18486.618 7034.922 8182.532 3271.222 9343.787 1297.807 7486.951 10082.075 24556.484 444.079 5751.012 1054.237 5346.971 0.000 1059.234 6969.154 5461.365 5946.382 5785.908 464.987 4681.295 5816.829 4788.198 18202.388 18212.381 3849.981 3413.862 11005.222 7636.221 5611.408 7003.470 5630.078 13632.355 4201.827 8626.958 7587.654
5559.399 7550.172 13201.948 6731.829 10511.589 1672.915 3211.946 6111.807 8041.558 10239.900 2855.557 1630.878 1598.736 6483.112 5755.346 6304.571 1767.390 2779.220 12844.286 7863.320 17822.662 9736.309 8566.154 1867.794 4972.945 5637.363 13098.257 9914.570 5739.767 4637.549 1152.976 3681.335 6442.596 11043.192 16791.518 10978.959 10112.262 3466.279 5974.452 11203.939 5080.842 6022.041 1447.309 11245.227 22583.038 5789.147 3744.149 3132.449 23160.998 6021.590 2981.954 3325.366 1273.476 17676.334 6199.862 6669.203 10380.536 5158.329 6927.459 1050.098 11262.198 850.714 1116.973 6413.811 10354.640 18502.134 6987.898 8363.063 3172.795 9659.688 730.212 7502.467 9984.333 23990.285 1207.059 5665.834 1817.217 5249.228 781.516 0.000 6402.954 5777.265 6262.283 6101.809 1227.967 4583.553 6132.730 4968.728 18217.904 18165.357 4030.511 3126.394 10907.479 7651.737 5045.209 6437.271 5945.979 13534.613 4104.084 8807.488 7021.454
10795.710 8787.716 18771.980 3749.795 14472.911 7834.774 8357.735 6086.101 9797.370 11812.086 8858.463 7709.396 7760.595 658.862 6978.121 3254.954 7003.701 8941.079 18080.597 13433.352 23058.973 11291.559 10321.966 7104.105 2055.768 6632.834 14832.259 5433.085 2990.228 9025.380 6330.275 9298.312 5671.795 15004.514 22027.829 12734.771 11684.448 8612.068 6690.500 15165.261 1678.359 3328.772 7581.677 15206.549 27819.349 5722.215 9361.126 8915.587 28397.309 9982.912 7573.105 9328.273 7435.335 22912.645 7479.147 8425.015 7706.765 10718.024 3877.842 7211.957 15223.520 6778.346 6682.581 5765.418 11926.825 23738.445 12224.209 13933.095 8052.868 11214.937 6657.844 12738.778 15220.644 27951.607 7341.427 10902.145 7951.585 9616.272 6943.375 6204.511 0.000 5790.773 6009.893 6145.225 7362.335 9819.864 7422.205 10669.854 23454.215 23401.668 9731.636 8006.467 16143.790 12888.048 2128.032 3387.654 6452.525 18770.924 9253.780 14377.520 3796.528
8977.936 3288.530 14314.458 2642.781 15545.037 4889.555 7311.448 879.896 4717.632 6915.974 5902.597 5848.015 5073.795 5958.839 1324.120 2995.236 6085.422 5826.261 15949.786 10619.483 20806.379 6428.177 5242.227 6185.826 3978.342 978.833 9774.330 5558.025 3549.987 8737.051 5828.486 6437.498 1171.774 15884.614 20210.055 7655.033 6788.336 7565.781 1372.863 16045.361 4159.570 3030.794 5868.954 16109.676 25916.544 407.977 6500.312 5970.624 26494.504 10617.763 7691.832 6372.406 5604.989 20660.051 1902.038 3345.276 6252.467 7914.492 2832.108 5874.603 16103.620 6291.550 5435.004 1126.832 7030.713 21423.311 9971.615 10330.598 7272.981 6351.555 6171.048 10423.644 13402.869 28940.010 5719.751 8687.705 5294.153 9348.730 5697.233 5598.988 5842.721 0.000 991.461 830.987 5740.659 7761.083 1845.095 7724.891 21139.081 21149.074 6786.674 7436.993 14326.016 10572.914 3921.676 2846.113 905.809 16953.150 7727.015 10200.047 2621.342
9187.632 2965.675 14506.514 2560.316 15754.733 5099.250 7521.143 786.231 4909.687 7108.029 6112.292 6057.710 5283.490 5978.055 1781.689 2912.771 6295.117 6035.956 16159.482 10829.178 21016.075 6620.232 5434.283 6395.521 4032.925 1436.403 9966.386 5458.771 3569.203 8946.746 6038.181 6647.193 315.447 16094.309 20419.750 7847.088 6980.391 7775.476 1242.397 16255.056 4178.787 3019.921 6078.649 16319.371 26126.239 892.551 6710.008 6180.319 26704.199 10827.458 7901.527 6582.102 5814.684 20869.747 1736.856 3537.332 5309.818 8124.187 2732.853 6084.299 16313.315 6501.246 5644.699 563.857 7222.769 21633.006 10181.310 10522.654 7482.676 6543.611 6380.744 10633.339 13612.565 29149.706 5929.446 8897.401 5503.849 9558.425 5906.929 5808.683 5861.938 961.109 0.000 1060.431 5950.354 7970.778 1679.913 7934.586 21348.777 21358.770 6996.369 7646.688 14535.712 10782.610 3976.259 2804.420 1213.924 17162.845 7936.710 10392.103 2522.087
9043.717 3418.007 14473.510 2248.323 15610.818 4955.335 7377.228 699.184 4876.684 7075.026 5968.377 5913.795 5139.575 5666.062 1483.172 2600.778 6151.202 5892.041 16015.567 10685.264 20872.160 6587.228 5401.279 6251.606 3697.004 1137.885 9933.382 5146.778 3257.211 8802.831 5894.266 6503.278 703.355 15950.394 20275.835 7814.085 6947.388 7631.561 1303.583 16111.141 3866.794 2707.928 5934.735 16175.456 25982.324 227.265 6566.093 6036.404 26560.285 10683.543 7757.612 6438.187 5670.769 20725.832 2061.090 3504.328 6120.566 7980.272 2420.861 5940.384 16169.400 6357.331 5500.785 625.987 7189.765 21489.092 10037.395 10489.650 7338.762 6510.607 6236.829 10489.425 13468.650 29005.791 5785.531 8753.486 5359.934 9414.510 5763.014 5664.769 5549.945 295.824 810.749 0.000 5806.439 7826.863 2004.147 7790.671 21204.862 21214.855 6852.454 7502.773 14391.797 10638.695 3640.338 2492.427 1055.869 17018.930 7792.795 10359.099 2210.095
6062.625 7768.254 13579.361 7553.737 11333.497 995.820 3715.172 6329.888 8259.640 10457.982 2503.859 484.126 1393.642 7305.020 5973.428 7126.479 2270.616 2647.467 13347.511 8240.733 18325.888 9954.391 8784.236 2371.020 5794.853 5855.445 13316.338 10736.478 6561.675 5140.775 1817.881 4058.748 6660.678 11865.100 17294.744 11197.041 10330.344 3969.505 6192.534 12025.847 5902.750 6843.949 687.057 12067.135 23086.263 6007.228 4121.563 3357.520 23664.224 6843.498 3803.862 2973.669 755.986 18179.560 6417.944 6887.284 10598.617 5535.742 7749.367 1025.601 12084.106 978.345 1620.199 6631.893 10572.721 19005.360 7491.124 8740.476 3676.706 9877.769 857.843 8005.693 10487.558 24812.193 195.756 6169.060 827.317 5752.454 900.140 1464.717 7224.863 5995.347 6480.364 6319.891 0.000 5086.779 6350.811 5346.141 18721.130 18668.583 4407.924 3819.345 11410.705 8154.963 5867.117 7259.179 6164.061 14037.839 4607.310 9184.901 7843.363
2765.521 8967.876 10865.013 9425.449 11410.234 4416.522 2980.678 7529.511 9459.263 11657.605 3587.498 5123.654 4350.485 9653.573 7173.050 9475.032 3303.750 3766.322 8631.475 5526.386 13488.068 11154.013 9983.858 3404.154 8143.406 7055.067 14515.961 12340.693 8910.228 4406.281 4107.097 1515.495 7860.300 11628.799 13715.371 12396.664 11529.967 3235.011 7392.156 11789.547 8251.303 9192.502 4940.085 11853.861 18598.233 7206.851 1578.309 2465.513 19176.193 6361.949 3828.127 4057.308 4676.120 13341.740 7617.566 8086.907 11798.240 1879.264 9614.775 4757.851 11847.805 4958.437 3713.615 7831.515 11772.344 14757.379 2653.304 6026.128 2942.212 11077.392 4837.935 3757.712 6908.186 24684.196 4902.147 1921.080 4853.577 5017.960 4489.269 4107.722 9573.416 7194.970 7679.987 7519.513 4923.055 0.000 7550.434 1902.092 14473.149 13830.763 2315.848 3181.178 7831.332 3906.982 8215.670 9607.732 7363.683 10458.466 3059.485 6470.554 9404.009
8892.299 2509.140 13838.545 3653.288 15459.400 4803.917 7225.810 1154.229 4241.719 6440.061 5816.959 5762.377 4988.157 7071.027 1360.640 4005.742 5999.784 5740.623 15864.149 10233.112 20720.742 5952.264 4766.314 6100.188 5125.897 1015.354 9298.417 6551.743 4662.175 8651.413 5742.848 6351.860 1623.063 15798.976 20124.417 7179.120 6312.423 7480.143 836.418 15959.723 5271.759 4112.893 5783.317 16024.038 25830.906 1592.028 6414.675 5884.986 26408.867 10532.125 7606.194 6286.769 5519.351 20574.414 67.132 2869.363 5716.023 7828.854 3825.825 5788.966 16017.982 6205.913 5349.366 1594.278 6554.800 21337.673 9885.977 9854.685 7187.344 5875.642 6085.411 10338.007 13317.232 28854.373 5634.113 8602.068 5208.516 9263.092 5611.596 5513.350 6954.909 1580.147 1442.749 1512.142 5655.021 7675.445 0.000 7639.253 21053.444 21063.437 6701.036 7351.355 14240.379 10487.277 5069.231 3897.391 792.875 16867.512 7641.377 9724.134 3615.059
4655.473 8928.326 9302.670 9385.899 12402.648 4376.972 3973.092 7489.961 9419.713 10178.398 3313.295 5084.104 4310.935 10188.420 7133.501 9738.354 3838.597 3492.119 9724.129 3964.043 14580.722 10846.360 9944.308 3939.001 8678.252 7015.518 13198.571 12301.144 9445.075 5398.695 4641.943 1494.712 7820.751 12621.213 14943.777 11126.275 10050.760 4227.425 7352.607 12781.960 8786.149 9727.348 4900.535 12846.275 19690.886 7167.301 1557.526 2324.578 20268.846 7354.362 4666.936 3783.105 4636.570 14434.394 7578.017 8047.357 11758.690 223.905 9575.226 4906.184 12840.219 5323.131 4248.461 7791.966 10293.138 15216.159 3745.957 4463.785 3934.625 10769.738 5202.630 3859.647 8817.349 25676.609 4862.597 2379.860 4814.028 6010.374 4728.814 4630.569 10108.262 7155.420 7640.437 7479.963 4883.505 2107.816 7510.884 0.000 14931.929 14923.417 1582.592 4173.592 9740.496 4365.762 8750.516 9589.232 7324.133 11639.772 4051.898 4908.211 9364.460
16659.482 22778.587 11711.233 23236.160 25655.364 18227.233 17225.808 21340.222 19847.254 19760.183 17398.210 18934.366 18161.196 23719.281 20983.762 23540.740 17369.458 17577.033 19229.094 13952.603 24085.687 20428.145 20371.849 17469.862 22209.114 20865.779 22780.356 26151.405 22975.936 18651.410 18172.805 15326.206 21671.012 25430.650 24448.742 20708.060 19632.545 17480.140 21202.868 25699.282 22317.011 23258.210 18750.796 26098.991 29195.852 21017.562 15389.021 16276.225 29773.812 20607.078 18073.257 17868.019 18486.831 23939.359 21428.278 20454.807 25608.951 15421.777 23425.487 18756.445 25757.541 19024.144 17779.323 21642.227 19874.923 733.085 14387.633 14431.487 17187.341 20351.523 18903.643 13252.650 20096.669 38929.325 18712.858 14280.421 18664.289 19263.090 18554.977 18173.430 23639.123 21005.681 21490.698 21330.225 18733.766 15329.480 21361.145 15444.605 0.000 24428.382 16126.560 17426.308 21019.815 11596.005 22281.378 23439.493 21174.395 21144.738 17304.614 15121.104 23214.721
13850.235 22145.334 20036.666 22602.907 19476.033 17593.980 16080.960 20706.969 21343.594 21256.523 16764.956 18301.112 17527.943 22865.974 20350.508 22687.433 16516.151 16943.780 5766.641 14744.844 1069.841 21924.485 21868.189 16616.555 21355.806 20232.525 24276.696 25518.151 22122.629 16539.152 17319.497 14692.953 21037.758 16432.142 7248.355 22204.400 21128.885 15789.374 20569.614 16816.446 21463.703 22404.902 18117.543 16729.830 11280.835 20384.309 14755.767 15642.971 11858.795 16909.721 16928.409 17234.766 17853.578 868.249 20795.024 21264.365 24975.698 14745.893 22792.233 17970.251 16252.085 18170.837 16926.015 21008.973 21371.263 23520.286 12194.093 15357.308 16042.493 21847.863 18050.335 12849.026 9361.369 24702.138 18079.605 12979.799 18031.035 16258.156 17701.669 17320.123 22785.816 20372.427 20857.445 20696.971 18100.513 14309.865 20727.892 14768.721 23236.056 0.000 15479.868 16281.460 9479.924 12669.889 21428.070 22806.239 20541.141 7283.423 15670.654 15906.010 22581.467
5017.988 8073.266 10183.794 8530.839 12605.502 3521.912 4250.987 6634.901 8564.652 10762.994 2302.517 4229.044 3455.875 9765.587 6278.440 8883.294 3682.684 2481.340 10541.362 4845.166 15397.955 10259.403 9089.248 3783.088 8255.419 6160.457 13621.351 11446.083 9022.242 5676.589 4005.007 1255.849 6965.690 12824.152 15761.010 11502.053 10635.356 4505.319 6497.546 12984.900 8363.316 8918.851 4045.475 13049.215 20508.119 6312.241 1318.663 1469.518 21086.080 7557.302 4631.371 2769.096 3781.509 15251.627 6722.956 7192.297 10903.630 1946.371 8720.165 4051.124 13043.159 4468.071 3611.525 6936.905 10877.734 16033.392 4563.190 5344.908 4212.520 10182.782 4347.569 4740.771 9179.865 25879.549 4007.536 3197.093 3958.967 6288.269 3873.754 3775.509 9685.429 6300.359 6785.376 6624.903 4028.444 2470.332 6655.824 1756.770 15749.162 15740.650 0.000 4376.532 10103.011 5182.995 8327.683 8734.171 6469.073 12457.005 4394.611 5789.334 8509.399
3179.251 9335.065 12867.707 8568.771 8773.641 4100.542 376.999 7896.700 9826.451 12024.793 4559.645 4066.148 4026.363 8320.054 7540.239 8141.513 2031.267 4738.469 10852.401 7529.080 15890.535 11521.202 10351.047 2131.671 6809.887 7422.256 14883.150 11751.512 7576.709 1778.888 2834.614 3433.831 8227.489 8961.929 14799.633 12763.853 11897.155 686.994 7759.345 9122.677 6917.784 7858.983 3882.579 9186.991 20591.153 7574.040 3496.645 4165.509 21169.113 3695.079 1759.169 5029.455 3708.745 15744.207 7984.755 8454.096 12165.429 3843.779 8764.401 3485.367 9180.936 3685.953 2441.132 8198.704 12139.533 16892.103 5349.964 8028.822 609.321 11444.581 3565.452 5892.436 7992.448 22017.326 3642.329 4055.804 4252.487 2390.567 3216.786 2835.239 8239.897 7562.158 8047.176 7886.702 3663.237 2779.967 7917.623 3866.607 16607.873 16233.230 4280.363 0.000 8915.595 6041.706 6882.151 8274.213 7730.872 11542.728 1389.768 8473.248 8858.397
7057.281 15814.100 16936.155 16271.673 13089.348 11163.069 9288.006 14375.735 16305.487 18211.518 10862.394 11758.078 11065.052 16073.020 14019.274 15894.479 9723.197 11041.218 4498.705 11702.709 9536.839 18000.237 16830.082 9823.601 14562.852 13901.291 21231.691 19186.917 15329.675 9630.292 10526.543 9429.687 14706.524 10133.624 8493.037 19159.395 18083.880 8996.421 14238.380 10517.928 14670.749 15611.948 11574.509 10431.312 14284.557 14053.075 9492.501 10335.752 14862.517 9878.084 10057.711 11332.204 11313.079 9390.511 14463.790 14933.131 18644.464 9793.456 16461.000 11177.297 9953.567 11377.883 10133.061 14677.739 18326.258 20419.775 7783.036 12315.173 9249.540 17923.616 11257.381 9806.891 2129.056 23642.960 11334.259 8427.753 11490.537 9255.815 10908.715 10527.169 15992.862 14041.194 14526.211 14365.737 11355.167 8017.802 14396.658 9816.284 20135.545 9879.534 10230.040 9488.506 0.000 9569.378 14635.116 16027.179 14209.907 5189.033 8877.700 12863.876 16250.234
5902.266 12021.371 7990.585 12478.944 14898.148 7470.017 6468.591 10583.006 10688.177 10601.107 6640.994 8177.150 7403.980 12962.065 10226.546 12783.524 6612.242 6819.817 8471.878 4198.241 13328.471 11269.068 11212.773 6712.646 11451.898 10108.563 13621.280 15394.189 12218.720 7894.194 7415.589 4568.990 10913.796 14673.434 13691.526 11548.984 10473.469 6722.924 10445.652 14942.066 11559.795 12500.994 7993.580 15341.775 18438.636 10260.346 4631.805 5519.009 19016.596 9849.862 7316.041 7110.803 7729.615 13182.143 10671.062 11140.402 14851.735 4664.561 12668.271 7999.229 15000.325 8266.928 7022.107 10885.011 10715.846 11185.994 3630.417 4677.124 6430.125 11192.447 8146.427 2495.434 9339.452 28172.109 7955.642 3523.205 7907.073 8505.874 7797.761 7416.214 12881.907 10248.465 10733.482 10573.009 7976.550 4572.264 10603.929 4687.389 10901.764 13671.166 5369.344 6669.092 10262.599 0.000 11524.162 12682.277 10417.179 10387.522 6547.398 5366.741 12457.505
9503.085 6918.971 17233.271 2105.303 13180.286 6542.149 7065.110 4217.357 7852.800 9867.516 7565.838 6416.771 6467.970 2218.308 5035.177 1610.462 5711.076 7648.454 16787.972 12140.727 21766.348 9346.989 8377.396 5811.480 223.087 4689.890 12887.689 5238.323 1045.658 7732.755 5037.650 8005.687 3803.050 13711.889 20735.204 10790.201 9739.878 7319.443 4821.755 13872.636 419.039 1384.202 6289.052 13913.924 26526.724 3853.470 8068.502 7622.962 27104.684 8690.287 6280.480 8035.648 6142.710 21620.020 5610.403 6480.445 9018.029 9425.399 2233.350 5919.332 13930.895 5485.721 5389.956 3896.673 9982.255 22445.820 10931.584 12640.470 6760.243 9270.367 5365.219 11446.153 13928.019 26658.982 6048.802 9609.520 6658.960 8323.647 5650.750 4911.886 2102.190 3922.028 4141.148 4276.480 6069.710 8527.239 5553.460 9377.229 22161.590 22109.043 8439.011 6713.843 14851.165 11595.423 0.000 1743.162 4583.780 17478.299 7961.155 13084.895 2327.345
10749.465 5881.123 16694.465 744.372 14426.666 7247.460 8311.490 3179.508 7225.493 9328.711 8260.502 7663.151 7431.700 3737.251 4071.528 249.531 6957.456 8184.166 18034.352 12977.389 23012.728 8808.183 7750.088 7057.860 1792.121 3726.241 12282.191 4173.305 1328.399 8979.135 6284.030 8795.403 2765.202 14958.269 21981.584 10162.894 9201.073 8565.823 3783.907 15119.016 1937.982 779.117 7535.432 15160.303 27773.104 2815.622 8858.218 8328.529 28351.064 9936.667 7526.860 8730.312 7389.090 22866.400 4572.554 5853.137 8225.266 10272.397 872.418 7165.711 15177.275 6732.101 6636.336 2858.825 9443.450 23692.200 12177.964 12710.605 8006.623 8731.562 6611.599 12692.533 15174.399 27905.362 7295.182 10855.900 7652.059 9570.027 6897.130 6158.266 3621.133 2884.180 3103.300 3238.632 7316.090 9773.619 4515.612 10082.796 23407.970 23355.423 9144.579 7960.222 16097.545 12841.803 1735.454 0.000 3545.932 18724.679 9207.535 12580.054 1112.418
8522.934 2413.115 13439.044 3283.923 15090.035 4434.552 6856.445 784.864 3842.217 6040.559 5447.595 5393.013 4618.793 6667.595 885.264 3636.378 5630.419 5371.258 15494.784 9833.611 20351.377 5552.762 4366.812 5730.823 4687.099 539.978 8898.915 6182.378 4258.743 8282.048 5373.484 5982.496 1253.698 15429.611 19755.053 6779.618 5912.921 7110.778 467.054 15590.359 4868.327 3739.550 5413.952 15654.674 25461.541 1121.084 6045.310 5515.621 26039.502 10162.761 7236.829 5917.404 5149.986 20205.049 1026.623 2469.861 5346.658 7459.490 3456.460 5419.601 15648.618 5836.548 4980.002 1224.913 6155.298 20968.309 9516.613 9455.183 6817.979 5476.140 5716.046 9968.642 12947.867 28485.008 5264.748 8232.703 4839.151 8893.728 5242.231 5143.986 6551.478 1109.203 1073.385 1051.232 5285.656 7306.080 969.680 7269.889 20684.079 20694.072 6331.671 6981.991 13871.014 10117.912 4630.433 3528.027 0.000 16498.147 7272.012 9324.633 3245.694
9712.409 18469.228 17494.218 18926.801 14276.998 13818.197 11943.134 17030.863 18801.146 18714.076 13517.522 14413.206 13720.180 18728.148 16674.403 18549.607 12378.325 13696.346 2396.060 12202.396 7434.194 19382.037 19325.742 12478.729 17217.981 16556.420 21734.249 21842.046 17984.803 11463.377 13181.672 12084.815 17361.653 11233.107 4663.786 19661.953 18586.438 11546.784 16893.509 11617.412 17325.878 18267.077 14229.637 11530.796 10518.167 16708.203 12147.629 12990.880 11096.128 11740.464 12723.763 13987.332 13968.208 7287.866 17118.919 17588.259 21299.592 12203.445 19116.128 13832.425 11053.050 14033.011 12788.190 17332.868 18828.815 20977.838 9651.645 12814.860 11904.668 19305.416 13912.510 10306.578 4629.172 23939.471 13989.387 10437.351 14145.665 11088.900 13563.844 13182.297 18647.990 16696.322 17181.339 17020.866 14010.295 10672.930 17051.786 12226.273 20693.609 7776.889 12885.168 11930.584 5342.098 10127.442 17290.244 18682.307 16865.036 0.000 11532.828 13363.562 18905.362
2085.087 9532.250 12870.924 9225.330 9225.813 4881.219 1910.129 8093.885 10023.637 12221.979 4580.544 4942.733 4783.202 8976.614 7737.424 8798.073 2907.851 4759.368 10090.295 7532.297 15128.429 11718.387 10548.232 3008.256 7466.446 7619.442 15080.335 12408.071 8233.269 1747.742 3711.198 3437.048 8424.674 9405.611 14037.527 12961.038 12094.341 996.129 7956.531 9574.848 7574.343 8515.542 4759.163 9639.163 19829.047 7771.225 3499.862 4168.726 20407.008 4154.042 2347.530 5050.354 4585.330 14982.101 8181.940 8651.281 12362.614 3846.996 9420.960 4361.952 9633.107 4562.538 3317.716 8395.889 12336.718 16895.320 5353.181 8032.039 1615.528 11641.766 4442.036 5895.653 7230.342 22469.497 4518.913 4059.021 5129.071 2359.421 4093.370 3711.824 8896.456 7759.344 8244.361 8083.887 4539.821 2783.184 8114.808 3869.824 16611.090 15471.124 4283.580 1554.350 8153.489 6044.923 7538.710 8930.773 7928.057 10780.622 0.000 8476.465 9514.956
8103.243 10696.965 6008.809 12383.234 16253.162 7603.110 7823.606 10115.979 6746.181 6659.110 6724.074 8310.243 7537.073 13364.138 9212.180 12735.688 7633.540 6902.898 10592.018 1747.982 15448.611 7327.072 7270.776 7733.944 11853.971 9286.746 9679.283 15298.478 12620.793 9249.209 8086.205 5206.705 10584.813 16471.727 15811.666 7606.987 6531.472 8077.939 9798.169 16632.474 11961.868 12751.801 8126.673 16696.789 20558.775 10187.933 5269.519 5735.357 21136.735 11204.876 8517.450 7193.884 7862.708 15302.283 9061.189 7353.734 14506.137 4504.171 12572.560 8132.323 16690.733 8549.270 7692.723 10556.028 6773.850 14975.194 5831.394 1565.992 7785.139 7250.450 8428.768 3215.247 11540.430 29527.123 8088.735 5514.343 8040.166 9860.888 7954.953 7856.707 13283.981 10176.051 10404.500 10297.067 8109.643 5958.330 8994.056 4314.570 14690.965 15791.306 4993.371 8024.106 12463.577 5058.841 11926.235 12567.121 9754.625 12507.661 7902.412 0.000 12361.794
10658.334 5203.615 16084.637 583.124 14765.963 6569.953 8650.786 2502.001 6547.985 8718.883 7582.995 7528.413 6754.193 4076.547 3394.021 935.578 7296.753 7506.658 17630.184 12299.881 22486.777 8198.355 7072.581 7397.157 2131.417 3048.734 11604.683 4389.622 1667.695 9318.431 6623.327 8117.896 2087.694 15297.565 21890.453 9485.386 8591.245 8905.119 3106.400 15458.313 2277.279 1118.413 7549.352 15499.600 27596.941 2138.114 8180.710 7651.022 28174.902 10275.963 7866.156 8052.804 7285.387 22340.449 3895.047 5175.630 7547.758 9594.890 210.766 7505.008 15516.572 7071.397 6975.633 2181.317 8833.622 23103.709 11652.013 12100.777 8345.919 8121.734 6950.896 12104.042 15083.267 28244.658 7400.149 10368.103 6974.551 9909.323 7236.426 6497.562 3960.430 2206.673 2425.792 2561.124 7421.057 9441.481 3838.105 9405.289 22819.479 22829.472 8467.072 8299.519 16006.414 12253.312 2074.751 827.227 2868.424 18633.548 9407.412 11970.226 0.000
NODE_COORD_SECTION
1 1438.942575 -1211.855723
2 3278.208088 -9225.079611
3 9966.993990 -3246.685220
4 -664.563633 -7741.233693
5 -5562.690695 158.644981
6 1882.012250 -5979.995779
7 685.670733 -2858.832792
8 1701.729849 -8377.941472
9 5104.508006 -6897.246236
10 6649.977998 -7376.073488
11 3126.371279 -5274.317745
12 1390.069746 -6242.620690
13 1937.377083 -5806.091845
14 -3401.428209 -7688.597794
15 2359.628087 -7909.926907
16 -753.633820 -7713.058889
17 1158.113725 -4599.884550
18 2979.641186 -5375.602107
19 4612.696990 3790.152442
20 6647.541321 -4157.681407
21 7450.568068 7713.914141
22 6086.272206 -7346.395422
23 5332.300168 -7133.941396
24 1174.163829 -4698.935317
25 -1932.080781 -7218.330047
26 2266.436792 -8004.884116
27 7848.260937 -9920.666361
28 -1030.255247 -9088.823464
29 -1235.618147 -7468.992322
30 -56.870542 -1813.212673
31 1119.949307 -5171.199471
32 2971.776950 -3477.016506
33 1260.172315 -8569.387165
34 -4150.066202 2229.726464
35 4624.736212 7268.264846
36 7093.755903 -8184.346216
37 6587.226889 -7469.659462
38 768.002165 -2751.471642
39 1885.097125 -8224.443048
40 -4551.942348 2130.487420
41 -2057.780175 -7340.663993
42 -816.627861 -7437.338998
43 1566.751062 -6120.563652
44 -4552.330846 2280.544981
45 884.872373 10757.824113
46 1389.494526 -8226.189538
47 3025.447652 -3494.468987
48 2855.244261 -4387.232134
49 1113.921911 11014.492265
50 -2194.809285 -1491.793630
51 53.291686 -3602.264901
52 3113.725551 -5466.610504
53 1505.217621 -5856.468499
54 7536.755976 7956.323570
55 2603.170310 -8076.797326
56 3787.491580 -6821.825862
57 269.626302 -11621.577177
58 3689.195135 -3012.485751
59 -433.247861 -7898.473095
60 1354.091444 -5950.451530
61 -4602.879614 2102.508558
62 916.794717 -6005.396640
63 1125.105900 -4950.317188
64 1242.905609 -8521.008912
65 6567.851512 -7295.948038
66 11702.106575 3237.190405
67 4328.698959 -1338.243107
68 6663.625287 -4375.422869
69 573.863757 -2991.918276
70 6162.892412 -7345.944408
71 892.407550 -5887.388541
72 5675.466128 -2988.410804
73 1818.125250 2549.956478
74 -9602.034377 9665.036853
75 1280.456270 -6205.489853
76 3674.817495 -2030.360575
77 1865.117719 -6105.913752
78 -688.074612 -1540.623692
79 1267.560669 -5770.382733
80 956.968533 -5280.859555
81 -3154.229262 -8000.388369
82 1413.584964 -8172.503541
83 1457.445279 -8595.414514
84 1262.135303 -8247.217718
85 1281.828501 -6226.352071
86 2950.887162 -2414.620834
87 2659.333168 -8113.573634
88 3729.564917 -2859.972289
89 11637.408454 3146.482613
90 7339.340862 8096.088437
91 3383.859731 -3673.386402
92 546.095168 -2895.247898
93 2190.472556 1936.209709
94 5843.925895 -1958.182873
95 -1856.906343 -7240.120617
96 -832.802802 -7544.384754
97 2137.073368 -8118.770210
98 3440.475563 5052.754302
99 1043.244016 -2365.301411
100 6831.889757 -4632.718821
101 -467.447198 -8062.203379
DEMAND_SECTION
1 0
2 2
3 1
4 1
5 5
6 1
7 4
8 2
9 10
10 10
11 2
12 1
13 5
14 10
15 1
16 1
17 7
18 1
19 10
20 3
21 3
22 10
23 4
24 10
25 10
26 7
27 8
28 5
29 4
30 2
31 2
32 4
33 90
34 2
35 6
36 4
37 7
38 4
39 5
40 10
41 3
42 8
43 4
44 5
45 5
46 8
47 6
48 9
49 1
50 5
51 2
52 63
53 9
54 8
55 3
56 4
57 9
58 10
59 7
60 10
61 10
62 3
63 8
64 6
65 53
66 4
67 52
68 85
69 78
70 3
71 5
72 10
73 4
74 10
75 4
76 8
77 1
78 4
79 7
80 8
81 10
82 1
83 5
84 6
85 10
86 10
87 51
88 1
89 9
90 2
91 5
92 8
93 3
94 1
95 4
96 1
97 8
98 6
99 6
100 75
101 78
DEPOT_SECTION
1
-1
EOF
