NAME : poryos-hong_kong-n50-poi
COMMENT : Poryos2026 euclidean metric; city hong_kong; 3-decimal seconds/meters; ENU ref in poryos-hong_kong-n50-poi.vrp.json
TYPE : CVRP
DIMENSION : 51
EDGE_WEIGHT_TYPE : EXPLICIT
EDGE_WEIGHT_FORMAT : FULL_MATRIX
CAPACITY : 169
EDGE_WEIGHT_SECTION
0.000 7329.699 2367.922 1718.784 5106.445 6909.558 1679.458 6735.243 3644.519 6445.844 4912.579 2630.016 10109.914 8095.638 2042.394 6860.172 3896.380 6960.694 4398.979 7056.158 6708.821 2577.998 6037.197 7170.177 2570.741 2821.921 5152.084 3424.387 10761.459 4670.912 4572.509 3321.915 2863.793 3878.098 6659.210 10655.415 4951.792 6629.633 6908.991 4574.884 11117.406 4732.948 3825.637 11010.851 6038.263 6726.892 2896.092 8925.899 3972.173 7015.435 7340.375
7329.699 0.000 4969.228 6376.371 2261.929 1959.340 5802.353 1307.385 7821.326 2296.137 2520.930 5219.235 17162.116 5560.048 5335.822 12120.283 3441.664 422.757 3789.220 3471.275 1999.418 5199.135 3426.310 2156.722 7057.127 6215.473 11063.331 3912.798 17411.967 2663.112 3618.229 4028.691 4737.520 3786.230 1640.819 3374.147 2387.752 2351.121 930.921 2855.932 10833.180 3401.176 6669.595 17669.160 7052.964 12151.483 4441.877 6127.446 3367.444 1307.623 30.210
2367.922 4969.228 0.000 1728.213 2738.541 4616.042 927.770 4385.749 3986.137 4330.029 2621.250 1162.141 12393.762 6658.502 419.666 8102.525 1529.723 4608.652 2567.380 4989.252 4418.011 1063.143 4199.384 4896.442 3095.806 2619.537 6664.123 1057.575 12894.410 2322.878 2689.999 955.297 883.065 1856.520 4432.154 8313.054 2585.824 4528.157 4545.836 2298.538 10633.356 2780.731 3689.894 13148.309 5539.926 8046.371 528.443 7500.484 1605.142 4750.984 4980.803
1718.784 6376.371 1728.213 0.000 4119.811 5590.600 846.976 5554.030 2398.966 6024.433 4240.167 1185.690 11633.067 8346.374 1318.037 6380.971 3027.370 6060.620 4286.697 5510.217 5390.520 1186.781 5926.890 5813.930 3813.389 3700.862 4943.094 2601.162 12404.068 3858.383 4415.278 2454.003 1638.915 3584.676 6069.932 9750.494 4023.182 6225.480 5792.638 3942.653 12043.180 4508.943 4818.103 12650.457 6901.897 6320.017 2137.954 9189.992 3091.281 6352.863 6392.696
5106.445 2261.929 2738.541 4119.811 0.000 2163.560 3544.527 1726.804 5725.913 2536.244 957.456 2977.265 15070.232 5827.723 3087.521 10047.601 1214.509 1942.224 2424.503 3162.551 1996.311 2950.452 3154.547 2486.407 5203.896 4431.926 8884.293 1684.094 15451.496 632.757 2338.404 1785.600 2481.603 2015.499 2261.348 5634.339 223.669 2728.082 1825.576 1094.436 10732.070 2193.196 5149.850 15707.647 6177.358 10054.833 2210.642 6583.866 1137.923 2406.158 2276.921
6909.558 1959.340 4616.042 5590.600 2163.560 0.000 5243.181 729.065 6510.248 3840.212 3010.486 4412.902 17002.029 7274.063 4877.357 10688.955 3230.385 2063.888 4521.055 1513.884 201.261 4430.072 4819.253 326.949 7339.800 6586.736 9839.582 3647.180 17493.864 2795.059 4405.439 3697.085 4060.266 4177.574 3264.060 4709.395 2386.269 3965.642 1055.905 3230.921 12446.848 4227.566 7309.630 17748.737 8199.863 10755.636 4122.483 7918.312 3158.121 3087.949 1989.548
1679.458 5802.353 927.770 846.976 3544.527 5243.181 0.000 5105.875 3219.478 5257.712 3529.298 997.836 11789.176 7500.456 508.532 7220.480 2374.101 5459.337 3453.499 5389.409 5042.058 928.169 5102.890 5497.845 3201.645 2963.550 5746.976 1914.672 12416.964 3195.958 3588.091 1783.482 1186.363 2767.896 5349.717 9166.315 3416.747 5455.923 5304.533 3213.808 11246.302 3691.628 4082.686 12667.790 6110.363 7153.815 1404.598 8344.142 2445.189 5658.456 5816.002
6735.243 1307.385 4385.749 5554.030 1726.804 729.065 5105.875 0.000 6730.477 3116.842 2448.904 4368.914 16767.565 6546.649 4693.430 10984.328 2905.769 1350.639 3942.875 2220.166 712.363 4369.654 4117.206 1013.764 6922.453 6135.510 10028.697 3358.644 17175.909 2327.184 3811.832 3435.724 3951.924 3683.357 2535.260 4377.223 1934.736 3238.834 377.622 2710.844 11730.939 3621.514 6786.853 17431.920 7557.978 11032.690 3868.156 7189.273 2829.655 2363.933 1337.041
3644.519 7821.326 3986.137 2398.966 5725.913 6510.248 3219.478 6730.477 0.000 8010.736 6145.983 2977.986 12204.732 10639.006 3622.481 4321.689 4909.300 7592.917 6528.587 5850.475 6332.012 3053.304 8107.737 6632.921 6099.489 6080.306 3336.405 4592.256 13333.355 5679.872 6631.720 4436.793 3505.293 5786.289 7920.355 11105.441 5707.394 8215.584 7051.485 5907.967 14440.354 6689.004 7190.447 13563.564 9298.629 4334.852 4258.571 11479.309 4952.338 8121.860 7843.866
6445.844 2296.137 4330.029 6024.433 2536.244 3840.212 5257.712 3116.842 8010.736 0.000 1868.826 5064.316 15677.930 3443.511 4749.245 12295.487 3101.749 1943.256 2138.963 5260.087 3778.925 5003.663 1147.566 4129.711 5444.613 4582.467 10962.372 3453.350 15711.256 2357.125 1947.332 3608.023 4527.976 2569.088 656.373 4671.749 2450.430 204.849 2861.168 2108.752 8621.024 1750.770 4752.979 15967.950 4800.198 12269.944 3886.544 4131.886 3058.621 1055.871 2277.582
4912.579 2520.930 2621.250 4240.167 957.456 3010.486 3529.298 2448.904 6145.983 1868.826 0.000 3218.787 14642.044 4955.245 3027.430 10441.119 1244.043 2115.343 1510.732 4112.631 2864.891 3164.493 2261.581 3337.431 4565.772 3743.301 9149.662 1639.087 14905.868 508.601 1402.758 1788.011 2683.367 1281.637 1829.785 5756.562 766.406 2073.390 2422.735 341.539 9784.164 1242.874 4339.276 15162.915 5234.204 10422.415 2125.279 5736.738 1195.394 2130.099 2524.876
2630.016 5219.235 1162.141 1185.690 2977.265 4412.902 997.836 4368.914 2977.986 5064.316 3218.787 0.000 12712.897 7693.702 974.767 7231.700 1975.428 4918.340 3576.783 4429.015 4212.294 99.715 5131.386 4643.852 4091.109 3724.086 5943.296 1619.427 13390.012 2788.300 3668.208 1463.624 536.426 2824.785 5034.096 8590.868 2901.569 5268.680 4611.620 2955.582 11791.208 3715.606 4819.199 13639.820 6702.066 7206.408 1297.149 8529.730 2028.683 5283.445 5236.692
10109.914 17162.116 12393.762 11633.067 15070.232 17002.029 11789.176 16767.565 12204.732 15677.930 14642.044 12712.897 0.000 15588.993 12125.995 11551.386 13865.353 16756.881 13575.078 17134.129 16802.380 12670.999 14825.941 17271.459 10233.771 11096.807 10248.196 13408.932 2164.987 14541.569 13766.894 13334.901 12973.453 13395.595 16106.706 20295.493 14885.634 15809.673 16895.721 14306.184 15137.503 13981.091 11084.295 2218.603 12344.292 11249.294 12902.960 16187.072 13941.894 16527.350 17166.631
8095.638 5560.048 6658.502 8346.374 5827.723 7274.063 7500.456 6546.649 10639.006 3443.511 4955.245 7693.702 15588.993 0.000 7042.394 14711.366 5974.115 5286.840 4117.002 8703.402 7219.921 7608.922 2694.810 7554.479 6066.767 5405.192 13151.059 6150.173 15146.611 5455.726 4031.625 6296.980 7197.253 4870.175 4014.753 6594.420 5686.413 3308.651 6266.020 5037.055 5298.798 4013.884 4808.416 15393.434 3268.312 14630.831 6396.779 843.758 5962.201 4259.939 5535.070
2042.394 5335.822 419.666 1318.037 3087.521 4877.357 508.532 4693.430 3622.481 4749.245 3027.430 974.767 12125.995 7042.394 0.000 7698.126 1896.101 4984.223 2969.029 5140.651 4677.279 878.228 4609.875 5145.635 3123.965 2754.816 6247.024 1428.975 12684.391 2708.366 3097.408 1307.174 908.850 2269.560 4844.424 8691.391 2948.102 4947.564 4873.503 2709.001 10915.515 3194.034 3857.543 12937.022 5797.477 7638.031 907.789 7885.419 1969.312 5157.431 5348.488
6860.172 12120.283 8102.525 6380.971 10047.601 10688.955 7220.480 10984.328 4321.689 12295.487 10441.119 7231.700 11551.386 14711.366 7698.126 0.000 9198.068 11905.425 10667.129 9794.057 10524.394 7294.855 12299.242 10767.944 9396.066 9668.922 1840.511 8848.286 13237.632 9986.647 10792.514 8692.705 7767.806 9955.694 12232.955 15358.025 10027.257 12499.984 11320.530 10186.813 17956.548 10877.191 10684.166 13419.277 12898.429 302.344 8459.494 15554.937 9245.809 12442.104 12143.703
3896.380 3441.664 1529.723 3027.370 1214.509 3230.385 2374.101 2905.769 4909.300 3101.749 1244.043 1975.428 13865.353 5974.115 1896.101 9198.068 0.000 3088.251 1996.436 3904.871 3041.636 1923.239 3309.699 3534.960 4130.411 3423.355 7912.352 472.163 14281.427 831.245 2010.212 590.732 1440.924 1306.880 3061.360 6795.585 1056.131 3306.581 3035.636 1002.402 10514.006 1976.027 4283.256 14536.997 5660.535 9178.423 1001.391 6787.730 76.734 3327.298 3453.818
6960.694 422.757 4608.652 6060.620 1942.224 2063.888 5459.337 1350.639 7592.917 1943.256 2115.343 4918.340 16756.881 5286.840 4984.223 11905.425 3088.251 0.000 3366.470 3569.640 2062.904 4892.595 3053.138 2307.070 6638.656 5795.408 10803.036 3556.314 16994.806 2289.844 3195.674 3678.361 4423.295 3372.503 1299.201 3707.408 2044.637 2020.686 1010.448 2453.258 10534.280 2978.795 6247.406 17252.023 6660.601 11927.575 4083.616 5890.076 3015.634 1037.216 419.723
4398.979 3789.220 2567.380 4286.697 2424.503 4521.055 3453.499 3942.875 6528.587 2138.963 1510.732 3576.783 13575.078 4117.002 2969.029 10667.129 1996.436 3366.470 0.000 5580.790 4375.200 3491.948 1662.944 4847.984 3350.708 2488.555 9190.779 2068.425 13689.151 1822.754 192.708 2206.658 3085.066 757.528 2532.481 6723.850 2208.205 2298.674 3878.470 1334.883 8519.329 407.245 2889.280 13946.375 3765.007 10605.842 2279.782 4954.066 2009.070 2957.863 3785.084
7056.158 3471.275 4989.252 5510.217 3162.551 1513.884 5389.409 2220.166 5850.475 5260.087 4112.631 4429.015 17134.129 8703.402 5140.651 9794.057 3904.871 3569.640 5580.790 0.000 1510.610 4478.198 6156.807 1341.292 7981.455 7319.150 9165.724 4212.432 17805.870 3760.094 5500.595 4206.844 4238.677 5087.136 4722.330 5929.898 3374.172 5402.524 2567.342 4245.914 13801.426 5354.133 8180.236 18056.936 9339.591 9895.602 4580.191 9376.490 3847.667 4581.185 3501.461
6708.821 1999.418 4418.011 5390.520 1996.311 201.261 5042.058 712.363 6332.012 3778.925 2864.891 4212.294 16802.380 7219.921 4677.279 10524.394 3041.636 2062.904 4375.200 1510.610 0.000 4229.148 4730.822 495.132 7157.261 6409.830 9658.634 3454.137 17298.843 2628.991 4264.603 3501.851 3859.035 4011.809 3221.038 4856.559 2219.790 3912.263 1073.750 3073.760 12368.648 4091.292 7145.963 17553.616 8072.551 10587.923 3926.261 7878.043 2969.979 3070.582 2029.509
2577.998 5199.135 1063.143 1186.781 2950.452 4430.072 928.169 4369.654 3053.304 5003.663 3164.493 99.715 12670.999 7608.922 878.228 7294.855 1923.239 4892.595 3491.948 4478.198 4229.148 0.000 5054.487 4665.955 3997.557 3625.500 5989.972 1553.469 13334.379 2742.034 3585.939 1397.854 483.116 2741.625 4984.277 8572.312 2867.957 5207.786 4605.874 2895.564 11693.426 3636.789 4719.925 13584.560 6603.006 7266.303 1212.376 8445.682 1978.838 5239.786 5216.127
6037.197 3426.310 4199.384 5926.890 3154.547 4819.253 5102.890 4117.206 8107.737 1147.566 2261.581 5131.386 14825.941 2694.810 4609.875 12299.242 3309.699 3053.138 1662.944 6156.807 4730.822 5054.487 0.000 5126.160 4643.636 3804.728 10847.208 3535.302 14758.911 2760.930 1515.570 3687.953 4612.406 2343.721 1798.229 5688.833 3001.742 1162.544 3905.963 2348.550 7645.347 1423.030 3780.506 15014.663 3653.037 12245.685 3853.664 3488.031 3291.327 2202.650 3409.453
7170.177 2156.722 4896.442 5813.930 2486.407 326.949 5497.845 1013.764 6632.921 4129.711 3337.431 4643.852 17271.459 7554.479 5145.635 10767.944 3534.960 2307.070 4847.984 1341.292 495.132 4665.955 5126.160 0.000 7652.323 6904.464 9968.046 3943.521 17783.711 3118.548 4732.069 3987.827 4312.113 4501.368 3540.145 4697.185 2709.498 4248.726 1298.891 3556.954 12744.666 4553.644 7634.310 18038.276 8523.610 10843.257 4409.993 8186.001 3463.649 3341.049 2186.652
2570.741 7057.127 3095.806 3813.389 5203.896 7339.800 3201.645 6922.453 6099.489 5444.613 4565.772 4091.109 10233.771 6066.767 3123.965 9396.066 4130.411 6638.656 3350.708 7981.455 7157.261 3997.557 4643.636 7652.323 0.000 863.576 7641.407 3773.242 10357.899 4595.663 3541.029 3774.783 3968.174 3284.160 5882.215 10073.805 4989.826 5579.393 6961.187 4253.226 8561.288 3757.917 1347.382 10615.162 3548.229 9247.182 3418.034 6847.688 4198.227 6308.565 7057.251
2821.921 6215.473 2619.537 3700.862 4431.926 6586.736 2963.550 6135.510 6080.306 4582.467 3743.301 3724.086 11096.807 5405.192 2754.816 9668.922 3423.355 5795.408 2488.555 7319.150 6409.830 3625.500 3804.728 6904.464 863.576 0.000 7974.005 3115.358 11209.502 3811.263 2678.399 3142.815 3500.641 2464.985 5019.212 9210.718 4213.288 4719.148 6155.059 3441.162 8381.618 2895.798 1119.993 11466.776 3252.176 9543.245 2838.017 6212.492 3485.952 5446.280 6214.724
5152.084 11063.331 6664.123 4943.094 8884.293 9839.582 5746.976 10028.697 3336.405 10962.372 9149.662 5943.296 10248.196 13151.059 6247.024 1840.511 7912.352 10803.036 9190.779 9165.724 9658.634 5989.972 10847.208 9968.046 7641.407 7974.005 0.000 7517.710 11783.753 8731.265 9331.648 7365.366 6473.034 8514.789 10973.704 14389.903 8830.902 11164.376 10336.104 8867.045 16188.267 9438.598 8952.390 11981.122 11171.238 1636.170 7077.610 13991.474 7968.771 11226.285 11084.080
3424.387 3912.798 1057.575 2601.162 1684.094 3647.180 1914.672 3358.644 4592.256 3453.350 1639.087 1619.427 13408.932 6150.173 1428.975 8848.286 472.163 3556.314 2068.425 4212.432 3454.137 1553.469 3535.302 3943.521 3773.242 3115.358 7517.710 0.000 13848.841 1281.368 2124.980 155.803 1087.109 1318.069 3468.870 7263.004 1528.250 3657.037 3500.476 1349.538 10524.219 2138.925 4045.306 14103.995 5575.955 8818.230 529.333 6976.998 547.788 3756.651 3924.704
10761.459 17411.967 12894.410 12404.068 15451.496 17493.864 12416.964 17175.909 13333.355 15711.256 14905.868 13390.012 2164.987 15146.611 12684.391 13237.632 14281.427 16994.806 13689.151 17805.870 17298.843 13334.379 14758.911 17783.711 10357.899 11209.502 11783.753 13848.841 0.000 14878.778 13875.678 13796.995 13573.862 13628.590 16203.456 20380.725 15251.005 15820.252 17258.696 14582.735 13991.541 14095.137 10979.689 257.276 11880.310 12938.767 13373.726 15659.146 14356.284 16636.969 17412.739
4670.912 2663.112 2322.878 3858.383 632.757 2795.059 3195.958 2327.184 5679.872 2357.125 508.601 2788.300 14541.569 5455.726 2708.366 9986.647 831.245 2289.844 1822.754 3760.094 2628.991 2742.034 2760.930 3118.548 4595.663 3811.263 8731.265 1281.368 14878.778 0.000 1755.606 1415.640 2258.965 1382.897 2249.272 5990.675 409.202 2560.540 2380.117 491.108 10232.840 1634.736 4517.094 15135.312 5586.996 9974.898 1801.963 6241.506 767.616 2499.117 2672.591
4572.509 3618.229 2689.999 4415.278 2338.404 4405.439 3588.091 3811.832 6631.720 1947.332 1402.758 3668.208 13766.894 4031.625 3097.408 10792.514 2010.212 3195.674 192.708 5500.595 4264.603 3585.939 1515.570 4732.069 3541.029 2678.399 9331.648 2124.980 13875.678 1755.606 0.000 2268.797 3166.159 845.432 2341.407 6532.975 2127.087 2108.611 3734.410 1264.501 8525.970 220.110 3053.124 14132.882 3839.015 10735.234 2374.530 4864.003 2015.542 2767.947 3613.381
3321.915 4028.691 955.297 2454.003 1785.600 3697.085 1783.482 3435.724 4436.793 3608.023 1788.011 1463.624 13334.901 6296.980 1307.174 8692.705 590.732 3678.361 2206.658 4206.844 3501.851 1397.854 3687.953 3987.827 3774.783 3142.815 7365.366 155.803 13796.995 1415.640 2268.797 0.000 931.539 1452.466 3617.417 7385.767 1641.049 3811.816 3590.701 1502.824 10641.887 2287.989 4098.246 14051.788 5673.842 8663.026 432.432 7125.059 662.727 3900.336 4041.317
2863.793 4737.520 883.065 1638.915 2481.603 4060.266 1186.363 3951.924 3505.293 4527.976 2683.367 536.426 12973.453 7197.253 908.850 7767.806 1440.924 4423.295 3085.066 4238.677 3859.035 483.116 4612.406 4312.113 3968.174 3500.641 6473.034 1087.109 13573.862 2258.965 3166.159 931.539 0.000 2328.458 4501.498 8111.663 2391.489 4732.370 4172.087 2419.227 11396.974 3202.653 4561.022 13825.776 6345.033 7742.825 827.230 8030.119 1495.887 4756.984 4753.795
3878.098 3786.230 1856.520 3584.676 2015.499 4177.574 2767.896 3683.357 5786.289 2569.088 1281.637 2824.785 13395.595 4870.175 2269.560 9955.694 1306.880 3372.503 757.528 5087.136 4011.809 2741.625 2343.721 4501.368 3284.160 2464.985 8514.789 1318.069 13628.590 1382.897 845.432 1452.466 2328.458 0.000 2809.332 6933.960 1792.073 2755.861 3690.713 977.030 9225.389 924.488 3134.836 13885.710 4357.111 9902.220 1529.626 5705.143 1334.499 3194.795 3788.132
6659.210 1640.819 4432.154 6069.932 2261.348 3264.060 5349.717 2535.260 7920.355 656.373 1829.785 5034.096 16106.706 4014.753 4844.424 12232.955 3061.360 1299.201 2532.481 4722.330 3221.038 4984.277 1798.229 3540.145 5882.215 5019.212 10973.704 3468.870 16203.456 2249.272 2341.407 3617.417 4501.498 2809.332 0.000 4191.606 2230.992 721.955 2252.359 2135.964 9239.737 2125.860 5287.822 16460.523 5446.324 12223.522 3949.118 4657.047 3005.705 438.956 1621.858
10655.415 3374.147 8313.054 9750.494 5634.339 4709.395 9166.315 4377.223 11105.441 4671.749 5756.562 8590.868 20295.493 6594.420 8691.391 15358.025 6795.585 3707.408 6723.850 5929.898 4856.559 8572.312 5688.833 4697.185 10073.805 9210.718 14389.903 7263.004 20380.725 5990.675 6532.975 7385.767 8111.663 6933.960 4191.606 0.000 5750.042 4573.428 4055.491 6097.802 11659.865 6316.950 9422.474 20637.550 9162.768 15409.264 7789.448 6768.753 6723.040 3768.172 3358.091
4951.792 2387.752 2585.824 4023.182 223.669 2386.269 3416.747 1934.736 5707.394 2450.430 766.406 2901.569 14885.634 5686.413 2948.102 10027.257 1056.131 2044.637 2208.205 3374.172 2219.790 2867.957 3001.742 2709.498 4989.826 4213.288 8830.902 1528.250 15251.005 409.202 2127.087 1641.049 2391.489 1792.073 2230.992 5750.042 0.000 2647.408 2013.430 875.092 10550.517 1988.226 4926.265 15507.304 5965.717 10027.791 2057.522 6453.086 981.043 2414.875 2400.609
6629.633 2351.121 4528.157 6225.480 2728.082 3965.642 5455.923 3238.834 8215.584 204.849 2073.390 5268.680 15809.673 3308.651 4947.564 12499.984 3306.581 2020.686 2298.674 5402.524 3912.263 5207.786 1162.544 4248.726 5579.393 4719.148 11164.376 3657.037 15820.252 2560.540 2108.611 3811.816 4732.370 2755.861 721.955 4573.428 2647.408 0.000 2968.054 2313.183 8518.591 1918.701 4850.302 16076.742 4806.101 12474.090 4087.787 3977.417 3263.465 1067.925 2330.600
6908.991 930.921 4545.836 5792.638 1825.576 1055.905 5304.533 377.622 7051.485 2861.168 2422.735 4611.620 16895.721 6266.020 4873.503 11320.530 3035.636 1010.448 3878.470 2567.342 1073.750 4605.874 3905.963 1298.891 6961.187 6155.059 10336.104 3500.476 17258.696 2380.117 3734.410 3590.701 4172.087 3690.713 2252.359 4055.491 2013.430 2968.054 0.000 2713.948 11481.940 3533.972 6751.976 17515.190 7414.923 11364.174 4021.261 6888.623 2958.903 2042.256 960.723
4574.884 2855.932 2298.538 3942.653 1094.436 3230.921 3213.808 2710.844 5907.967 2108.752 341.539 2955.582 14306.184 5037.055 2709.001 10186.813 1002.402 2453.258 1334.883 4245.914 3073.760 2895.564 2348.550 3556.954 4253.226 3441.162 8867.045 1349.538 14582.735 491.108 1264.501 1502.824 2419.227 977.030 2135.964 6097.802 875.092 2313.183 2713.948 0.000 9753.931 1147.974 4083.794 14839.695 5097.380 10161.545 1813.863 5836.552 968.361 2455.076 2860.598
11117.406 10833.180 10633.356 12043.180 10732.070 12446.848 11246.302 11730.939 14440.354 8621.024 9784.164 11791.208 15137.503 5298.798 10915.515 17956.548 10514.006 10534.280 8519.329 13801.426 12368.648 11693.426 7645.347 12744.666 8561.288 8381.618 16188.267 10524.219 13991.541 10232.840 8525.970 10641.887 11396.974 9225.389 9239.737 11659.865 10550.517 8518.591 11481.940 9753.931 0.000 8609.129 7303.332 14197.889 5141.772 17803.519 10576.005 4914.526 10528.336 9526.087 10809.385
4732.948 3401.176 2780.731 4508.943 2193.196 4227.566 3691.628 3621.514 6689.004 1750.770 1242.874 3715.606 13981.091 4013.884 3194.034 10877.191 1976.027 2978.795 407.245 5354.133 4091.292 3636.789 1423.030 4553.644 3757.917 2895.798 9438.598 2138.925 14095.137 1634.736 220.110 2287.989 3202.653 924.488 2125.860 6316.950 1988.226 1918.701 3533.972 1147.974 8609.129 0.000 3268.814 14352.348 3991.866 10825.469 2432.062 4838.394 1973.016 2550.648 3396.025
3825.637 6669.595 3689.894 4818.103 5149.850 7309.630 4082.686 6786.853 7190.447 4752.979 4339.276 4819.199 11084.295 4808.416 3857.543 10684.166 4283.256 6247.406 2889.280 8180.236 7145.963 4719.925 3780.506 7634.310 1347.382 1119.993 8952.390 4045.306 10979.689 4517.094 3053.124 4098.246 4561.022 3134.836 5287.822 9422.474 4926.265 4850.302 6751.976 4083.794 7303.332 3268.814 0.000 11235.655 2218.896 10545.388 3844.952 5562.516 4336.473 5726.574 6664.063
11010.851 17669.160 13148.309 12650.457 15707.647 17748.737 12667.790 17431.920 13563.564 15967.950 15162.915 13639.820 2218.603 15393.434 12937.022 13419.277 14536.997 17252.023 13946.375 18056.936 17553.616 13584.560 15014.663 18038.276 10615.162 11466.776 11981.122 14103.995 257.276 15135.312 14132.882 14051.788 13825.776 13885.710 16460.523 20637.550 15507.304 16076.742 17515.190 14839.695 14197.889 14352.348 11235.655 0.000 12127.783 13119.807 13628.284 15902.598 14611.888 16894.077 17669.942
6038.263 7052.964 5539.926 6901.897 6177.358 8199.863 6110.363 7557.978 9298.629 4800.198 5234.204 6702.066 12344.292 3268.312 5797.477 12898.429 5660.535 6660.601 3765.007 9339.591 8072.551 6603.006 3653.037 8523.610 3548.229 3252.176 11171.238 5575.955 11880.310 5586.996 3839.015 5673.842 6345.033 4357.111 5446.324 9162.768 5965.717 4806.101 7414.923 5097.380 5141.772 3991.866 2218.896 12127.783 0.000 12762.369 5543.047 3844.980 5691.189 5855.671 7038.360
6726.892 12151.483 8046.371 6320.017 10054.833 10755.636 7153.815 11032.690 4334.852 12269.944 10422.415 7206.408 11249.294 14630.831 7638.031 302.344 9178.423 11927.575 10605.842 9895.602 10587.923 7266.303 12245.685 10843.257 9247.182 9543.245 1636.170 8818.230 12938.767 9974.898 10735.234 8663.026 7742.825 9902.220 12223.522 15409.264 10027.791 12474.090 11364.174 10161.545 17803.519 10825.469 10545.388 13119.807 12762.369 0.000 8417.186 15473.901 9228.106 12442.066 12174.424
2896.092 4441.877 528.443 2137.954 2210.642 4122.483 1404.598 3868.156 4258.571 3886.544 2125.279 1297.149 12902.960 6396.779 907.789 8459.494 1001.391 4083.616 2279.782 4580.191 3926.261 1212.376 3853.664 4409.993 3418.034 2838.017 7077.610 529.333 13373.726 1801.963 2374.530 432.432 827.230 1529.626 3949.118 7789.448 2057.522 4087.787 4021.261 1813.863 10576.005 2432.062 3844.952 13628.284 5543.047 8417.186 0.000 7233.320 1076.722 4253.920 4453.663
8925.899 6127.446 7500.484 9189.992 6583.866 7918.312 8344.142 7189.273 11479.309 4131.886 5736.738 8529.730 16187.072 843.758 7885.419 15554.937 6787.730 5890.076 4954.066 9376.490 7878.043 8445.682 3488.031 8186.001 6847.688 6212.492 13991.474 6976.998 15659.146 6241.506 4864.003 7125.059 8030.119 5705.143 4657.047 6768.753 6453.086 3977.417 6888.623 5836.552 4914.526 4838.394 5562.516 15902.598 3844.980 15473.901 7233.320 0.000 6773.102 4853.133 6100.790
3972.173 3367.444 1605.142 3091.281 1137.923 3158.121 2445.189 2829.655 4952.338 3058.621 1195.394 2028.683 13941.894 5962.201 1969.312 9245.809 76.734 3015.634 2009.070 3847.667 2969.979 1978.838 3291.327 3463.649 4198.227 3485.952 7968.771 547.788 14356.284 767.616 2015.542 662.727 1495.887 1334.499 3005.705 6723.040 981.043 3263.465 2958.903 968.361 10528.336 1973.016 4336.473 14611.888 5691.189 9228.106 1076.722 6773.102 0.000 3266.126 3379.758
7015.435 1307.623 4750.984 6352.863 2406.158 3087.949 5658.456 2363.933 8121.860 1055.871 2130.099 5283.445 16527.350 4259.939 5157.431 12442.104 3327.298 1037.216 2957.863 4581.185 3070.582 5239.786 2202.650 3341.049 6308.565 5446.280 11226.285 3756.651 16636.969 2499.117 2767.947 3900.336 4756.984 3194.795 438.956 3768.172 2414.875 1067.925 2042.256 2455.076 9526.087 2550.648 5726.574 16894.077 5855.671 12442.066 4253.920 4853.133 3266.126 0.000 1284.461
7340.375 30.210 4980.803 6392.696 2276.921 1989.548 5816.002 1337.041 7843.866 2277.582 2524.876 5236.692 17166.631 5535.070 5348.488 12143.703 3453.818 419.723 3785.084 3501.461 2029.509 5216.127 3409.453 2186.652 7057.251 6214.724 11084.080 3924.704 17412.739 2672.591 3613.381 4041.317 4753.795 3788.132 1621.858 3358.091 2400.609 2330.600 960.723 2860.598 10809.385 3396.025 6664.063 17669.942 7038.360 12174.424 4453.663 6100.790 3379.758 1284.461 0.000
NODE_COORD_SECTION
1 1438.942575 -1211.855723
2 1200.579557 -8537.677696
3 1207.655493 -3568.455033
4 77.496783 -2260.990907
5 926.013700 -6292.474637
6 -617.892096 -7808.174335
7 768.002165 -2751.471642
8 111.141581 -7814.918860
9 -2194.809285 -1491.793630
10 3201.824121 -7411.949060
11 1865.117719 -6105.913752
12 51.941487 -3446.405944
13 5324.321127 8121.643152
14 6645.334990 -7411.277841
15 996.536834 -3205.758753
16 -4551.942348 2130.487420
17 1137.862378 -5096.585335
18 1413.584964 -8172.503541
19 3126.371279 -5274.317745
20 -2057.780175 -7340.663993
21 -571.787626 -7612.265458
22 151.651824 -3445.452972
23 4060.200084 -6650.307221
24 -886.602516 -7994.426978
25 3882.621223 -2010.067659
26 3729.564917 -2859.972289
27 -2741.432474 1799.528116
28 1162.484312 -4625.065240
29 7450.568068 7713.914141
30 1408.132114 -5882.666268
31 3113.725551 -5466.610504
32 1055.721368 -4511.592185
33 378.416176 -3872.043037
34 2437.499834 -4959.191446
35 2645.824067 -7760.788501
36 1779.237300 -11861.835569
37 1100.101169 -6152.041187
38 3340.165439 -7563.027616
39 411.341717 -8044.000301
40 1884.922970 -5764.949436
41 11638.006149 -5636.313667
42 3028.941565 -5669.736192
43 4845.744777 -2952.315672
44 7536.755976 7956.323570
45 6717.628332 -4143.765124
46 -4299.959863 2297.570526
47 1174.788000 -4095.875228
48 7299.246556 -7944.500814
49 1119.949307 -5171.199471
50 2450.635253 -8153.959434
51 1228.499843 -8549.213985
DEMAND_SECTION
1 0
2 10
3 4
4 1
5 1
6 2
7 7
8 94
9 5
10 83
11 9
12 4
13 6
14 2
15 5
16 3
17 6
18 5
19 7
20 7
21 2
22 8
23 7
24 9
25 98
26 10
27 3
28 1
29 4
30 10
31 2
32 4
33 5
34 8
35 1
36 1
37 3
38 4
39 8
40 73
41 8
42 5
43 97
44 4
45 10
46 6
47 1
48 3
49 3
50 6
51 1
DEPOT_SECTION
1
-1
EOF
