NAME : mamut-san_francisco-n25-poi
COMMENT : Mamut2026 shortest metric; city san_francisco; 3-decimal seconds/meters; ENU ref in mamut-san_francisco-n25-poi.vrp.json
TYPE : CVRP
DIMENSION : 26
EDGE_WEIGHT_TYPE : EXPLICIT
EDGE_WEIGHT_FORMAT : FULL_MATRIX
CAPACITY : 139
EDGE_WEIGHT_SECTION
0.000 23431.064 2562.408 985.686 1816.623 2620.171 10665.062 1562.552 7689.308 2380.747 17044.312 1840.453 1062.800 10227.158 12745.977 2213.663 2301.072 18328.972 2163.109 497.663 18232.535 18113.805 7632.846 3387.895 2564.994 18579.606
22948.789 0.000 23901.718 23147.335 22988.732 23980.024 24117.136 22608.033 19220.949 22398.064 37301.881 21657.645 22816.213 25623.902 28730.952 24287.555 22371.572 39933.152 21022.045 23446.451 34852.291 39717.984 19164.488 21003.446 23699.691 36900.435
2766.683 24171.956 0.000 2076.721 1565.404 413.960 12517.023 3580.296 9265.380 1804.317 17871.328 2957.867 2271.228 12079.120 14227.951 1408.197 1486.752 16648.814 3842.826 2515.407 19714.509 16433.646 9208.919 5504.663 4189.115 19406.622
1267.916 23569.719 1815.333 0.000 830.936 1873.096 11206.746 2104.237 7895.639 1395.542 17410.208 1977.577 698.114 10768.843 13287.662 1602.793 1550.312 17583.345 2301.763 1039.347 18774.219 17368.177 7839.178 4028.604 3106.679 18945.502
1543.550 23544.764 1645.187 651.407 0.000 1702.950 11465.059 2362.550 8043.439 949.425 17660.026 2082.790 845.913 11027.155 13545.974 1566.779 1139.958 17413.199 2449.563 1297.660 19032.532 17198.031 7986.977 4286.917 3364.991 19195.321
2359.537 23893.444 543.304 1668.209 1152.406 0.000 12278.958 3176.449 8911.237 1525.806 17972.472 2679.356 1862.715 11841.055 14058.202 1382.403 1208.240 16623.019 3429.829 2111.559 19544.759 16407.852 8854.775 5100.816 3989.981 19507.766
10427.651 24549.285 12643.316 11095.093 11926.029 12622.467 0.000 9795.455 5217.405 12490.154 15671.189 11974.501 11298.368 4328.069 6318.301 12012.882 12410.479 28063.142 10124.380 10439.470 11661.722 27847.974 5273.867 7964.074 8608.578 15269.743
1228.239 22924.915 3601.619 2027.948 2858.885 3659.382 9504.861 0.000 7154.385 3423.009 16609.890 2774.829 2231.223 9066.957 11585.776 3252.874 3343.334 19368.183 1656.960 1372.325 17072.334 19153.015 7097.924 2236.847 1404.793 18071.769
7551.626 19659.557 9250.146 7761.239 8172.644 9307.909 5037.284 7152.656 0.000 8402.931 19517.936 7512.151 7550.469 7839.958 10947.007 9364.032 8593.588 25112.431 5747.362 8049.289 16643.354 24897.264 56.462 4982.681 8196.293 19116.491
2494.790 22731.419 1720.803 1602.647 951.239 1799.109 12416.299 3313.789 8413.122 0.000 18611.266 1427.228 1797.153 11978.395 14497.214 2106.640 190.657 17752.237 3222.202 2248.900 19983.772 17537.069 8356.661 5238.156 4316.231 20146.560
16896.758 37258.594 17735.822 17408.834 17933.608 17743.251 15387.258 16877.483 19043.088 18494.274 0.000 18443.609 17618.432 12451.575 9563.125 16672.474 18414.599 32733.500 18310.015 16759.533 9080.175 32518.332 18986.627 18606.855 15538.054 1579.676
1804.759 21779.614 3109.744 1996.745 1930.092 3188.050 11899.109 2577.856 7311.013 1538.161 18302.052 0.000 1610.857 11461.205 13980.024 3489.851 1728.818 19138.063 2151.208 2302.070 19466.582 18922.895 7254.551 4355.083 3799.041 19837.347
780.855 22871.605 2469.381 894.658 1307.346 2527.144 11008.455 1843.133 7197.526 1871.952 17387.705 1280.140 0.000 10570.551 13089.370 2390.973 2062.485 18237.393 1603.650 1193.814 18575.927 18022.226 7141.064 3651.863 2908.387 18922.999
9972.792 26182.646 12188.458 10640.235 11471.171 12167.609 4249.917 9340.596 7967.141 12035.295 11677.979 11519.643 10843.510 0.000 3107.050 11558.024 11955.620 27608.284 9841.450 9984.611 9228.389 27393.116 7910.679 7950.412 8153.719 11276.533
12510.185 29297.729 14443.560 13177.627 14008.564 14327.678 6255.713 11918.614 11082.224 14572.688 9626.677 14057.036 13380.902 4490.711 0.000 13562.826 14493.013 29613.085 12651.952 12522.004 7229.646 29397.917 11025.762 10823.672 10300.579 9225.231
2110.835 24282.887 1237.338 1501.195 1261.134 1084.755 11859.751 2923.024 8893.227 1821.800 17352.000 2960.334 1695.701 11421.847 13570.679 0.000 1742.125 16628.312 3299.351 1858.134 19057.237 16413.144 8836.765 4847.391 3531.842 18887.294
2496.339 22685.204 1530.146 1803.546 1195.666 1608.452 12417.848 3315.338 8657.938 356.468 18602.550 1564.409 1998.052 11979.944 14498.763 1915.983 0.000 17561.580 3467.018 2250.449 19985.321 17346.412 8601.476 5239.705 4317.780 20137.844
18955.006 40974.172 17233.311 18384.668 18233.134 17080.728 28435.351 19760.207 25991.965 18606.533 33471.733 19760.084 18927.834 27997.447 29996.525 17505.532 18288.968 0.000 20510.557 18695.317 35483.082 432.307 25935.503 21684.574 20017.963 35007.027
1926.744 21420.820 3940.623 2125.290 2800.485 3998.386 9939.352 1590.896 5740.644 3362.875 18130.070 2472.595 1995.627 9804.502 12612.824 3728.083 3553.532 19708.635 0.000 2424.407 18137.911 19493.467 5684.182 2203.874 2784.537 19137.346
801.834 23729.625 2232.345 655.623 1486.560 2290.108 10579.315 1476.806 7987.869 2050.684 16782.777 2138.657 858.898 10141.411 12660.230 1883.600 1971.009 17998.909 2461.670 0.000 18146.788 17783.742 7931.408 3401.173 2479.248 18318.071
18342.540 35675.467 20275.914 19009.982 19840.918 20160.033 11692.781 17750.969 16854.535 20405.043 9095.208 19889.390 19213.257 10868.448 7274.501 19395.180 20325.368 35445.440 18484.307 18354.359 0.000 35230.272 16910.997 17201.410 16132.934 8428.753
18824.697 40843.863 17103.001 18254.358 18102.825 16950.418 28305.042 19629.898 25861.655 18476.224 33341.424 19629.774 18797.525 27867.138 29866.215 17375.223 18158.659 215.168 20380.247 18565.008 35352.773 0.000 25805.194 21554.265 19887.654 34876.718
7495.165 19603.095 9193.684 7704.777 8116.183 9251.448 5093.746 7096.195 56.462 8346.469 19461.475 7455.689 7494.007 7783.496 10890.546 9307.570 8537.126 25055.970 5690.900 7992.828 16699.816 24840.802 0.000 4926.219 8139.832 19060.029
3027.191 21509.725 5555.446 3978.724 4809.661 5613.209 7838.205 2219.524 4986.007 5373.785 18408.640 4550.250 4073.282 7968.759 10777.080 5206.701 5294.110 21322.010 2270.175 3323.101 16898.420 21106.843 4929.545 0.000 3224.503 18337.090
2344.778 24006.405 4363.409 3012.220 3843.156 4248.043 8639.221 1712.953 8193.783 4407.281 15491.858 3891.628 3215.495 8201.317 10273.912 3531.272 4327.606 19581.531 2831.857 2356.597 15760.469 19366.363 8137.322 3225.502 0.000 16759.904
18447.044 36866.538 19286.107 18959.120 19483.893 19293.537 14995.203 18393.746 18651.033 20044.560 1569.179 19993.894 19168.717 12059.520 9171.070 18222.760 19964.884 34283.785 19127.084 18309.819 8478.231 34068.618 18594.571 18343.839 16775.711 0.000
NODE_COORD_SECTION
1 27567.380647 -311.862562
2 18558.110903 15853.006480
3 29487.347060 722.427523
4 28109.050252 201.268483
5 28253.013969 490.198821
6 29194.524315 615.108414
7 20153.498359 -4712.093979
8 26837.037261 -847.084565
9 20645.207927 -345.848943
10 28306.400320 1279.699218
11 27620.544383 -15061.215451
12 27183.939810 1015.727688
13 27590.995832 222.692284
14 22242.849753 -7023.118427
15 21673.783172 -9409.615103
16 29023.164818 -150.950206
17 28488.398697 1287.141722
18 38480.547359 9446.723631
19 26094.369660 58.651241
20 27915.342580 -306.484125
21 20828.961636 -14863.878073
22 38338.690917 9366.322541
23 20701.578827 -342.655176
24 24811.866972 -974.825654
25 26894.992416 -2187.621195
26 26652.277364 -15914.960294
DEMAND_SECTION
1 0
2 7
3 5
4 9
5 1
6 10
7 54
8 6
9 2
10 5
11 4
12 2
13 9
14 7
15 2
16 87
17 5
18 83
19 3
20 8
21 9
22 6
23 92
24 10
25 4
26 10
DEPOT_SECTION
1
-1
EOF
