NAME : mamut-san_francisco-n100-poi
COMMENT : Mamut2026 euclidean metric; city san_francisco; 3-decimal seconds/meters; ENU ref in mamut-san_francisco-n100-poi.vrp.json
TYPE : CVRP
DIMENSION : 101
EDGE_WEIGHT_TYPE : EXPLICIT
EDGE_WEIGHT_FORMAT : FULL_MATRIX
CAPACITY : 182
EDGE_WEIGHT_SECTION
0.000 6211.896 13203.222 1904.921 8332.822 1696.976 16579.697 799.246 616.869 11232.310 699.411 948.128 2872.526 2129.921 2159.023 1456.634 9167.934 3285.008 1132.751 1994.680 1426.286 2230.821 4398.317 1265.230 16461.503 6490.730 18936.622 1901.677 2517.495 525.145 12661.286 5484.020 2318.204 10162.947 12814.196 14935.217 1025.640 16369.914 2428.194 1465.029 2238.985 18557.642 4289.377 1518.921 9450.803 1182.387 2975.975 126.329 1870.520 13089.274 12566.475 4344.621 2860.077 16612.478 1620.934 1832.778 1913.145 1784.123 6958.722 1687.727 1603.607 16627.987 4973.225 14082.168 12617.030 224.181 4056.602 2745.994 372.790 13580.927 18034.293 267.872 1757.730 722.336 6702.761 11012.128 11176.070 1631.349 2223.264 13687.872 1959.067 4698.148 2981.402 18505.943 2823.221 6016.812 11325.244 2851.992 3633.480 748.414 693.726 1122.040 840.626 3249.761 4690.790 12430.501 8071.959 1807.259 1262.250 826.195 1220.871
6211.896 0.000 10235.033 7368.198 2156.866 7448.393 22275.746 6082.420 6013.890 8015.448 6324.867 5466.886 5720.893 8297.081 5423.650 7485.420 5941.912 5699.262 6017.337 5174.433 7311.281 8349.972 2609.211 7042.741 21030.774 4323.719 18602.783 6751.898 5489.675 6720.432 18791.849 1976.086 8446.850 10428.193 9041.574 20664.739 6406.658 20937.113 4317.721 7372.546 8315.329 18543.080 2714.078 7672.804 4426.278 7255.909 7656.485 6087.690 7516.276 19173.230 18682.687 2536.698 5340.855 21480.302 7597.299 8042.624 7439.588 6379.610 6931.477 6385.597 4986.105 21446.661 1308.950 12664.017 18813.945 6003.072 2705.578 3743.432 6584.679 19579.229 16870.905 6307.742 5014.402 6783.551 1007.586 7777.060 7772.002 7802.794 5239.970 10883.865 5264.747 6873.346 6641.279 18534.184 4053.188 1903.834 8733.286 5750.238 3019.208 5583.282 6738.638 5967.075 6780.169 6161.223 7325.473 9480.192 3909.339 7782.164 7474.143 6516.827 7000.330
13203.222 10235.033 0.000 15079.840 10387.697 14900.162 29278.205 13685.753 13497.374 2221.305 13781.140 12282.597 14669.126 14995.398 11084.962 14605.074 4375.020 10102.977 12196.790 11209.534 14624.306 15185.447 12363.276 12999.899 29664.035 6868.748 28779.319 14834.052 10765.546 13443.421 24498.068 12144.494 14277.285 20636.994 1909.154 27633.342 14056.491 29572.323 10914.736 14657.863 15255.634 28756.901 12419.342 13880.075 6278.282 14330.673 15973.862 13138.914 15071.593 25101.981 24477.925 12239.413 10402.490 29796.828 14782.500 14543.255 15100.876 11858.653 6694.449 14482.347 13128.847 29819.131 10257.087 3738.759 23950.588 13127.131 12238.788 12460.086 13453.638 25836.061 26897.914 13452.923 11464.999 13916.985 9248.213 2461.292 2473.568 14578.535 10993.009 682.419 11249.962 9317.649 10933.726 28751.582 10553.441 12138.774 1894.734 14682.206 12298.136 13090.044 13893.202 12182.804 14043.573 10354.478 9703.192 788.261 6326.120 14954.911 14069.593 12802.532 14419.494
1904.921 7368.198 15079.840 0.000 9367.468 401.838 14995.136 1436.841 1601.894 13078.644 1301.596 2798.202 2332.845 1580.552 4063.923 901.983 10983.062 5182.832 3011.422 3887.823 657.670 1448.118 5087.638 2660.377 14587.912 8309.873 17596.995 740.692 4421.419 1834.472 11474.264 6184.552 2658.647 8942.145 14630.226 13365.114 1058.540 14495.910 4203.952 678.095 1319.461 17152.549 4966.359 2153.320 11038.409 1040.084 1200.520 1952.271 253.857 11824.283 11353.755 5084.023 4764.990 14777.624 794.078 1762.824 92.636 3580.320 8860.204 1026.132 2393.309 14785.555 6264.164 15981.349 11613.750 1955.312 4824.742 3627.314 1742.291 12211.263 16910.815 1642.621 3614.933 1248.501 8028.121 12854.730 13007.454 1375.791 4124.419 15574.295 3857.769 6540.854 4772.151 17092.302 4587.937 6703.046 13208.263 2296.922 4429.999 2043.400 1256.300 3008.906 1082.912 5115.819 6479.017 14303.524 9751.108 832.793 1661.038 2526.516 698.845
8332.822 2156.866 10387.697 9367.468 0.000 9483.222 24127.518 8147.383 8095.861 8249.568 8398.543 7614.162 7509.445 10390.565 7566.257 9559.129 6469.482 7765.898 8173.522 7325.193 9368.356 10429.759 4346.572 9195.827 22512.721 5679.452 18514.255 8710.701 7614.390 8847.313 20834.547 3350.293 10589.861 10929.198 8892.112 22535.943 8452.524 22419.412 6469.709 9430.997 10385.509 18569.009 4466.686 9810.284 4121.524 9340.796 9523.059 8207.530 9534.190 21191.676 20718.053 4321.609 7443.724 23054.202 9660.536 10156.790 9444.200 8532.410 8444.345 8358.735 7024.243 23004.872 3463.133 13294.751 20901.146 8119.697 4559.093 5754.938 8704.955 21558.476 16531.088 8413.682 7170.996 8876.412 2165.187 8029.475 7940.894 9900.978 7381.821 11065.798 7415.562 8814.088 8746.810 18575.380 6193.680 2940.229 9178.301 7542.461 4939.933 7678.866 8830.800 8123.132 8859.926 8236.888 9294.497 9699.272 4422.256 9841.410 9593.303 8666.941 9054.650
1696.976 7448.393 14900.162 401.838 9483.222 0.000 15006.191 1395.844 1520.751 12924.895 1198.742 2629.625 2646.069 1214.562 3839.736 504.077 10849.493 4931.737 2757.077 3691.061 299.869 1112.456 5250.578 2311.224 14764.932 8172.473 17996.659 1052.966 4186.655 1535.315 11352.531 6355.142 2258.460 9343.903 14497.154 13369.434 1044.646 14673.392 4079.805 297.884 1003.666 17549.627 5130.297 1759.098 11005.179 677.407 1585.194 1765.793 202.152 11724.915 11238.900 5237.191 4538.294 14919.452 394.071 1364.129 336.438 3282.777 8609.948 1253.000 2463.978 14933.404 6305.312 15722.437 11445.596 1788.551 4969.201 3728.386 1473.782 12144.050 17312.145 1451.741 3447.196 988.923 8068.280 12703.662 12864.173 974.963 3914.850 15383.471 3653.275 6243.703 4462.045 17488.956 4470.558 6879.831 13021.661 2611.307 4563.407 1977.805 1009.060 2760.300 857.277 4836.382 6160.579 14127.457 9681.902 463.830 1272.230 2229.910 496.428
16579.697 22275.746 29278.205 14995.136 24127.518 15006.191 0.000 16397.813 16526.127 27536.789 16203.028 17519.242 16618.402 14520.781 18455.595 15128.351 25608.354 19272.966 17366.025 18433.153 15214.588 14375.111 19786.885 16422.848 6320.133 22964.159 21717.606 15546.321 18713.315 16196.562 5651.466 20789.553 15046.237 17507.962 29207.352 1650.712 16031.534 6324.258 19003.758 15162.802 14347.539 20785.719 19668.159 15546.560 26009.587 15399.025 14624.134 16679.564 14893.313 4890.131 5536.368 19822.070 19074.108 4952.224 14974.033 14929.836 14936.521 17546.427 22597.230 15921.153 17376.242 5189.954 21243.401 29123.374 6920.522 16729.273 19605.766 18555.013 16248.814 3864.657 23010.290 16383.839 18294.703 15874.384 23002.388 27336.358 27540.081 14995.562 18589.156 29649.124 18369.451 19967.476 18362.736 20660.261 19398.892 21246.499 27390.555 16585.610 19261.373 16983.514 15911.126 17393.773 15807.981 18966.349 19610.472 28553.742 24651.340 14783.862 15469.442 16733.462 15496.311
799.246 6082.420 13685.753 1436.841 8147.383 1395.844 16397.813 0.000 209.727 11663.463 267.501 1454.689 2091.078 2266.565 2789.557 1412.834 9556.827 3949.604 1876.082 2560.385 1229.633 2285.383 4010.928 2022.396 15998.378 6887.453 18137.400 1192.226 3162.976 1144.093 12709.512 5117.261 2814.555 9364.357 13202.621 14762.508 378.861 15906.073 2782.026 1290.377 2238.184 17759.707 3894.454 2045.714 9618.142 1212.118 2323.729 758.004 1506.002 13097.610 12601.336 3979.161 3480.597 16207.217 1515.397 2121.666 1480.201 2562.556 7590.265 916.827 1141.347 16212.755 4917.360 14712.593 12754.490 699.294 3699.228 2409.938 952.912 13532.141 17242.622 592.130 2244.830 801.168 6678.453 11437.808 11585.579 1799.318 2816.637 14191.955 2546.164 5426.382 3748.978 17708.331 3160.677 5649.406 11822.903 2068.521 3280.555 607.445 755.886 1854.750 729.053 3967.378 5449.474 12906.327 8316.319 1699.746 1637.311 1623.783 921.867
616.869 6013.890 13497.374 1601.894 8095.861 1520.751 16526.127 209.727 0.000 11482.408 323.666 1249.797 2256.067 2296.633 2581.475 1472.536 9381.906 3740.634 1669.343 2356.138 1323.314 2336.641 4010.830 1867.265 16180.143 6709.873 18327.412 1399.440 2954.473 1020.540 12784.040 5113.403 2751.802 9549.955 13028.785 14888.514 559.344 16087.943 2603.367 1380.309 2302.796 17953.954 3896.382 1967.380 9484.528 1244.950 2526.873 560.566 1648.325 13181.932 12679.083 3972.117 3273.667 16379.231 1593.849 2109.902 1637.968 2360.333 7383.996 1125.974 1140.770 16386.508 4828.224 14507.011 12806.692 494.286 3688.740 2385.638 827.626 13630.076 17417.477 451.481 2046.644 789.571 6584.845 11257.555 11407.932 1813.841 2610.811 14000.621 2340.319 5216.975 3543.517 17903.111 2986.179 5646.669 11632.113 2235.304 3266.974 457.442 743.169 1647.125 766.280 3757.812 5242.241 12718.798 8166.552 1782.752 1593.636 1442.485 1030.319
11232.310 8015.448 2221.305 13078.644 8249.568 12924.895 27536.789 11663.463 11482.408 0.000 11777.066 10295.581 12536.345 13115.285 9164.237 12661.764 2181.917 8267.331 10277.791 9253.144 12658.575 13292.741 10155.346 11145.824 27661.837 4782.767 26575.534 12787.487 8869.700 11511.831 22936.627 9923.348 12491.070 18416.010 1736.257 25887.046 12038.859 27569.536 8881.519 12696.227 13351.326 26544.599 10213.838 12028.519 4191.446 12385.237 13920.755 11159.137 13088.149 23508.966 22901.020 10032.816 8505.088 27844.263 12835.925 12675.599 13105.855 10009.000 5199.373 12427.517 11040.175 27857.878 8048.024 5240.188 22481.561 11138.986 10039.587 10311.286 11505.262 24194.497 24722.070 11473.156 9477.699 11952.778 7031.449 241.227 369.524 12676.754 9055.231 2870.056 9301.732 7713.966 9186.583 26538.355 8507.151 9918.961 1184.185 12551.010 10112.251 11060.606 11925.870 10258.813 12068.159 8572.768 8158.363 1469.398 4106.123 13014.173 12174.806 10898.546 12436.369
699.411 6324.867 13781.140 1301.596 8398.543 1198.742 16203.028 267.501 323.666 11777.066 0.000 1505.868 2289.199 2004.772 2808.819 1161.398 9683.747 3955.043 1826.879 2606.852 1000.680 2031.270 4276.538 1840.202 15888.892 7009.509 18275.406 1203.016 3176.459 937.441 12469.403 5382.443 2555.751 9514.870 13331.307 14565.188 326.244 15796.843 2904.889 1058.419 1990.612 17886.001 4160.331 1795.196 9807.256 949.464 2294.757 701.370 1331.805 12863.847 12363.224 4243.609 3507.419 16076.792 1275.330 1854.179 1331.037 2482.673 7617.134 999.670 1404.901 16085.798 5146.692 14742.092 12502.606 677.635 3962.934 2669.598 754.525 13308.490 17413.004 443.704 2318.312 535.312 6904.750 11553.235 11706.630 1533.630 2853.051 14279.030 2583.558 5392.804 3680.742 17833.025 3291.197 5914.821 11911.843 2264.262 3543.461 780.934 490.615 1812.651 465.350 3940.483 5390.155 13004.052 8485.094 1463.124 1374.777 1491.719 706.842
948.128 5466.886 12282.597 2798.202 7614.162 2629.625 17519.242 1454.689 1249.797 10295.581 1505.868 0.000 3208.515 3030.792 1344.224 2403.828 8223.097 2510.463 724.306 1106.399 2368.611 3152.690 3948.568 1599.026 17382.526 5545.738 19324.806 2646.595 1720.313 1344.887 13532.371 4979.114 2981.862 10528.094 11870.110 15873.656 1801.646 17290.682 1484.545 2409.854 3172.294 18987.234 3852.855 2221.413 8528.453 2128.544 3776.641 864.862 2793.341 13976.978 13443.640 3870.859 2027.973 17548.991 2569.043 2682.276 2818.291 1410.852 6135.930 2349.248 1567.397 17562.344 4189.619 13257.906 13442.150 844.838 3584.921 2337.286 1271.432 14489.134 18298.145 1178.122 818.606 1669.331 5878.932 10074.101 10234.897 2539.109 1362.214 12776.177 1091.833 4034.605 2471.004 18941.022 1879.729 5502.025 10410.074 3197.817 3177.250 943.395 1638.672 675.174 1773.816 2576.223 4113.693 11507.209 7132.566 2755.063 2108.572 1056.762 2141.145
2872.526 5720.893 14669.126 2332.845 7509.445 2646.069 16618.402 2091.078 2256.067 12536.345 2289.199 3208.515 0.000 3852.660 4488.283 3014.044 10362.995 5633.153 3825.752 4177.888 2727.996 3757.656 3170.943 4113.450 15408.146 7805.789 16123.308 1598.439 4857.053 3224.640 13551.323 4182.179 4734.762 7330.066 13937.274 15027.182 2044.791 15314.559 4004.315 2785.669 3641.071 15779.002 3053.387 4035.181 9849.739 2966.788 2045.093 2804.397 2576.818 13840.064 13413.779 3213.116 5103.667 15794.690 2999.150 3904.789 2425.447 4543.379 9073.592 1441.368 1725.162 15769.689 4869.986 16105.744 13796.926 2720.864 3016.739 2242.924 3037.271 14130.174 15165.258 2683.208 3791.823 2757.266 6550.313 12300.034 12402.235 3516.840 4449.334 15229.193 4199.637 7211.009 5673.746 15732.569 4282.550 4661.035 12871.804 37.184 2720.113 2307.102 2722.546 3791.481 2601.464 5765.757 7318.843 13880.961 8791.961 3108.834 3563.219 3696.148 2483.018
2129.921 8297.081 14995.398 1580.552 10390.565 1214.562 14520.781 2266.565 2296.633 13115.285 2004.772 3030.792 3852.660 0.000 3957.697 880.280 11117.291 4894.748 2852.615 3914.058 1143.579 238.309 6273.782 2004.428 14789.339 8455.518 19016.378 2266.506 4245.939 1688.025 10533.420 7381.062 1226.304 10441.352 14745.368 12872.155 2024.200 14699.747 4505.642 1081.259 385.020 18536.810 6156.380 1147.382 11558.894 1055.327 2611.946 2245.886 1327.332 10959.454 10437.235 6244.668 4610.652 14827.908 855.852 469.022 1493.279 3140.780 8495.717 2431.587 3407.907 14861.207 7083.690 15525.701 10516.961 2318.006 5965.516 4674.312 1769.153 11458.942 18418.413 1994.877 3779.896 1514.587 8824.396 12903.923 13088.345 499.144 4080.388 15438.718 3852.492 5972.227 4186.521 18471.588 4898.723 7912.383 13102.521 3818.497 5547.118 2714.414 1559.993 2877.673 1539.445 4685.975 5789.784 14238.303 10148.202 752.313 949.314 2222.798 1436.046
2159.023 5423.650 11084.962 4063.923 7566.257 3839.736 18455.595 2789.557 2581.475 9164.237 2808.819 1344.224 4488.283 3957.697 0.000 3520.945 7161.390 1166.824 1114.354 350.042 3554.505 4129.665 4537.364 2049.434 18594.773 4508.626 20554.251 3980.843 376.464 2358.468 14206.147 5425.410 3505.828 11759.698 10787.751 16805.298 3120.339 18503.574 1135.952 3583.887 4187.152 20240.872 4466.908 2912.394 7814.579 3247.528 5100.575 2117.813 4021.477 14699.674 14135.904 4430.569 701.086 18712.123 3699.094 3529.963 4071.278 1029.432 4808.320 3692.179 2779.165 18734.227 4117.292 11933.273 13992.925 2131.192 4169.840 3142.200 2374.659 15280.794 19445.143 2422.329 734.317 2850.844 5606.013 8950.681 9131.819 3512.615 185.075 11554.760 297.328 2722.772 1400.732 20197.696 1372.667 5909.296 9199.205 4481.448 3820.711 2283.815 2831.523 1098.160 2992.691 1290.414 2862.222 10318.529 6316.254 3870.125 3012.687 1735.801 3376.917
1456.634 7485.420 14605.074 901.983 9559.129 504.077 15128.351 1412.834 1472.536 12661.764 1161.398 2403.828 3014.044 880.280 3520.945 0.000 10612.965 4572.009 2414.027 3408.633 289.116 872.997 5404.615 1850.661 15077.708 7936.976 18498.978 1465.841 3851.559 1165.280 11311.650 6512.322 1780.555 9837.741 14256.924 13485.190 1146.468 14986.728 3884.665 239.680 830.261 18053.399 5286.488 1255.305 10890.329 276.968 2088.426 1552.034 696.422 11712.722 11207.284 5378.951 4210.521 15193.620 180.789 902.155 840.508 2877.517 8240.837 1576.784 2549.374 15214.226 6298.612 15337.943 11342.169 1601.303 5102.074 3821.237 1156.585 12172.547 17802.487 1256.534 3205.305 746.542 8052.426 12443.926 12613.458 507.787 3613.682 15075.230 3361.478 5826.344 4035.121 17992.832 4279.586 7042.598 12720.093 2981.155 4686.109 1915.360 784.730 2424.796 707.695 4443.474 5720.228 13837.137 9525.517 352.924 772.735 1840.190 556.717
9167.934 5941.912 4375.020 10983.062 6469.482 10849.493 25608.354 9556.827 9381.906 2181.917 9683.747 8223.097 10362.995 11117.291 7161.390 10612.965 0.000 6365.825 8265.333 7215.626 10591.703 11283.017 7988.808 9185.539 25546.879 2677.359 24543.283 10660.690 6895.108 9479.070 21169.914 7804.530 10581.782 16287.617 3647.862 23957.666 9934.413 25454.274 6779.157 10632.460 11331.526 24483.242 8044.378 10063.033 2802.944 10336.009 11787.564 9087.847 11005.870 21712.932 21120.978 7864.612 6534.323 25760.478 10783.676 10691.123 11014.776 8065.097 3906.697 10296.037 8890.213 25768.414 5883.478 6834.169 20798.312 9060.986 7864.592 8133.663 9458.224 22355.034 22764.943 9400.310 7410.446 9890.263 4988.679 1942.630 2042.824 10662.658 7037.245 4992.402 7271.322 6092.647 7360.605 24473.347 6396.339 7835.562 2793.242 10378.246 7931.511 8950.791 9860.944 8241.959 9996.084 6722.892 6587.208 3595.352 2085.051 10965.873 10169.776 8894.532 10356.703
3285.008 5699.262 10102.977 5182.832 7765.898 4931.737 19272.966 3949.604 3740.634 8267.331 3955.043 2510.463 5633.153 4894.748 1166.824 4572.009 6365.825 0.000 2175.219 1455.713 4638.676 5089.629 5313.148 2896.959 19640.054 3812.272 21650.364 5138.503 790.375 3410.515 14823.639 6073.049 4227.540 12863.667 9935.486 17622.722 4271.691 19549.469 1880.529 4661.710 5167.027 21353.773 5261.272 3777.860 7387.516 4306.530 6249.791 3256.658 5120.721 15354.537 14768.785 5192.683 546.706 19716.256 4752.590 4440.519 5183.289 1755.680 3678.862 4856.287 3912.830 19745.625 4446.672 10798.584 14511.107 3278.939 4959.526 4103.852 3458.041 15989.235 20483.610 3552.068 1842.113 3947.574 5674.645 8064.403 8267.397 4491.167 1184.017 10544.247 1440.146 1606.713 1089.046 21312.676 1876.439 6513.369 8209.232 5627.933 4662.166 3450.629 3933.316 2174.740 4101.906 478.211 1850.323 9349.617 5817.196 4912.223 3979.382 2734.826 4487.683
1132.751 6017.337 12196.790 3011.422 8173.522 2757.077 17366.025 1876.082 1669.343 10277.791 1826.879 724.306 3825.752 2852.615 1114.354 2414.027 8265.333 2175.219 0.000 1072.310 2465.329 3018.907 4647.461 1055.414 17491.668 5603.174 19947.078 3029.358 1437.606 1248.928 13204.167 5658.030 2527.426 11155.658 11896.851 15716.394 2152.117 17400.661 1792.261 2490.292 3073.651 19591.253 4555.095 1852.848 8802.284 2143.163 4107.937 1129.504 2945.516 13677.982 13126.108 4564.548 1796.850 17600.049 2593.368 2436.571 3009.459 719.221 5854.039 2791.091 2258.037 17623.182 4718.568 12971.423 13046.975 1176.985 4280.983 3053.913 1283.324 14233.570 18964.781 1399.885 1037.403 1772.416 6348.251 10063.669 10242.967 2400.210 1228.093 12662.470 1004.342 3566.129 1875.465 19542.488 2159.212 6175.418 10309.634 3811.233 3879.674 1518.751 1758.737 52.763 1928.894 2117.276 3573.484 11431.448 7343.314 2760.990 1904.461 632.671 2314.390
1994.680 5174.433 11209.534 3887.823 7325.193 3691.061 18433.153 2560.385 2356.138 9253.144 2606.852 1106.399 4177.888 3914.058 350.042 3408.633 7215.626 1455.713 1072.310 0.000 3415.081 4071.179 4199.635 2095.189 18455.974 4545.754 20222.351 3751.526 685.816 2263.807 14265.063 5103.282 3570.938 11429.664 10854.673 16783.914 2907.297 18364.416 857.390 3449.616 4116.288 19914.463 4127.175 2923.070 7740.583 3132.175 4883.009 1936.246 3864.963 14744.561 14189.393 4094.761 938.105 18598.136 3583.144 3506.196 3902.217 1209.874 5033.011 3446.503 2459.880 18616.030 3865.545 12152.951 14085.977 1934.743 3831.279 2792.238 2252.215 15304.968 19101.732 2248.590 393.442 2707.713 5405.649 9035.557 9207.120 3449.825 271.779 11693.244 90.374 3041.109 1746.349 19872.075 1157.747 5592.864 9330.651 4172.435 3477.298 2022.435 2683.668 1041.061 2835.304 1627.994 3200.795 10437.838 6272.489 3761.035 2964.761 1703.602 3214.110
1426.286 7311.281 14624.306 657.670 9368.356 299.869 15214.588 1229.633 1323.314 12658.575 1000.680 2368.611 2727.996 1143.579 3554.505 289.116 10591.703 4638.676 2465.329 3415.081 0.000 1100.442 5179.389 2015.803 15043.596 7914.345 18241.996 1177.189 3898.045 1237.102 11480.598 6286.777 2065.249 9567.497 14238.618 13574.761 920.483 14952.206 3833.011 64.473 1027.728 17803.140 5060.328 1503.554 10795.329 384.422 1857.960 1503.999 500.414 11868.206 11371.878 5158.429 4251.557 15186.453 300.501 1191.071 613.193 2983.444 8316.046 1293.928 2345.563 15202.531 6144.564 15426.477 11539.030 1536.025 4884.752 3618.325 1182.632 12308.094 17528.663 1192.779 3183.072 707.368 7904.005 12438.408 12601.901 796.888 3634.077 15103.969 3374.662 5944.082 4162.177 17743.524 4225.883 6815.258 12743.803 2694.860 4472.338 1778.615 732.749 2470.009 599.338 4538.479 5861.025 13852.919 9454.091 473.176 1007.083 1931.126 314.452
2230.821 8349.972 15185.447 1448.118 10429.759 1112.456 14375.111 2285.383 2336.641 13292.741 2031.270 3152.690 3757.656 238.309 4129.665 872.997 11283.017 5089.629 3018.907 4071.179 1100.442 0.000 6273.775 2209.440 14577.526 8616.545 18805.387 2161.178 4426.953 1821.453 10456.608 7381.480 1457.933 10248.353 14915.756 12727.798 2012.191 14487.732 4634.525 1036.031 157.083 18320.946 6155.237 1368.051 11678.431 1094.967 2421.049 2341.378 1194.932 10869.370 10355.839 6249.772 4791.556 14627.602 800.317 695.513 1357.471 3339.238 8704.442 2358.246 3422.303 14658.854 7151.825 15744.611 10471.441 2406.286 5973.706 4694.228 1882.121 11350.628 18225.774 2072.273 3919.593 1573.910 8900.036 13079.977 13261.290 621.639 4246.583 15633.511 4012.644 6191.855 4402.901 18255.104 5028.983 7911.013 13293.518 3722.704 5558.387 2769.870 1617.379 3041.212 1570.705 4892.227 6016.335 14426.223 10282.168 654.374 1118.175 2394.280 1409.278
4398.317 2609.211 12363.276 5087.638 4346.572 5250.578 19786.885 4010.928 4010.830 10155.346 4276.538 3948.568 3170.943 6273.782 4537.364 5404.615 7988.808 5313.148 4647.461 4199.635 5179.389 6273.775 0.000 5507.089 18421.563 5768.068 16931.341 4399.800 4772.355 4921.195 16556.140 1107.729 6714.897 8380.276 11367.309 18191.567 4261.741 18327.903 3466.142 5243.692 6207.014 16763.432 121.652 5915.720 6945.583 5222.078 5176.516 4274.067 5275.469 16888.279 16431.559 136.867 4802.359 18876.960 5479.135 6120.479 5169.665 5230.015 7826.103 4064.146 2873.282 18841.444 2107.449 14362.923 16693.722 4174.139 369.967 1653.336 4748.165 17229.020 15483.025 4402.461 3879.291 4796.912 3528.807 9914.145 9960.466 5810.100 4388.126 12978.439 4276.385 6835.914 5934.857 16740.467 3441.665 1638.650 10701.293 3203.018 773.380 3664.323 4750.497 4595.052 4739.940 5673.818 7157.071 11584.048 6140.793 5648.107 5596.240 4958.322 4866.574
1265.230 7042.741 12999.899 2660.377 9195.827 2311.224 16422.848 2022.396 1867.265 11145.824 1840.202 1599.026 4113.450 2004.428 2049.434 1850.661 9185.539 2896.959 1055.414 2095.189 2015.803 2209.440 5507.089 0.000 16786.264 6548.822 20097.094 2935.801 2290.471 912.136 12171.230 6559.534 1476.869 11349.104 12794.369 14772.173 2132.447 16696.373 2847.620 2013.859 2301.127 19693.258 5405.671 882.873 9835.316 1633.817 3852.706 1360.623 2513.376 12656.070 12097.136 5437.819 2651.660 16832.324 2024.366 1544.944 2626.551 1141.419 6495.147 2819.330 2833.586 16865.501 5751.537 13548.929 11996.243 1459.702 5149.730 3864.673 1086.110 13231.501 19253.206 1430.290 2092.672 1488.251 7398.693 10938.282 11131.187 1639.329 2199.867 13437.622 2017.153 4005.345 2209.768 19638.031 3211.920 7086.151 11106.025 4090.690 4733.765 1978.239 1503.733 1100.291 1674.331 2682.849 3874.240 12246.212 8356.981 2147.278 1134.695 549.740 2000.808
16461.503 21030.774 29664.035 14587.912 22512.721 14764.932 6320.133 15998.378 16180.143 27661.837 15888.892 17382.526 15408.146 14789.339 18594.773 15077.708 25546.879 19640.054 17491.668 18455.974 15043.596 14577.526 18421.563 16786.264 0.000 22884.038 15952.968 14887.419 18929.251 16242.977 10185.755 19228.248 15723.268 13623.152 29186.327 6324.492 15623.124 93.673 18780.366 15012.044 14486.597 14985.568 18317.566 15935.511 25257.829 15348.922 13768.073 16525.127 14592.467 9542.035 9975.093 18497.072 19287.617 1419.179 14898.308 15256.728 14564.574 17906.517 23281.166 15254.884 16687.708 1186.458 20276.629 30299.995 11609.441 16537.735 18353.426 17622.239 16220.278 8582.321 17602.600 16211.113 18200.766 15750.323 21923.294 27436.052 27580.931 15157.286 18677.668 30147.564 18417.692 20752.280 18974.563 14855.850 19156.522 19581.861 27786.590 15384.495 18107.903 16601.706 15773.018 17501.601 15620.948 19467.810 20531.987 28889.632 24156.014 14732.353 15669.460 16906.406 15244.541
6490.730 4323.719 6868.748 8309.873 5679.452 8172.473 22964.159 6887.453 6709.873 4782.767 7009.509 5545.738 7805.789 8455.518 4508.626 7936.976 2677.359 3812.272 5603.174 4545.754 7914.345 8616.545 5768.068 6548.822 22884.038 0.000 22649.329 8004.983 4263.638 6807.237 18628.520 5856.922 7972.650 14147.584 6324.701 21313.898 7264.176 22791.602 4106.522 7955.149 8661.702 22512.128 5798.996 7419.729 3759.347 7660.056 9138.010 6410.493 8329.666 19149.635 18570.050 5634.260 3909.792 23085.996 8107.186 8036.136 8340.336 5446.782 2775.422 7644.756 6265.365 23095.274 3769.950 8595.325 18322.431 6383.927 5572.298 5616.735 6783.045 19762.050 21063.659 6723.003 4733.419 7213.066 3631.757 4554.161 4698.189 7995.388 4376.621 7423.407 4604.085 3935.209 4866.027 22492.188 3727.573 6034.516 5069.289 7818.015 5555.697 6282.788 7183.646 5577.899 7318.791 4218.312 4463.723 6081.353 2155.972 8289.837 7506.658 6234.574 7680.029
18936.622 18602.783 28779.319 17596.995 18514.255 17996.659 21717.606 18137.400 18327.412 26575.534 18275.406 19324.806 16123.308 19016.378 20554.251 18498.978 24543.283 21650.364 19947.078 20222.351 18241.996 18805.387 16931.341 20097.094 15952.968 22649.329 0.000 17171.972 20907.989 19185.485 23003.126 16815.402 20214.542 8797.284 27392.263 20996.740 17969.248 15905.490 19841.734 18271.242 18648.327 984.882 16920.328 19745.515 22606.210 18607.088 16431.288 18887.694 17815.225 22720.578 22772.267 17067.990 21105.106 17328.446 18379.801 19322.800 17661.204 20662.725 24715.379 17281.353 17784.139 17113.232 18881.399 31215.107 24118.716 18813.815 17182.357 17624.131 19018.866 22196.878 2777.091 18710.915 19828.934 18618.379 19559.861 26341.144 26305.792 18955.455 20487.394 29442.737 20258.216 23255.379 21794.789 1116.163 20001.040 16720.868 27335.718 16136.784 17312.722 18429.507 18598.523 19913.809 18434.407 21844.441 23413.473 28044.932 22488.281 18366.027 19247.564 19759.028 18152.380
1901.677 6751.898 14834.052 740.692 8710.701 1052.966 15546.321 1192.226 1399.440 12787.487 1203.016 2646.595 1598.439 2266.506 3980.843 1465.841 10660.690 5138.503 3029.358 3751.526 1177.189 2161.178 4399.800 2935.801 14887.419 8004.983 17171.972 0.000 4353.456 2031.950 12157.362 5487.612 3238.746 8452.204 14298.917 13926.066 877.262 14794.703 3919.423 1227.787 2042.750 16759.415 4278.172 2621.787 10555.394 1484.279 1142.311 1901.071 979.330 12489.993 12031.883 4404.421 4672.783 15139.690 1422.607 2367.978 832.574 3681.614 8782.424 379.558 1852.272 15137.259 5698.674 15904.331 12326.079 1865.195 4154.106 3012.864 1882.444 12848.752 16395.835 1640.140 3428.337 1448.921 7456.105 12559.129 12697.362 1973.358 4008.729 15349.697 3738.277 6594.559 4881.471 16703.548 4283.538 6000.657 12979.631 1563.057 3772.265 1754.314 1432.070 3014.073 1263.739 5140.177 6592.059 14052.079 9325.469 1516.793 2123.921 2667.161 1000.025
2517.495 5489.675 10765.546 4421.419 7614.390 4186.655 18713.315 3162.976 2954.473 8869.700 3176.459 1720.313 4857.053 4245.939 376.464 3851.559 6895.108 790.375 1437.606 685.816 3898.045 4426.953 4772.355 2290.471 18929.251 4263.638 20907.989 4353.456 0.000 2686.330 14395.624 5618.347 3711.841 12115.474 10507.996 17062.643 3490.221 18838.252 1312.734 3924.996 4492.029 20600.096 4708.295 3168.702 7662.480 3580.701 5470.052 2481.782 4371.364 14901.865 14330.482 4660.271 364.725 19032.672 4030.967 3806.746 4426.118 1187.196 4442.454 4067.395 3142.940 19057.236 4193.640 11567.106 14149.235 2499.049 4408.400 3440.200 2715.597 15501.139 19779.863 2782.767 1079.111 3198.305 5604.452 8659.195 8847.125 3815.255 423.044 11226.752 657.417 2356.635 1186.771 20557.598 1456.762 6088.671 8876.513 4850.800 4076.634 2660.277 3181.004 1429.001 3345.404 949.530 2519.948 10002.788 6137.865 4197.917 3308.935 2037.256 3730.687
525.145 6720.432 13443.421 1834.472 8847.313 1535.315 16196.562 1144.093 1020.540 11511.831 937.441 1344.887 3224.640 1688.025 2358.468 1165.280 9479.070 3410.515 1248.928 2263.807 1237.102 1821.453 4921.195 912.136 16242.977 6807.237 19185.485 2031.950 2686.330 0.000 12193.001 6008.477 1793.980 10437.367 13118.418 14549.220 1220.976 16152.003 2817.827 1254.965 1856.055 18784.058 4811.652 994.643 9871.277 896.308 2998.795 651.142 1731.567 12633.340 12102.400 4868.634 3045.700 16353.696 1344.968 1343.655 1817.001 1749.470 7084.339 1907.318 2104.593 16375.829 5471.326 14190.800 12124.566 748.490 4580.772 3269.669 193.027 13144.681 18345.986 569.304 2098.144 599.432 7189.555 11295.698 11469.794 1201.789 2457.266 13911.083 2211.131 4711.435 2937.762 18729.303 3211.277 6541.389 11557.247 3200.285 4157.512 1261.691 606.188 1260.813 783.284 3301.378 4644.949 12676.804 8462.753 1512.261 767.812 695.164 1143.043
12661.286 18791.849 24498.068 11474.264 20834.547 11352.531 5651.466 12709.512 12784.040 22936.627 12469.403 13532.371 13551.323 10533.420 14206.147 11311.650 21169.914 14823.639 13204.167 14265.063 11480.598 10456.608 16556.140 12171.230 10185.755 18628.520 23003.126 12157.362 14395.624 12193.001 0.000 17644.401 10701.136 16763.817 24653.848 4378.065 12388.755 10142.589 14969.293 11419.304 10481.526 22179.754 16434.576 11357.122 22005.409 11550.710 11520.333 12778.715 11301.039 762.191 234.675 16556.672 14736.125 9206.467 11195.206 10850.621 11395.134 13209.643 17818.517 12493.474 13815.391 9396.760 17608.155 23969.125 1425.979 12851.382 16298.970 15080.564 12295.515 1814.725 23662.676 12524.849 14217.967 12030.472 19355.839 22755.569 22988.518 11032.554 14365.442 24803.881 14188.139 15229.406 13809.312 22068.271 15351.955 18154.312 22642.731 13514.694 15902.958 13224.683 12073.984 13242.274 12019.026 14448.435 14809.501 23814.174 20522.365 11009.788 11425.677 12589.759 11791.947
5484.020 1976.086 12144.494 6184.552 3350.293 6355.142 20789.553 5117.261 5113.403 9923.348 5382.443 4979.114 4182.179 7381.062 5425.410 6512.322 7804.530 6073.049 5658.030 5103.282 6286.777 7381.480 1107.729 6559.534 19228.248 5856.922 16815.402 5487.612 5618.347 6008.477 17644.401 0.000 7802.223 8492.904 11004.147 19204.685 5369.407 19134.724 4308.043 6351.101 7314.322 16711.606 1226.449 7002.911 6398.863 6328.834 6216.011 5358.856 6376.465 17967.430 17517.341 1142.058 5595.948 19734.814 6586.613 7223.290 6267.695 6199.528 8184.139 5159.243 3978.206 19690.675 2098.357 14399.705 17795.341 5260.127 1428.393 2740.197 5838.814 18292.117 15209.936 5498.520 4817.304 5900.824 2980.909 9683.202 9695.546 6916.070 5262.574 12782.913 5185.809 7515.128 6801.323 16697.244 4206.065 533.582 10577.251 4216.320 1851.932 4757.209 5854.384 5605.286 5846.313 6472.500 7883.092 11379.436 5828.133 6755.121 6694.503 6009.794 5974.105
2318.204 8446.850 14277.285 2658.647 10589.861 2258.460 15046.237 2814.555 2751.802 12491.070 2555.751 2981.862 4734.762 1226.304 3505.828 1780.555 10581.782 4227.540 2527.426 3570.938 2065.249 1457.933 6714.897 1476.869 15723.268 7972.650 20214.542 3238.746 3711.841 1793.980 10701.136 7802.223 0.000 11596.718 14163.024 13396.233 2718.372 15635.225 4317.766 2020.131 1610.531 19745.422 6604.987 799.352 11309.096 1771.532 3785.933 2443.478 2421.844 11194.906 10630.097 6662.595 4062.897 15683.912 1864.721 897.649 2583.705 2526.043 7662.549 3297.992 3879.751 15730.649 7171.273 14583.158 10520.004 2542.118 6374.688 5063.648 1967.941 11789.711 19568.235 2325.291 3561.384 2026.387 8847.024 12290.130 12494.860 1283.668 3664.310 14685.367 3491.747 5064.466 3346.550 19681.421 4686.523 8335.006 12383.323 4704.199 5951.466 3052.261 2068.675 2569.938 2153.784 3927.580 4811.947 13537.446 9821.840 1853.309 1185.926 1948.151 2261.158
10162.947 10428.193 20636.994 8942.145 10929.198 9343.903 17507.962 9364.357 9549.955 18416.010 9514.870 10528.094 7330.066 10441.352 11759.698 9837.741 16287.617 12863.667 11155.658 11429.664 9567.497 10248.353 8380.276 11349.104 13623.152 14147.584 8797.284 8452.204 12115.474 10437.367 16763.817 8492.904 11596.718 0.000 19462.637 16263.860 9216.657 13538.990 11075.423 9602.990 10093.420 8495.245 8348.891 11062.012 14753.632 9917.804 7829.473 10108.957 9175.115 16721.660 16557.892 8513.583 12319.685 14605.491 9735.430 10699.074 9014.301 11872.719 16025.665 8530.184 8987.297 14473.329 10440.084 22740.662 17565.387 10032.300 8583.737 8880.749 10264.854 16537.620 7977.423 9944.778 11036.404 9885.683 11431.860 18175.746 18187.600 10317.020 11695.835 21273.196 11464.105 14466.522 12998.546 8458.098 11254.898 8533.779 19043.355 7344.431 8656.314 9637.142 9862.633 11121.546 9704.582 13049.468 14617.357 19870.315 14319.579 9745.840 10561.854 10988.131 9447.085
12814.196 9041.574 1909.154 14630.226 8892.112 14497.154 29207.352 13202.621 13028.785 1736.257 13331.307 11870.110 13937.274 14745.368 10787.751 14256.924 3647.862 9935.486 11896.851 10854.673 14238.618 14915.756 11367.309 12794.369 29186.327 6324.701 27392.263 14298.917 10507.996 13118.418 24653.848 11004.147 14163.024 19462.637 0.000 27556.880 13580.507 29093.598 10426.533 14279.006 14967.826 27416.706 11437.644 13675.416 4786.276 13979.960 15421.247 12734.939 14653.732 25220.408 24615.658 11252.666 10144.603 29407.828 14428.390 14313.095 14662.344 11663.630 6935.627 13931.934 12512.693 29415.096 9274.371 5628.560 24210.674 12708.615 11292.415 11696.166 13101.326 25895.398 25417.941 13047.610 11056.491 13536.459 8034.812 1900.417 1669.839 14296.624 10669.478 2530.471 10908.193 9440.088 10880.284 27417.762 10042.765 10929.059 2475.800 13954.539 11410.518 12596.138 13507.467 11875.095 13643.414 10258.468 9889.641 1704.258 5226.800 14609.846 13800.027 12523.344 14004.508
14935.217 20664.739 27633.342 13365.114 22535.943 13369.434 1650.712 14762.508 14888.514 25887.046 14565.188 15873.656 15027.182 12872.155 16805.298 13485.190 23957.666 17622.722 15716.394 16783.914 13574.761 12727.798 18191.567 14772.173 6324.492 21313.898 20996.740 13926.066 17062.643 14549.220 4378.065 19204.685 13396.233 16263.860 27556.880 0.000 14397.721 6304.237 17358.061 13522.479 12701.547 20089.961 18072.278 13896.007 24370.064 13755.219 13020.936 15035.802 13259.232 3628.764 4222.959 18223.829 17423.409 5124.183 13331.964 13280.060 13305.206 15895.742 20955.115 14299.565 15750.137 5342.597 19619.866 27511.012 5750.322 15086.391 18003.477 16937.321 14602.865 2570.213 22125.307 14741.156 16647.297 14231.477 21380.613 25686.352 25889.713 13347.945 16939.169 28007.362 16719.969 18325.160 16714.723 19967.703 17753.129 19667.942 25744.916 14993.915 17654.041 15345.954 14268.523 15744.310 14167.049 17317.229 17971.950 26907.451 23006.139 13141.605 13820.600 15083.793 13858.355
1025.640 6406.658 14056.491 1058.540 8452.524 1044.646 16031.534 378.861 559.344 12038.859 326.244 1801.646 2044.791 2024.200 3120.339 1146.468 9934.413 4271.691 2152.117 2907.297 920.483 2012.191 4261.741 2132.447 15623.124 7264.176 17969.248 877.262 3490.221 1220.976 12388.755 5369.407 2718.372 9216.657 13580.507 14397.721 0.000 15530.872 3158.036 984.329 1947.456 17574.553 4143.098 1993.308 9989.019 998.691 1980.248 1024.431 1138.514 12766.856 12277.276 4239.082 3816.819 15828.826 1218.633 1948.299 1104.026 2808.504 7927.793 687.910 1428.281 15834.688 5261.022 15052.301 12458.596 993.047 3964.674 2699.687 1049.695 13188.676 17127.055 767.696 2604.591 712.523 7024.298 11813.567 11962.364 1590.896 3158.136 14559.960 2887.921 5717.589 4006.898 17520.925 3538.087 5898.823 12191.456 2017.230 3551.877 986.270 678.002 2137.125 564.870 4264.116 5716.399 13277.745 8693.201 1392.842 1534.159 1810.195 606.214
16369.914 20937.113 29572.323 14495.910 22419.412 14673.392 6324.258 15906.073 16087.943 27569.536 15796.843 17290.682 15314.559 14699.747 18503.574 14986.728 25454.274 19549.469 17400.661 18364.416 14952.206 14487.732 18327.903 16696.373 93.673 22791.602 15905.490 14794.703 18838.252 16152.003 10142.589 19134.724 15635.225 13538.990 29093.598 6304.237 15530.872 0.000 18688.046 14920.732 14396.571 14939.072 18223.900 15846.011 25164.235 15257.860 13675.156 16433.409 14500.786 9502.378 9931.082 18403.404 19196.540 1447.385 14807.294 15167.206 14472.682 17816.298 23191.193 15162.085 16594.656 1218.817 20183.016 30211.319 11565.616 16445.902 18259.754 17528.762 16129.046 8546.966 17544.770 16119.411 18108.897 15658.892 21829.623 27343.702 27488.429 15067.097 18586.282 30056.171 18326.224 20663.216 18885.137 14809.469 19064.102 19488.466 27695.052 15290.916 18014.255 16509.332 15681.535 17410.528 15529.347 19377.794 20443.626 28797.825 24062.707 14641.483 15579.250 16815.718 15152.834
2428.194 4317.721 10914.736 4203.952 6469.709 4079.805 19003.758 2782.026 2603.367 8881.519 2904.889 1484.545 4004.315 4505.642 1135.952 3884.665 6779.157 1880.529 1792.261 857.390 3833.011 4634.525 3466.142 2847.620 18780.366 4106.522 19841.734 3919.423 1312.734 2817.827 14969.293 4308.043 4317.766 11075.423 10426.533 17358.061 3158.036 18688.046 0.000 3877.922 4656.548 19570.631 3405.907 3614.587 7057.217 3610.536 5060.015 2335.047 4230.482 15428.436 14886.131 3351.792 1348.117 18981.346 4046.879 4137.083 4235.894 2062.745 5070.163 3570.805 2306.888 18989.478 3008.773 12118.099 14834.493 2297.028 3104.883 2237.250 2755.289 15957.059 18624.953 2641.431 756.476 3144.248 4573.206 8655.783 8804.641 4018.137 962.445 11431.702 947.546 3466.748 2493.284 19533.234 395.219 4783.695 9061.529 4006.496 2788.991 2179.536 3110.930 1748.352 3233.906 2210.501 3729.405 10133.131 5648.401 4234.463 3570.372 2383.808 3584.552
1465.029 7372.546 14657.863 678.095 9430.997 297.884 15162.802 1290.377 1380.309 12696.227 1058.419 2409.854 2785.669 1081.259 3583.887 239.680 10632.460 4661.710 2490.292 3449.616 64.473 1036.031 5243.692 2013.859 15012.044 7955.149 18271.242 1227.787 3924.996 1254.965 11419.304 6351.101 2020.131 9602.990 14279.006 13522.479 984.329 14920.732 3877.922 0.000 963.524 17829.546 5124.653 1475.935 10847.618 380.331 1875.258 1546.066 499.867 11808.136 11310.960 5222.589 4279.752 15149.786 236.028 1140.590 625.966 2997.004 8337.889 1353.746 2408.666 15166.701 6203.831 15445.765 11475.731 1581.081 4948.786 3681.548 1209.722 12250.085 17566.175 1236.587 3222.688 743.459 7962.777 12476.472 12641.049 745.769 3666.073 15135.709 3407.902 5955.977 4171.378 17769.542 4271.258 6879.627 12776.438 2752.356 4536.205 1834.643 771.539 2496.224 646.741 4555.288 5867.278 13887.107 9502.911 410.442 982.988 1946.839 378.134
2238.985 8315.329 15255.634 1319.461 10385.509 1003.666 14347.539 2238.184 2302.796 13351.326 1990.612 3172.294 3641.071 385.020 4187.152 830.261 11331.526 5167.027 3073.651 4116.288 1027.728 157.083 6207.014 2301.127 14486.597 8661.702 18648.327 2042.750 4492.029 1856.055 10481.526 7314.322 1610.531 10093.420 14967.826 12701.547 1947.456 14396.571 4656.548 963.524 0.000 18163.930 6087.879 1479.455 11689.685 1075.835 2267.357 2345.092 1068.306 10884.890 10377.608 6186.108 4856.165 14549.564 728.882 819.558 1227.741 3421.976 8794.679 2255.992 3368.081 14578.615 7127.967 15846.050 10517.175 2404.602 5912.122 4641.176 1901.322 11352.783 18070.816 2065.098 3951.033 1559.197 8880.478 13137.319 13315.822 677.105 4298.991 15708.323 4060.335 6295.428 4503.405 18098.119 5051.590 7842.542 13364.811 3605.771 5499.036 2744.172 1600.844 3093.621 1537.509 4981.224 6129.164 14494.428 10304.844 561.681 1187.717 2455.327 1341.341
18557.642 18543.080 28756.901 17152.549 18569.009 17549.627 20785.719 17759.707 17953.954 26544.599 17886.001 18987.234 15779.002 18536.810 20240.872 18053.399 24483.242 21353.773 19591.253 19914.463 17803.140 18320.946 16763.432 19693.258 14985.568 22512.128 984.882 16759.415 20600.096 18784.058 22179.754 16711.606 19745.422 8495.245 27416.706 20089.961 17574.553 14939.072 19570.631 17829.546 18163.930 0.000 16745.463 19305.480 22632.567 18173.640 15973.456 18514.432 17363.998 21880.649 21947.950 16899.413 20810.808 16365.167 17927.818 18859.125 17213.308 20302.892 24500.270 16887.823 17463.090 16148.717 18754.262 31098.315 23316.353 18444.120 16998.523 17371.047 18622.270 21336.321 3523.201 18325.176 19521.691 18208.286 19515.140 26308.249 26284.451 18498.840 20182.007 29414.529 19946.429 22954.256 21451.444 131.361 19747.098 16648.022 27271.113 15790.454 17106.007 18078.355 18190.498 19559.925 18023.135 21528.725 23091.868 28013.027 22444.824 17904.904 18810.197 19375.376 17728.471
4289.377 2714.078 12419.342 4966.359 4466.686 5130.297 19668.159 3894.454 3896.382 10213.838 4160.331 3852.855 3053.387 6156.380 4466.908 5286.488 8044.378 5261.272 4555.095 4127.175 5060.328 6155.237 121.652 5405.671 18317.566 5798.996 16920.328 4278.172 4708.295 4811.652 16434.576 1226.449 6604.987 8348.891 11437.644 18072.278 4143.098 18223.900 3405.907 5124.653 6087.879 16745.463 0.000 5805.978 7034.910 5105.200 5056.385 4165.428 5154.574 16766.628 16309.948 186.498 4746.374 18768.673 5360.173 6005.686 5048.471 5144.734 7823.256 3942.729 2757.891 18733.862 2169.035 14391.970 16572.999 4065.203 301.752 1546.614 4637.702 17107.604 15489.855 4290.392 3801.458 4681.742 3624.278 9972.688 10022.259 5693.746 4320.182 13031.955 4202.799 6793.344 5865.982 16721.570 3393.986 1756.158 10748.747 3085.273 675.705 3553.519 4635.344 4502.800 4623.378 5615.635 7107.666 11639.072 6210.849 5528.748 5483.215 4857.378 4747.681
1518.921 7672.804 13880.075 2153.320 9810.284 1759.098 15546.560 2045.714 1967.380 12028.519 1795.196 2221.413 4035.181 1147.382 2912.394 1255.305 10063.033 3777.860 1852.848 2923.070 1503.554 1368.051 5915.720 882.873 15935.511 7419.729 19745.515 2621.787 3168.702 994.643 11357.122 7002.911 799.352 11062.012 13675.416 13896.007 1993.308 15846.011 3614.587 1475.935 1479.455 19305.480 5805.978 0.000 10652.939 1144.211 3343.687 1644.307 1950.775 11826.033 11276.714 5863.243 3531.211 15964.338 1395.768 678.906 2095.339 2023.267 7353.196 2620.611 3086.599 15999.930 6406.353 14378.466 11229.520 1742.788 5575.338 4264.310 1170.210 12382.076 19015.112 1532.601 2861.318 1282.945 8099.945 11820.736 12012.865 876.579 3053.509 14314.496 2851.186 4825.086 3039.439 19245.452 3995.118 7535.731 11985.907 4006.626 5152.114 2253.967 1321.189 1888.530 1433.777 3548.206 4649.967 13127.477 9195.507 1462.373 500.160 1232.642 1621.766
9450.803 4426.278 6278.282 11038.409 4121.524 11005.179 26009.587 9618.142 9484.528 4191.446 9807.256 8528.453 9849.739 11558.894 7814.579 10890.329 2802.944 7387.516 8802.284 7740.583 10795.329 11678.431 6945.583 9835.316 25257.829 3759.347 22606.210 10555.394 7662.480 9871.277 22005.409 6398.863 11309.096 14753.632 4786.276 24370.064 9989.019 25164.235 7057.217 10847.618 11689.685 22632.567 7034.910 10652.939 0.000 10623.586 11600.009 9345.256 11124.136 22478.651 21928.368 6849.071 7347.493 25623.412 11040.168 11194.062 11091.029 8831.439 6142.329 10175.861 8703.174 25605.332 4982.570 9371.794 21806.281 9289.907 6950.535 7651.582 9796.605 23014.221 20651.861 9633.882 7799.010 10143.886 3435.861 3986.243 3861.550 11067.389 7649.141 6958.873 7818.181 7693.938 8474.254 22634.443 6667.492 6251.170 5217.163 9873.581 7160.515 9027.375 10105.749 8765.041 10203.490 7835.363 8222.702 5611.912 1605.319 11230.851 10627.385 9421.329 10513.727
1182.387 7255.909 14330.673 1040.084 9340.796 677.407 15399.025 1212.118 1244.950 12385.237 949.464 2128.544 2966.788 1055.327 3247.528 276.968 10336.009 4306.530 2143.163 3132.175 384.422 1094.967 5222.078 1633.817 15348.922 7660.056 18607.088 1484.279 3580.701 896.308 11550.710 6328.834 1771.532 9917.804 13979.960 13755.219 998.691 15257.860 3610.536 380.331 1075.835 18173.640 5105.200 1144.211 10623.586 0.000 2240.545 1280.585 879.558 11959.176 11448.894 5191.208 3938.705 15468.867 451.840 953.069 997.615 2625.468 7978.814 1527.308 2353.315 15488.961 6057.453 15081.136 11561.976 1333.780 4911.329 3618.987 879.976 12428.197 17871.911 991.258 2928.628 483.428 7807.321 12167.279 12336.592 594.062 3338.494 14802.247 3085.498 5581.493 3794.569 18114.685 4005.593 6860.700 12446.263 2935.629 4492.407 1674.905 525.087 2152.688 484.122 4187.799 5488.301 13562.285 9253.474 629.892 644.062 1580.144 490.656
2975.975 7656.485 15973.862 1200.520 9523.059 1585.194 14624.134 2323.729 2526.873 13920.755 2294.757 3776.641 2045.093 2611.946 5100.575 2088.426 11787.564 6249.791 4107.937 4883.009 1857.960 2421.049 5176.516 3852.706 13768.073 9138.010 16431.288 1142.311 5470.052 2998.795 11520.333 6216.011 3785.933 7829.473 15421.247 13020.936 1980.248 13675.156 5060.015 1875.258 2267.357 15973.456 5056.385 3343.687 11600.009 2240.545 0.000 2994.396 1393.558 11798.839 11379.379 5204.630 5796.838 14047.515 1955.445 2891.886 1249.971 4722.813 9907.889 1493.322 2925.041 14039.749 6682.719 17032.151 11805.002 2971.299 4982.599 3973.844 2882.976 12085.389 15806.676 2708.323 4566.802 2400.290 8420.565 13691.548 13826.359 2525.684 5136.659 16491.197 4866.240 7668.975 5922.659 15911.649 5421.353 6702.157 14121.074 2009.395 4638.679 2896.245 2398.625 4098.013 2220.055 6225.196 7634.630 15191.375 10411.413 1934.802 2856.902 3678.269 1858.511
126.329 6087.690 13138.914 1952.271 8207.530 1765.793 16679.564 758.004 560.566 11159.137 701.370 864.862 2804.397 2245.886 2117.813 1552.034 9087.847 3256.658 1129.504 1936.246 1503.999 2341.378 4274.067 1360.623 16525.127 6410.493 18887.694 1901.071 2481.782 651.142 12778.715 5358.856 2443.478 10108.957 12734.939 15035.802 1024.431 16433.409 2335.047 1546.066 2345.092 18514.432 4165.428 1644.307 9345.256 1280.585 2994.396 0.000 1932.864 13204.290 12683.099 4219.758 2818.368 16685.153 1712.037 1955.840 1966.010 1805.273 6924.165 1665.575 1489.768 16699.176 4851.181 14048.888 12738.940 102.616 3931.651 2621.408 497.455 13691.996 17969.341 314.279 1681.466 809.211 6582.893 10938.052 11099.572 1746.858 2172.543 13627.482 1905.519 4693.506 2995.481 18463.510 2729.449 5891.560 11263.266 2785.047 3508.628 631.664 776.255 1113.070 909.191 3239.711 4700.382 12364.899 7973.504 1900.185 1386.638 893.527 1280.606
1870.520 7516.276 15071.593 253.857 9534.190 202.152 14893.313 1506.002 1648.325 13088.149 1331.805 2793.341 2576.818 1327.332 4021.477 696.422 11005.870 5120.721 2945.516 3864.963 500.414 1194.932 5275.469 2513.376 14592.467 8329.666 17815.225 979.330 4371.364 1731.567 11301.039 6376.465 2421.844 9175.115 14653.732 13259.232 1138.514 14500.786 4230.482 499.867 1068.306 17363.998 5154.574 1950.775 11124.136 879.558 1393.558 1932.864 0.000 11662.166 11183.872 5267.279 4721.108 14757.839 564.578 1524.375 166.309 3480.329 8799.464 1232.506 2530.984 14769.861 6390.918 15914.248 11418.887 1949.205 5003.680 3783.538 1663.258 12065.760 17146.474 1618.722 3611.886 1173.656 8155.025 12866.032 13024.016 1143.351 4092.631 15558.195 3829.399 6441.842 4661.717 17302.797 4619.191 6897.965 13195.009 2541.184 4603.277 2101.949 1190.432 2947.353 1030.364 5031.283 6361.359 14297.755 9814.840 582.349 1468.301 2426.641 652.388
13089.274 19173.230 25101.981 11824.283 21191.676 11724.915 4890.131 13097.610 13181.932 23508.966 12863.847 13976.978 13840.064 10959.454 14699.674 11712.722 21712.932 15354.537 13677.982 14744.561 11868.206 10869.370 16888.279 12656.070 9542.035 19149.635 22720.578 12489.993 14901.865 12633.340 762.191 17967.430 11194.906 16721.660 25220.408 3628.764 12766.856 9502.378 15428.436 11808.136 10884.890 21880.649 16766.628 11826.033 22478.651 11959.176 11798.839 13204.290 11662.166 0.000 664.450 16894.413 15247.122 8522.554 11588.612 11295.937 11748.092 13714.682 18414.171 12835.247 14188.286 8718.217 18010.151 24636.150 2130.327 13273.348 16642.276 15445.664 12727.523 1059.188 23463.838 12941.585 14681.348 12441.433 19765.128 23324.469 23552.852 11457.939 14855.064 25418.931 14669.641 15812.828 14355.570 21767.008 15814.699 18470.946 23239.437 13803.814 16252.873 13628.075 12484.034 13714.431 12420.203 14990.352 15403.318 24410.684 21013.048 11400.875 11868.454 13057.324 12176.627
12566.475 18682.687 24477.925 11353.755 20718.053 11238.900 5536.368 12601.336 12679.083 22901.020 12363.224 13443.640 13413.779 10437.235 14135.904 11207.284 21120.978 14768.785 13126.108 14189.393 11371.878 10355.839 16431.559 12097.136 9975.093 18570.050 22772.267 12031.883 14330.482 12102.400 234.675 17517.341 10630.097 16557.892 24615.658 4222.959 12277.276 9931.082 14886.131 11310.960 10377.608 21947.950 16309.948 11276.714 21928.368 11448.894 11379.379 12683.099 11183.872 664.450 0.000 16433.746 14672.971 9008.163 11088.273 10761.368 11275.491 13143.780 17793.799 12370.815 13702.649 9196.495 17505.523 23984.850 1634.631 12754.541 16177.657 14965.666 12202.004 1677.967 23438.263 12426.130 14136.222 11929.649 19255.865 22718.353 22949.214 10936.331 14293.700 24789.518 14113.221 15198.408 13760.943 21836.353 15270.189 18025.487 22618.865 13377.244 15783.563 13121.663 11972.868 13163.598 11914.929 14398.269 14783.554 23790.270 20451.859 10902.029 11335.711 12509.198 11682.387
4344.621 2536.698 12239.413 5084.023 4321.609 5237.191 19822.070 3979.161 3972.117 10032.816 4243.609 3870.859 3213.116 6244.668 4430.569 5378.951 7864.612 5192.683 4564.548 4094.761 5158.429 6249.772 136.867 5437.819 18497.072 5634.260 17067.990 4404.421 4660.271 4868.634 16556.672 1142.058 6662.595 8513.583 11252.666 18223.829 4239.082 18403.404 3351.792 5222.589 6186.108 16899.413 186.498 5863.243 6849.071 5191.208 5204.630 4219.758 5267.279 16894.413 16433.746 0.000 4684.570 18944.057 5457.538 6081.889 5164.872 5137.890 7689.565 4063.209 2838.784 18910.028 1986.297 14228.795 16682.572 4120.574 288.714 1599.177 4697.921 17243.166 15619.346 4356.566 3779.714 4760.076 3440.459 9791.641 9839.916 5777.010 4279.266 12853.239 4172.503 6710.246 5826.307 16876.325 3319.366 1675.638 10573.210 3244.399 711.141 3615.651 4713.627 4512.009 4708.068 5557.279 7034.911 11459.618 6025.872 5628.625 5552.447 4888.451 4844.864
2860.077 5340.855 10402.490 4764.990 7443.724 4538.294 19074.108 3480.597 3273.667 8505.088 3507.419 2027.973 5103.667 4610.652 701.086 4210.521 6534.323 546.706 1796.850 938.105 4251.557 4791.556 4802.359 2651.660 19287.617 3909.792 21105.106 4672.783 364.725 3045.700 14736.125 5595.948 4062.897 12319.685 10144.603 17423.409 3816.819 19196.540 1348.117 4279.752 4856.165 20810.808 4746.374 3531.211 7347.493 3938.705 5796.838 2818.368 4721.108 15247.122 14672.971 4684.570 0.000 19395.066 4389.551 4171.061 4772.084 1537.003 4111.062 4376.399 3380.290 19419.094 4061.151 11235.498 14475.438 2830.008 4444.773 3560.530 3070.032 15852.503 19937.548 3123.385 1313.243 3549.407 5397.151 8294.743 8483.229 4179.496 669.468 10865.706 937.667 2153.299 1303.098 20770.099 1390.504 6049.667 8514.050 5099.396 4136.505 2957.045 3530.819 1786.018 3692.967 876.859 2383.967 9639.125 5810.442 4557.839 3673.493 2401.080 4077.479
16612.478 21480.302 29796.828 14777.624 23054.202 14919.452 4952.224 16207.217 16379.231 27844.263 16076.792 17548.991 15794.690 14827.908 18712.123 15193.620 25760.478 19716.256 17600.049 18598.136 15186.453 14627.602 18876.960 16832.324 1419.179 23085.996 17328.446 15139.690 19032.672 16353.696 9206.467 19734.814 15683.912 14605.491 29407.828 5124.183 15828.826 1447.385 18981.346 15149.786 14549.564 16365.167 18768.673 15964.338 25623.412 15468.867 14047.515 16685.153 14757.839 8522.554 9008.163 18944.057 19395.066 0.000 15017.112 15289.532 14745.804 17966.695 23314.584 15514.325 16971.227 238.834 20658.184 30257.947 10631.165 16706.350 18782.666 17971.830 16347.707 7518.341 18921.419 16371.186 18366.615 15892.981 22341.975 27623.092 27781.748 15226.064 18807.284 30257.101 18553.722 20744.374 18989.331 16235.919 19365.405 20114.453 27909.107 15768.619 18512.433 16814.372 15919.196 17614.124 15776.104 19512.184 20491.527 29030.404 24458.559 14842.942 15737.274 16997.051 15408.931
1620.934 7597.299 14782.500 794.078 9660.536 394.071 14974.033 1515.397 1593.849 12835.925 1275.330 2569.043 2999.150 855.852 3699.094 180.789 10783.676 4752.590 2593.368 3583.144 300.501 800.317 5479.135 2024.366 14898.308 8107.186 18379.801 1422.607 4030.967 1344.968 11195.206 6586.613 1864.721 9735.430 14428.390 13331.964 1218.633 14807.294 4046.879 236.028 728.882 17927.818 5360.173 1395.768 11040.168 451.840 1955.445 1712.037 564.578 11588.612 11088.273 5457.538 4389.551 15017.112 0.000 970.070 721.561 3057.793 8421.624 1575.854 2640.252 15037.124 6421.674 15518.498 11244.107 1756.417 5183.305 3913.358 1331.054 12038.259 17704.792 1410.588 3374.299 902.994 8178.687 12617.686 12786.151 581.765 3790.307 15253.707 3536.998 6005.273 4213.356 17866.412 4441.431 7115.294 12897.993 2965.276 4770.160 2044.025 938.013 2603.627 839.926 4624.018 5896.173 14014.120 9683.227 190.912 928.294 2020.978 612.685
1832.778 8042.624 14543.255 1762.824 10156.790 1364.129 14929.836 2121.666 2109.902 12675.599 1854.179 2682.276 3904.789 469.022 3529.963 902.155 10691.123 4440.519 2436.571 3506.196 1191.071 695.513 6120.479 1544.944 15256.728 8036.136 19322.800 2367.978 3806.746 1343.655 10850.621 7223.290 897.649 10699.074 14313.095 13280.060 1948.299 15167.206 4137.083 1140.590 819.558 18859.125 6005.686 678.906 11194.062 953.069 2891.886 1955.840 1524.375 11295.937 10761.368 6081.889 4171.061 15289.532 970.070 0.000 1686.723 2684.994 8030.430 2463.611 3248.138 15324.075 6805.669 15056.794 10785.285 2039.566 5798.109 4492.037 1460.519 11820.904 18670.850 1746.066 3397.944 1324.745 8530.624 12465.758 12653.512 394.882 3659.774 14982.517 3440.644 5503.294 3718.345 18795.989 4526.743 7756.571 12649.703 3872.642 5375.884 2488.533 1371.024 2465.395 1404.025 4222.781 5321.867 13788.146 9763.579 957.317 575.882 1803.901 1423.056
1913.145 7439.588 15100.876 92.636 9444.200 336.438 14936.521 1480.201 1637.968 13105.855 1331.037 2818.291 2425.447 1493.279 4071.278 840.508 11014.776 5183.289 3009.459 3902.217 613.193 1357.471 5169.665 2626.551 14564.574 8340.336 17661.204 832.574 4426.118 1817.001 11395.134 6267.695 2583.705 9014.301 14662.344 13305.206 1104.026 14472.682 4235.894 625.966 1227.741 17213.308 5048.471 2095.339 11091.029 997.615 1249.971 1966.010 166.309 11748.092 11275.491 5164.872 4772.084 14745.804 721.561 1686.723 0.000 3565.754 8861.749 1111.241 2460.373 14755.145 6329.154 15980.860 11529.290 1973.816 4904.426 3700.473 1733.672 12139.659 16984.613 1654.020 3636.261 1239.798 8093.332 12882.557 13037.114 1302.775 4135.692 15592.545 3870.158 6527.506 4753.962 17152.584 4621.643 6786.958 13227.447 2389.533 4508.106 2084.516 1250.960 3008.566 1081.515 5107.773 6458.314 14325.413 9796.519 748.503 1606.942 2511.216 695.756
1784.123 6379.610 11858.653 3580.320 8532.410 3282.777 17546.427 2562.556 2360.333 10009.000 2482.673 1410.852 4543.379 3140.780 1029.432 2877.517 8065.097 1755.680 719.221 1209.874 2983.444 3339.238 5230.015 1141.419 17906.517 5446.782 20662.725 3681.614 1187.196 1749.470 13209.643 6199.528 2526.043 11872.719 11663.630 15895.742 2808.504 17816.298 2062.745 2997.004 3421.976 20302.892 5144.734 2023.267 8831.439 2625.468 4722.813 1805.273 3480.329 13714.682 13143.780 5137.890 1537.003 17966.695 3057.793 2684.994 3565.754 0.000 5378.344 3469.086 2969.103 17998.045 5070.745 12461.670 12975.038 1866.265 4860.475 3685.124 1842.435 14315.751 19683.645 2041.738 1396.569 2333.320 6611.714 9802.751 9998.637 2749.290 1207.798 12298.176 1119.683 2961.973 1201.331 20253.476 2363.052 6705.218 9964.897 4528.444 4473.887 2236.984 2329.623 757.428 2507.257 1568.410 2913.875 11104.795 7318.459 3204.779 2237.061 1054.568 2883.660
6958.722 6931.477 6694.449 8860.204 8444.345 8609.948 22597.230 7590.265 7383.996 5199.373 7617.134 6135.930 9073.592 8495.717 4808.320 8240.837 3906.697 3678.862 5854.039 5033.011 8316.046 8704.442 7826.103 6495.147 23281.166 2775.422 24715.379 8782.424 4442.454 7084.339 17818.517 8184.139 7662.549 16025.665 6935.627 20955.115 7927.793 23191.193 5070.163 8337.889 8794.679 24500.270 7823.256 7353.196 6142.329 7978.814 9907.889 6924.165 8799.464 18414.171 17793.799 7689.565 4111.062 23314.584 8421.624 8030.430 8861.749 5378.344 0.000 8479.164 7363.752 23352.172 6111.529 7124.974 17313.491 6939.501 7548.812 7159.662 7136.511 19141.913 23307.974 7224.686 5375.794 7626.428 6353.527 5047.992 5316.405 8125.514 4773.724 7052.304 5044.155 2629.990 4327.223 24469.665 4819.226 8459.939 4825.278 9075.094 7402.660 7052.554 7612.112 5853.418 7780.255 3813.542 3010.923 5996.590 4655.870 8576.186 7613.876 6400.647 8166.041
1687.727 6385.597 14482.347 1026.132 8358.735 1253.000 15921.153 916.827 1125.974 12427.517 999.670 2349.248 1441.368 2431.587 3692.179 1576.784 10296.037 4856.287 2791.091 3446.503 1293.928 2358.246 4064.146 2819.330 15254.884 7644.756 17281.353 379.558 4067.395 1907.318 12493.474 5159.243 3297.992 8530.184 13931.934 14299.565 687.910 15162.085 3570.805 1353.746 2255.992 16887.823 3942.729 2620.611 10175.861 1527.308 1493.322 1665.575 1232.506 12835.247 12370.815 4063.209 4376.399 15514.325 1575.854 2463.611 1111.241 3469.086 8479.164 0.000 1472.718 15510.900 5322.665 15595.721 12639.881 1614.306 3807.459 2643.507 1737.598 13205.173 16446.597 1442.084 3109.803 1368.724 7081.401 12198.427 12334.108 2076.783 3708.619 15002.400 3438.995 6342.893 4661.033 16834.493 3929.071 5677.090 12632.228 1409.548 3418.803 1428.977 1341.105 2770.780 1196.366 4883.471 6364.441 13699.426 8948.542 1703.875 2136.827 2491.381 1041.723
1603.607 4986.105 13128.847 2393.309 7024.243 2463.978 17376.242 1141.347 1140.770 11040.175 1404.901 1567.397 1725.162 3407.907 2779.165 2549.374 8890.213 3912.830 2258.037 2459.880 2345.563 3422.303 2873.282 2833.586 16687.708 6265.365 17784.139 1852.272 3142.940 2104.593 13815.391 3978.206 3879.751 8987.297 12512.693 15750.137 1428.281 16594.656 2306.888 2408.666 3368.081 17463.090 2757.891 3086.599 8703.174 2353.315 2925.041 1489.768 2530.984 14188.286 13702.649 2838.784 3380.290 16971.227 2640.252 3248.138 2460.373 2969.103 7363.752 1472.718 0.000 16964.475 3871.965 14424.973 13884.252 1387.321 2558.103 1273.120 1919.463 14596.534 16732.120 1554.576 2070.739 1923.879 5635.456 10808.099 10932.348 2938.230 2730.434 13667.323 2486.503 5499.530 4028.074 17419.395 2616.373 4510.909 11300.015 1722.525 2139.211 858.892 1877.493 2215.089 1869.688 4065.663 5630.558 12342.708 7487.360 2818.728 2733.345 2319.006 2031.363
16627.987 21446.661 29819.131 14785.555 23004.872 14933.404 5189.954 16212.755 16386.508 27857.878 16085.798 17562.344 15769.689 14861.207 18734.227 15214.226 25768.414 19745.625 17623.182 18616.030 15202.531 14658.854 18841.444 16865.501 1186.458 23095.274 17113.232 15137.259 19057.236 16375.829 9396.760 19690.675 15730.649 14473.329 29415.096 5342.597 15834.688 1218.817 18989.478 15166.701 14578.615 16148.717 18733.862 15999.930 25605.332 15488.961 14039.749 16699.176 14769.861 8718.217 9196.495 18910.028 19419.094 238.834 15037.124 15324.075 14755.145 17998.045 23352.172 15510.900 16964.475 0.000 20636.072 30309.374 10822.180 16718.937 18751.655 17954.230 16367.035 7719.656 18720.945 16385.039 18380.428 15909.504 22313.933 27635.888 27792.243 15254.574 18827.369 30283.375 18572.628 20788.070 19028.651 16019.326 19372.346 20065.873 27932.816 15744.021 18485.593 16819.575 15935.143 17636.569 15790.460 19546.783 20540.516 29051.242 24451.058 14864.221 15766.245 17022.869 15421.521
4973.225 1308.950 10257.087 6264.164 3463.133 6305.312 21243.401 4917.360 4828.224 8048.024 5146.692 4189.619 4869.986 7083.690 4117.292 6298.612 5883.478 4446.672 4718.568 3865.545 6144.564 7151.825 2107.449 5751.537 20276.629 3769.950 18881.399 5698.674 4193.640 5471.326 17608.155 2098.357 7171.273 10440.084 9274.371 19619.866 5261.022 20183.016 3008.773 6203.831 7127.967 18754.262 2169.035 6406.353 4982.570 6057.453 6682.719 4851.181 6390.918 18010.151 17505.523 1986.297 4061.151 20658.184 6421.674 6805.669 6329.154 5070.745 6111.529 5322.665 3871.965 20636.072 0.000 12344.056 17590.120 4771.534 2019.677 2708.876 5345.166 18448.732 17306.456 5088.815 3708.872 5578.307 1764.247 7806.814 7853.631 6585.911 3934.063 10874.768 3955.850 5712.712 5355.849 18736.305 2749.161 2349.217 8609.868 4894.550 2183.075 4383.861 5534.540 4668.830 5590.918 4898.997 6138.514 9478.810 4049.177 6609.816 6232.731 5232.119 5839.191
14082.168 12664.017 3738.759 15981.349 13294.751 15722.437 29123.374 14712.593 14507.011 5240.188 14742.092 13257.906 16105.744 15525.701 11933.273 15337.943 6834.169 10798.584 12971.423 12152.951 15426.477 15744.611 14362.923 13548.929 30299.995 8595.325 31215.107 15904.331 11567.106 14190.800 23969.125 14399.705 14583.158 22740.662 5628.560 27511.012 15052.301 30211.319 12118.099 15445.765 15846.050 31098.315 14391.970 14378.466 9371.794 15081.136 17032.151 14048.888 15914.248 24636.150 23984.850 14228.795 11235.498 30257.947 15518.498 15056.794 15980.860 12461.670 7124.974 15595.721 14424.973 30309.374 12344.056 0.000 23225.755 14064.463 14158.890 14052.568 14251.198 25474.309 29534.814 14348.542 12486.783 14743.062 11761.854 5416.772 5601.366 15188.186 11896.200 3231.885 12166.692 9553.520 11342.657 31080.218 11823.569 14511.649 4154.632 16110.725 14114.100 14167.138 14730.128 12972.663 14899.871 10894.481 9771.212 4038.569 8913.568 15666.298 14680.694 13501.035 15285.564
12617.030 18813.945 23950.588 11613.750 20901.146 11445.596 6920.522 12754.490 12806.692 22481.561 12502.606 13442.150 13796.926 10516.961 13992.925 11342.169 20798.312 14511.107 13046.975 14085.977 11539.030 10471.441 16693.722 11996.243 11609.441 18322.431 24118.716 12326.079 14149.235 12124.566 1425.979 17795.341 10520.004 17565.387 24210.674 5750.322 12458.596 11565.616 14834.493 11475.731 10517.175 23316.353 16572.999 11229.520 21806.281 11561.976 11805.002 12738.940 11418.887 2130.327 1634.631 16682.572 14475.438 10631.165 11244.107 10785.285 11529.290 12975.038 17313.491 12639.881 13884.252 10822.180 17590.120 23225.755 0.000 12819.214 16414.619 15157.259 12245.429 3182.235 24670.323 12507.558 14078.153 12031.055 19313.959 22310.358 22555.152 11011.318 14160.792 24223.182 14004.698 14771.396 13462.815 23207.582 15206.179 18316.050 22120.053 13759.834 16006.935 13231.246 12076.184 13088.790 12041.678 14109.219 14323.941 23289.418 20285.593 11066.020 11359.555 12452.999 11853.429
224.181 6003.072 13127.131 1955.312 8119.697 1788.551 16729.273 699.294 494.286 11138.986 677.635 844.838 2720.864 2318.006 2131.192 1601.303 9060.986 3278.939 1176.985 1934.743 1536.025 2406.286 4174.139 1459.702 16537.735 6383.927 18813.815 1865.195 2499.049 748.490 12851.382 5260.127 2542.118 10032.300 12708.615 15086.391 993.047 16445.902 2297.028 1581.081 2404.602 18444.120 4065.203 1742.788 9289.907 1333.780 2971.299 102.616 1949.205 13273.348 12754.541 4120.574 2830.008 16706.350 1756.417 2039.566 1973.816 1866.265 6939.501 1614.306 1387.321 16718.937 4771.534 14064.463 12819.214 0.000 3832.596 2521.870 587.325 13755.587 17886.090 345.881 1663.359 854.917 6507.149 10917.031 11076.134 1818.916 2177.456 13619.323 1908.597 4733.254 3049.826 18393.691 2690.184 5792.979 11253.801 2702.212 3409.434 529.067 818.453 1156.576 937.170 3276.391 4750.468 12351.949 7926.851 1945.958 1473.632 983.119 1297.453
4056.602 2705.578 12238.788 4824.742 4559.093 4969.201 19605.766 3699.228 3688.740 10039.587 3962.934 3584.921 3016.739 5965.516 4169.840 5102.074 7864.592 4959.526 4280.983 3831.279 4884.752 5973.706 369.967 5149.730 18353.426 5572.298 17182.357 4154.106 4408.400 4580.772 16298.970 1428.393 6374.688 8583.737 11292.415 18003.477 3964.674 18259.754 3104.883 4948.786 5912.122 16998.523 301.752 5575.338 6950.535 4911.329 4982.599 3931.651 5003.680 16642.276 16177.657 288.714 4444.773 18782.666 5183.305 5798.109 4904.426 4860.475 7548.812 3807.459 2558.103 18751.655 2019.677 14158.890 16414.619 3832.596 0.000 1311.823 4410.547 16999.752 15770.899 4070.404 3509.540 4477.309 3570.078 9798.659 9855.913 5495.820 4021.820 12845.588 3907.645 6492.790 5568.145 16973.364 3092.647 1961.851 10550.235 3046.597 423.539 3328.827 4430.856 4228.508 4427.790 5314.331 6806.019 11456.416 6068.490 5355.815 5266.786 4600.446 4570.799
2745.994 3743.432 12460.086 3627.314 5754.938 3728.386 18555.013 2409.938 2385.638 10311.286 2669.598 2337.286 2242.924 4674.312 3142.200 3821.237 8133.663 4103.852 3053.913 2792.238 3618.325 4694.228 1653.336 3864.673 17622.239 5616.735 17624.131 3012.864 3440.200 3269.669 15080.564 2740.197 5063.648 8880.749 11696.166 16937.321 2699.687 17528.762 2237.250 3681.548 4641.176 17371.047 1546.614 4264.310 7651.582 3618.987 3973.844 2621.408 3783.538 15445.664 14965.666 1599.177 3560.530 17971.830 3913.358 4492.037 3700.473 3685.124 7159.662 2643.507 1273.120 17954.230 2708.876 14052.568 15157.259 2521.870 1311.823 0.000 3098.780 15838.188 16387.735 2759.477 2424.516 3175.203 4452.754 10073.850 10169.629 4197.945 3024.144 13031.728 2854.920 5701.132 4530.894 17336.507 2377.313 3273.593 10685.006 2261.582 888.298 2017.161 3128.792 3002.592 3134.878 4385.458 5940.693 11671.903 6552.252 4091.435 3956.519 3317.981 3303.998
372.790 6584.679 13453.638 1742.291 8704.955 1473.782 16248.814 952.912 827.626 11505.262 754.525 1271.432 3037.271 1769.153 2374.659 1156.585 9458.224 3458.041 1283.324 2252.215 1182.632 1882.121 4748.165 1086.110 16220.278 6783.045 19018.866 1882.444 2715.597 193.027 12295.515 5838.814 1967.941 10264.854 13101.326 14602.865 1049.695 16129.046 2755.289 1209.722 1901.322 18622.270 4637.702 1170.210 9796.605 879.976 2882.976 497.455 1663.258 12727.523 12202.004 4697.921 3070.032 16347.707 1331.054 1460.519 1733.672 1842.435 7136.511 1737.598 1919.463 16367.035 5345.166 14251.198 12245.429 587.325 4410.547 3098.780 0.000 13226.498 18167.269 376.646 2055.733 494.077 7072.556 11287.347 11457.069 1272.837 2460.645 13928.247 2206.071 4799.772 3040.333 18568.192 3150.290 6372.065 11570.468 3013.343 3987.056 1084.387 487.415 1287.382 664.823 3374.270 4751.813 12684.396 8403.670 1509.255 889.464 795.753 1043.679
13580.927 19579.229 25836.061 12211.263 21558.476 12144.050 3864.657 13532.141 13630.076 24194.497 13308.490 14489.134 14130.174 11458.942 15280.794 12172.547 22355.034 15989.235 14233.570 15304.968 12308.094 11350.628 17229.020 13231.501 8582.321 19762.050 22196.878 12848.752 15501.139 13144.681 1814.725 18292.117 11789.711 16537.620 25895.398 2570.213 13188.676 8546.966 15957.059 12250.085 11352.783 21336.321 17107.604 12382.076 23014.221 12428.197 12085.389 13691.996 12065.760 1059.188 1677.967 17243.166 15852.503 7518.341 12038.259 11820.904 12139.659 14315.751 19141.913 13205.173 14596.534 7719.656 18448.732 25474.309 3182.235 13755.587 16999.752 15838.188 13226.498 0.000 23050.653 13417.735 15218.404 12911.614 20210.583 24004.812 24225.867 11953.674 15429.993 26170.672 15233.209 16525.905 15015.752 21220.006 16347.505 18785.172 23963.533 14094.623 16621.012 14082.217 12952.712 14267.480 12876.538 15642.416 16133.154 25133.493 21576.800 11848.314 12386.849 13606.148 12610.729
18034.293 16870.905 26897.914 16910.815 16531.088 17312.145 23010.290 17242.622 17417.477 24722.070 17413.004 18298.145 15165.258 18418.413 19445.143 17802.487 22764.943 20483.610 18964.781 19101.732 17528.663 18225.774 15483.025 19253.206 17602.600 21063.659 2777.091 16395.835 19779.863 18345.986 23662.676 15209.936 19568.235 7977.423 25417.941 22125.307 17127.055 17544.770 18624.953 17566.175 18070.816 3523.201 15489.855 19015.112 20651.861 17871.911 15806.676 17969.341 17146.474 23463.838 23438.263 15619.346 19937.548 18921.419 17704.792 18670.850 16984.613 19683.645 23307.974 16446.597 16732.120 18720.945 17306.456 29534.814 24670.323 17886.090 15770.899 16387.735 18167.269 23050.653 0.000 17831.499 18711.093 17812.513 17784.020 24493.076 24432.823 18286.556 19356.892 27571.197 19147.998 22086.453 20756.746 3628.527 18736.452 15042.670 25552.946 15184.304 15958.395 17453.593 17786.754 18926.349 17634.711 20728.476 22299.666 26186.983 20685.899 17719.564 18515.486 18859.711 17394.906
267.872 6307.742 13452.923 1642.621 8413.682 1451.741 16383.839 592.130 451.481 11473.156 443.704 1178.122 2683.208 1994.877 2422.329 1256.534 9400.310 3552.068 1399.885 2248.590 1192.779 2072.273 4402.461 1430.290 16211.113 6723.003 18710.915 1640.140 2782.767 569.304 12524.849 5498.520 2325.291 9944.778 13047.610 14741.156 767.696 16119.411 2641.431 1236.587 2065.098 18325.176 4290.392 1532.601 9633.882 991.258 2708.323 314.279 1618.722 12941.585 12426.130 4356.566 3123.385 16371.186 1410.588 1746.066 1654.020 2041.738 7224.686 1442.084 1554.576 16385.039 5088.815 14348.542 12507.558 345.881 4070.404 2759.477 376.646 13417.735 17831.499 0.000 1995.458 510.013 6831.136 11251.950 11413.013 1497.381 2482.123 13940.839 2216.177 4964.378 3241.331 18272.611 3035.010 6032.086 11576.920 2660.610 3647.000 744.645 472.739 1389.766 595.815 3517.109 4952.175 12679.039 8272.722 1600.242 1197.628 1050.368 966.586
1757.730 5014.402 11464.999 3614.933 7170.996 3447.196 18294.703 2244.830 2046.644 9477.699 2318.312 818.606 3791.823 3779.896 734.317 3205.305 7410.446 1842.113 1037.403 393.442 3183.072 3919.593 3879.291 2092.672 18200.766 4733.419 19828.934 3428.337 1079.111 2098.144 14217.967 4817.304 3561.384 11036.404 11056.491 16647.297 2604.591 18108.897 756.476 3222.688 3951.033 19521.691 3801.458 2861.318 7799.010 2928.628 4566.802 1681.466 3611.886 14681.348 14136.222 3779.714 1313.243 18366.615 3374.299 3397.944 3636.261 1396.569 5375.794 3109.803 2070.739 18380.428 3708.872 12486.783 14078.153 1663.359 3509.540 2424.516 2055.733 15218.404 18711.093 1995.458 0.000 2479.969 5314.944 9256.598 9418.851 3299.421 660.759 11960.772 437.927 3433.160 2106.534 19479.456 1134.010 5317.441 9593.869 3787.089 3141.813 1680.828 2451.198 992.611 2590.593 2020.488 3593.316 10689.175 6368.874 3557.911 2837.087 1629.249 2959.629
722.336 6783.551 13916.985 1248.501 8876.412 988.923 15874.384 801.168 789.571 11952.778 535.312 1669.331 2757.266 1514.587 2850.844 746.542 9890.263 3947.574 1772.416 2707.713 707.368 1573.910 4796.912 1488.251 15750.323 7213.066 18618.379 1448.921 3198.305 599.432 12030.472 5900.824 2026.387 9885.683 13536.459 14231.477 712.523 15658.892 3144.248 743.459 1559.197 18208.286 4681.742 1282.945 10143.886 483.428 2400.290 809.211 1173.656 12441.433 11929.649 4760.076 3549.407 15892.981 902.994 1324.745 1239.798 2333.320 7626.428 1368.724 1923.879 15909.504 5578.307 14743.062 12031.055 854.917 4477.309 3175.203 494.077 12911.614 17812.513 510.013 2479.969 0.000 7326.222 11733.017 11897.819 1026.012 2927.605 14397.317 2667.537 5292.678 3528.536 18152.467 3538.654 6433.872 12036.734 2729.577 4055.918 1200.284 46.453 1773.732 186.187 3868.335 5238.433 13145.551 8780.806 1091.728 841.924 1281.467 550.437
6702.761 1007.586 9248.213 8028.121 2165.187 8068.280 23002.388 6678.453 6584.845 7031.449 6904.750 5878.932 6550.313 8824.396 5606.013 8052.426 4988.679 5674.645 6348.251 5405.649 7904.005 8900.036 3528.807 7398.693 21923.294 3631.757 19559.861 7456.105 5604.452 7189.555 19355.839 2980.909 8847.024 11431.860 8034.812 21380.613 7024.298 21829.623 4573.206 7962.777 8880.478 19515.140 3624.278 8099.945 3435.861 7807.321 8420.565 6582.893 8155.025 19765.128 19255.865 3440.459 5397.151 22341.975 8178.687 8530.624 8093.332 6611.714 6353.527 7081.401 5635.456 22313.933 1764.247 11761.854 19313.959 6507.149 3570.078 4452.754 7072.556 20210.583 17784.020 6831.136 5314.944 7326.222 0.000 6794.261 6780.620 8325.576 5421.272 9901.392 5495.038 6657.138 6693.166 19508.049 4248.883 2900.471 7781.703 6577.397 3830.390 6137.109 7283.064 6301.061 7345.039 6150.879 7143.489 8498.822 2929.983 8367.475 7955.459 6899.077 7600.001
11012.128 7777.060 2461.292 12854.730 8029.475 12703.662 27336.358 11437.808 11257.555 241.227 11553.235 10074.101 12300.034 12903.923 8950.681 12443.926 1942.630 8064.403 10063.669 9035.557 12438.408 13079.977 9914.145 10938.282 27436.052 4554.161 26341.144 12559.129 8659.195 11295.698 22755.569 9683.202 12290.130 18175.746 1900.417 25686.352 11813.567 27343.702 8655.783 12476.472 13137.319 26308.249 9972.688 11820.736 3986.243 12167.279 13691.548 10938.052 12866.032 23324.469 22718.353 9791.641 8294.743 27623.092 12617.686 12465.758 12882.557 9802.751 5047.992 12198.427 10808.099 27635.888 7806.814 5416.772 22310.358 10917.031 9798.659 10073.850 11287.347 24004.812 24493.076 11251.950 9256.598 11733.017 6794.261 0.000 310.199 12463.280 8839.850 3107.249 9085.016 7539.672 8992.834 26301.769 8280.201 9680.412 1305.802 12314.833 9872.039 10834.407 11705.793 10044.157 11847.190 8375.765 7990.184 1704.782 3867.749 12796.479 11962.297 10685.699 12214.481
11176.070 7772.002 2473.568 13007.454 7940.894 12864.173 27540.081 11585.579 11407.932 369.524 11706.630 10234.897 12402.235 13088.345 9131.819 12613.458 2042.824 8267.397 10242.967 9207.120 12601.901 13261.290 9960.466 11131.187 27580.931 4698.189 26305.792 12697.362 8847.125 11469.794 22988.518 9695.546 12494.860 18187.600 1669.839 25889.713 11962.364 27488.429 8804.641 12641.049 13315.822 26284.451 10022.259 12012.865 3861.550 12336.592 13826.359 11099.572 13024.016 23552.852 22949.214 9839.916 8483.229 27781.748 12786.151 12653.512 13037.114 9998.637 5316.405 12334.108 10932.348 27792.243 7853.631 5601.366 22555.152 11076.134 9855.913 10169.629 11457.069 24225.867 24432.823 11413.013 9418.851 11897.819 6780.620 310.199 0.000 12643.177 9016.853 3140.003 9258.690 7783.922 9210.551 26279.515 8425.316 9675.670 1550.832 12417.838 9942.090 10980.652 11869.763 10222.235 12008.695 8588.676 8240.891 1758.441 3868.096 12966.268 12144.496 10867.602 12373.309
1631.349 7802.794 14578.535 1375.791 9900.978 974.963 14995.562 1799.318 1813.841 12676.754 1533.630 2539.109 3516.840 499.144 3512.615 507.787 10662.658 4491.167 2400.210 3449.825 796.888 621.639 5810.100 1639.329 15157.286 7995.388 18955.455 1973.358 3815.255 1201.789 11032.554 6916.070 1283.668 10317.020 14296.624 13347.945 1590.896 15067.097 4018.137 745.769 677.105 18498.840 5693.746 876.579 11067.389 594.062 2525.684 1746.858 1143.351 11457.939 10936.331 5777.010 4179.496 15226.064 581.765 394.882 1302.775 2749.290 8125.514 2076.783 2938.230 15254.574 6585.911 15188.186 11011.318 1818.916 5495.820 4197.945 1272.837 11953.674 18286.556 1497.381 3299.421 1026.012 8325.576 12463.280 12643.177 0.000 3627.148 15031.512 3391.748 5643.264 3848.284 18436.712 4412.107 7448.440 12687.713 3484.332 5075.627 2222.386 1072.066 2421.539 1070.711 4312.155 5495.035 13817.437 9664.358 599.477 512.340 1779.092 1040.326
2223.264 5239.970 10993.009 4124.419 7381.821 3914.850 18589.156 2816.637 2610.811 9055.231 2853.051 1362.214 4449.334 4080.388 185.075 3613.682 7037.245 1184.017 1228.093 271.779 3634.077 4246.583 4388.126 2199.867 18677.668 4376.621 20487.394 4008.729 423.044 2457.266 14365.442 5262.574 3664.310 11695.835 10669.478 16939.169 3158.136 18586.282 962.445 3666.073 4298.991 20182.007 4320.182 3053.509 7649.141 3338.494 5136.659 2172.543 4092.631 14855.064 14293.700 4279.266 669.468 18807.284 3790.307 3659.774 4135.692 1207.798 4773.724 3708.619 2730.434 18827.369 3934.063 11896.200 14160.792 2177.456 4021.820 3024.144 2460.645 15429.993 19356.892 2482.123 660.759 2927.605 5421.272 8839.850 9016.853 3627.148 0.000 11469.896 270.494 2772.520 1547.053 20139.911 1188.142 5742.994 9110.456 4443.986 3679.920 2287.739 2905.839 1205.623 3062.289 1371.987 2942.983 10223.897 6158.400 3964.732 3132.534 1858.186 3444.109
13687.872 10883.865 682.419 15574.295 11065.798 15383.471 29649.124 14191.955 14000.621 2870.056 14279.030 12776.177 15229.193 15438.718 11554.760 15075.230 4992.402 10544.247 12662.470 11693.244 15103.969 15633.511 12978.439 13437.622 30147.564 7423.407 29442.737 15349.697 11226.752 13911.083 24803.881 12782.913 14685.367 21273.196 2530.471 28007.362 14559.960 30056.171 11431.702 15135.709 15708.323 29414.529 13031.955 14314.496 6958.873 14802.247 16491.197 13627.482 15558.195 25418.931 24789.518 12853.239 10865.706 30257.101 15253.707 14982.517 15592.545 12298.176 7052.304 15002.400 13667.323 30283.375 10874.768 3231.885 24223.182 13619.323 12845.588 13031.728 13928.247 26170.672 27571.197 13940.839 11960.772 14397.317 9901.392 3107.249 3140.003 15031.512 11469.896 0.000 11730.232 9682.294 11338.818 29408.380 11077.133 12786.929 2370.174 15241.359 12894.159 13600.545 14374.913 12650.535 14528.463 10774.818 10045.295 1404.008 6974.742 15423.339 14520.815 13260.532 14907.047
1959.067 5264.747 11249.962 3857.769 7415.562 3653.275 18369.451 2546.164 2340.319 9301.732 2583.558 1091.833 4199.637 3852.492 297.328 3361.478 7271.322 1440.146 1004.342 90.374 3374.662 4012.644 4276.385 2017.153 18417.692 4604.085 20258.216 3738.277 657.417 2211.131 14188.139 5185.809 3491.747 11464.105 10908.193 16719.969 2887.921 18326.224 947.546 3407.902 4060.335 19946.429 4202.799 2851.186 7818.181 3085.498 4866.240 1905.519 3829.399 14669.641 14113.221 4172.503 937.667 18553.722 3536.998 3440.644 3870.158 1119.683 5044.155 3438.995 2486.503 18572.628 3955.850 12166.692 14004.698 1908.597 3907.645 2854.920 2206.071 15233.209 19147.998 2216.177 437.927 2667.537 5495.038 9085.016 9258.690 3391.748 270.494 11730.232 0.000 3013.224 1678.011 19903.513 1246.682 5676.768 9369.198 4193.414 3550.502 2019.809 2644.710 975.684 2799.107 1587.092 3159.292 10479.481 6345.504 3713.381 2903.267 1636.883 3179.793
4698.148 6873.346 9317.649 6540.854 8814.088 6243.703 19967.476 5426.382 5216.975 7713.966 5392.804 4034.605 7211.009 5972.227 2722.772 5826.344 6092.647 1606.713 3566.129 3041.109 5944.082 6191.855 6835.914 4005.345 20752.280 3935.209 23255.379 6594.559 2356.635 4711.435 15229.406 7515.128 5064.466 14466.522 9440.088 18325.160 5717.589 20663.216 3466.748 5955.977 6295.428 22954.256 6793.344 4825.086 7693.938 5581.493 7668.975 4693.506 6441.842 15812.828 15198.408 6710.246 2153.299 20744.374 6005.273 5503.294 6527.506 2961.973 2629.990 6342.893 5499.530 20788.070 5712.712 9553.520 14771.396 4733.254 6492.790 5701.132 4799.772 16525.905 22086.453 4964.378 3433.160 5292.678 6657.138 7539.672 7783.922 5643.264 2772.520 9682.294 3013.224 0.000 1795.722 22912.338 3404.041 7920.902 7438.738 7204.017 6220.160 4976.490 5287.086 3580.492 5463.637 1460.900 529.186 8607.985 6089.218 6142.451 5139.931 4016.501 5843.063
2981.402 6641.279 10933.726 4772.151 8746.810 4462.045 18362.736 3748.978 3543.517 9186.583 3680.742 2471.004 5673.746 4186.521 1400.732 4035.121 7360.605 1089.046 1875.465 1746.349 4162.177 4402.901 5934.857 2209.768 18974.563 4866.027 21794.789 4881.471 1186.771 2937.762 13809.312 6801.323 3346.550 12998.546 10880.284 16714.723 4006.898 18885.137 2493.284 4171.378 4503.405 21451.444 5865.982 3039.439 8474.254 3794.569 5922.659 2995.481 4661.717 14355.570 13760.943 5826.307 1303.098 18989.331 4213.356 3718.345 4753.962 1201.331 4327.223 4661.033 4028.074 19028.651 5355.849 11342.657 13462.815 3049.826 5568.145 4530.894 3040.333 15015.752 20756.746 3241.331 2106.534 3528.536 6693.166 8992.834 9210.551 3848.284 1547.053 11338.818 1678.011 1795.722 0.000 21404.072 2638.374 7274.438 9040.638 5661.562 5221.410 3374.292 3526.640 1901.468 3704.788 647.727 1712.608 10198.004 6899.576 4348.082 3344.259 2247.072 4078.025
18505.943 18534.184 28751.582 17092.302 18575.380 17488.956 20660.261 17708.331 17903.111 26538.355 17833.025 18941.022 15732.569 18471.588 20197.696 17992.832 24473.347 21312.676 19542.488 19872.075 17743.524 18255.104 16740.467 19638.031 14855.850 22492.188 1116.163 16703.548 20557.598 18729.303 22068.271 16697.244 19681.421 8458.098 27417.762 19967.703 17520.925 14809.469 19533.234 17769.542 18098.119 131.361 16721.570 19245.452 22634.443 18114.685 15911.649 18463.510 17302.797 21767.008 21836.353 16876.325 20770.099 16235.919 17866.412 18795.989 17152.584 20253.476 24469.665 16834.493 17419.395 16019.326 18736.305 31080.218 23207.582 18393.691 16973.364 17336.507 18568.192 21220.006 3628.527 18272.611 19479.456 18152.467 19508.049 26301.769 26279.515 18436.712 20139.911 29408.380 19903.513 22912.338 21404.072 0.000 19711.971 16637.817 27260.304 15743.744 17077.753 18030.487 18134.960 19511.425 17967.191 21485.043 23047.192 28006.510 22437.413 17842.270 18750.606 19322.910 17670.881
2823.221 4053.188 10553.441 4587.937 6193.680 4470.558 19398.892 3160.677 2986.179 8507.151 3291.197 1879.729 4282.550 4898.723 1372.667 4279.586 6396.339 1876.439 2159.212 1157.747 4225.883 5028.983 3441.665 3211.920 19156.522 3727.573 20001.040 4283.538 1456.762 3211.277 15351.955 4206.065 4686.523 11254.898 10042.765 17753.129 3538.087 19064.102 395.219 4271.258 5051.590 19747.098 3393.986 3995.118 6667.492 4005.593 5421.353 2729.449 4619.191 15814.699 15270.189 3319.366 1390.504 19365.405 4441.431 4526.743 4621.643 2363.052 4819.226 3929.071 2616.373 19372.346 2749.161 11823.569 15206.179 2690.184 3092.647 2377.313 3150.290 16347.505 18736.452 3035.010 1134.010 3538.654 4248.883 8280.201 8425.316 4412.107 1188.142 11077.133 1246.682 3404.041 2638.374 19711.971 0.000 4659.613 8707.285 4287.229 2817.335 2555.338 3505.071 2117.585 3626.623 2266.568 3715.566 9770.360 5253.526 4629.187 3961.642 2762.721 3974.845
6016.812 1903.834 12138.774 6703.046 2940.229 6879.831 21246.499 5649.406 5646.669 9918.961 5914.821 5502.025 4661.035 7912.383 5909.296 7042.598 7835.562 6513.369 6175.418 5592.864 6815.258 7911.013 1638.650 7086.151 19581.861 6034.516 16720.868 6000.657 6088.671 6541.389 18154.312 533.582 8335.006 8533.779 10929.059 19667.942 5898.823 19488.466 4783.695 6879.627 7842.542 16648.022 1756.158 7535.731 6251.170 6860.700 6702.157 5891.560 6897.965 18470.946 18025.487 1675.638 6049.667 20114.453 7115.294 7756.571 6786.958 6705.218 8459.939 5677.090 4510.909 20065.873 2349.217 14511.649 18316.050 5792.979 1961.851 3273.593 6372.065 18785.172 15042.670 6032.086 5317.441 6433.872 2900.471 9680.412 9675.670 7448.440 5742.994 12786.929 5676.768 7920.902 7274.438 16637.817 4659.613 0.000 10623.293 4695.908 2385.380 5290.675 6387.436 6122.655 6378.444 6924.272 8304.742 11383.119 5812.852 7282.812 7228.084 6536.467 6502.983
11325.244 8733.286 1894.734 13208.263 9178.301 13021.661 27390.555 11822.903 11632.113 1184.185 11911.843 10410.074 12871.804 13102.521 9199.205 12720.093 2793.242 8209.232 10309.634 9330.651 12743.803 13293.518 10701.293 11106.025 27786.590 5069.289 27335.718 12979.631 8876.513 11557.247 22642.731 10577.251 12383.323 19043.355 2475.800 25744.916 12191.456 27695.052 9061.529 12776.438 13364.811 27271.113 10748.747 11985.907 5217.163 12446.263 14121.074 11263.266 13195.009 23239.437 22618.865 10573.210 8514.050 27909.107 12897.993 12649.703 13227.447 9964.897 4825.278 12632.228 11300.015 27932.816 8609.868 4154.632 22120.053 11253.801 10550.235 10685.006 11570.468 23963.533 25552.946 11576.920 9593.869 12036.734 7781.703 1305.802 1550.832 12687.713 9110.456 2370.174 9369.198 7438.738 9040.638 27260.304 8707.285 10623.293 0.000 12883.359 10578.940 11230.842 12013.685 10296.438 12165.856 8459.876 7836.130 1171.445 4867.049 13069.260 12178.271 10912.879 12543.401
2851.992 5750.238 14682.206 2296.922 7542.461 2611.307 16585.610 2068.521 2235.304 12551.010 2264.262 3197.817 37.184 3818.497 4481.448 2981.155 10378.246 5627.933 3811.233 4172.435 2694.860 3722.704 3203.018 4090.690 15384.495 7818.015 16136.784 1563.057 4850.800 3200.285 13514.694 4216.320 4704.199 7344.431 13954.539 14993.915 2017.230 15290.916 4006.496 2752.356 3605.771 15790.454 3085.273 4006.626 9873.581 2935.629 2009.395 2785.047 2541.184 13803.814 13377.244 3244.399 5099.396 15768.619 2965.276 3872.642 2389.533 4528.444 9075.094 1409.548 1722.525 15744.021 4894.550 16110.725 13759.834 2702.212 3046.597 2261.582 3013.343 14094.623 15184.304 2660.610 3787.089 2729.577 6577.397 12314.833 12417.838 3484.332 4443.986 15241.359 4193.414 7204.017 5661.562 15743.744 4287.229 4695.908 12883.359 0.000 2747.493 2292.888 2695.141 3777.326 2572.852 5757.583 7309.262 13894.073 8811.918 3074.215 3533.657 3676.201 2451.270
3633.480 3019.208 12298.136 4429.999 4939.933 4563.407 19261.373 3280.555 3266.974 10112.251 3543.461 3177.250 2720.113 5547.118 3820.711 4686.109 7931.511 4662.166 3879.674 3477.298 4472.338 5558.387 773.380 4733.765 18107.903 5555.697 17312.722 3772.265 4076.634 4157.512 15902.958 1851.932 5951.466 8656.314 11410.518 17654.041 3551.877 18014.255 2788.991 4536.205 5499.036 17106.007 675.705 5152.114 7160.515 4492.407 4638.679 3508.628 4603.277 16252.873 15783.563 711.141 4136.505 18512.433 4770.160 5375.884 4508.106 4473.887 7402.660 3418.803 2139.211 18485.593 2183.075 14114.100 16006.935 3409.434 423.539 888.298 3987.056 16621.012 15958.395 3647.000 3141.813 4055.918 3830.390 9872.039 9942.090 5075.627 3679.920 12894.159 3550.502 6220.160 5221.410 17077.753 2817.335 2385.380 10578.940 2747.493 0.000 2905.295 4009.467 3827.413 4008.586 4997.591 6512.382 11512.853 6201.133 4944.200 4843.540 4184.953 4158.079
748.414 5583.282 13090.044 2043.400 7678.866 1977.805 16983.514 607.445 457.442 11060.606 780.934 943.395 2307.102 2714.414 2283.815 1915.360 8950.791 3450.629 1518.751 2022.435 1778.615 2769.870 3664.323 1978.239 16601.706 6282.788 18429.507 1754.314 2660.277 1261.691 13224.683 4757.209 3052.261 9637.142 12596.138 15345.954 986.270 16509.332 2179.536 1834.643 2744.172 18078.355 3553.519 2253.967 9027.375 1674.905 2896.245 631.664 2101.949 13628.075 13121.663 3615.651 2957.045 16814.372 2044.025 2488.533 2084.516 2236.984 7052.554 1428.977 858.892 16819.575 4383.861 14167.138 13231.246 529.067 3328.827 2017.161 1084.387 14082.217 17453.593 744.645 1680.828 1200.284 6137.109 10834.407 10980.652 2222.386 2287.739 13600.545 2019.809 4976.490 3374.292 18030.487 2555.338 5290.675 11230.842 2292.888 2905.295 0.000 1155.367 1484.443 1207.945 3516.857 5043.058 12309.596 7713.770 2233.907 1942.063 1475.632 1487.727
693.726 6738.638 13893.202 1256.300 8830.800 1009.060 15911.126 755.886 743.169 11925.870 490.615 1638.672 2722.546 1559.993 2831.523 784.730 9860.944 3933.316 1758.737 2683.668 732.749 1617.379 4750.497 1503.733 15773.018 7183.646 18598.523 1432.070 3181.004 606.188 12073.984 5854.384 2068.675 9862.633 13507.467 14268.523 678.002 15681.535 3110.930 771.539 1600.844 18190.498 4635.344 1321.189 10105.749 525.087 2398.625 776.255 1190.432 12484.034 11972.868 4713.627 3530.819 15919.196 938.013 1371.024 1250.960 2329.623 7612.112 1341.105 1877.493 15935.143 5534.540 14730.128 12076.184 818.453 4430.856 3128.792 487.415 12952.712 17786.754 472.739 2451.198 46.453 7283.064 11705.793 11869.763 1072.066 2905.839 14374.913 2644.710 5287.086 3526.640 18134.960 3505.071 6387.436 12013.685 2695.141 4009.467 1155.367 0.000 1758.734 178.581 3859.521 5237.477 13121.295 8745.215 1127.519 885.126 1280.178 557.476
1122.040 5967.075 12182.804 3008.906 8123.132 2760.300 17393.773 1854.750 1647.125 10258.813 1812.651 675.174 3791.481 2877.673 1098.160 2424.796 8241.959 2174.740 52.763 1041.061 2470.009 3041.212 4595.052 1100.291 17501.601 5577.899 19913.809 3014.073 1429.001 1260.813 13242.274 5605.286 2569.938 11121.546 11875.095 15744.310 2137.125 17410.528 1748.352 2496.224 3093.621 19559.925 4502.800 1888.530 8765.041 2152.688 4098.013 1113.070 2947.353 13714.431 13163.598 4512.009 1786.018 17614.124 2603.627 2465.395 3008.566 757.428 5853.418 2770.780 2215.089 17636.569 4668.830 12972.663 13088.790 1156.576 4228.508 3002.592 1287.382 14267.480 18926.349 1389.766 992.611 1773.732 6301.061 10044.157 10222.235 2421.539 1205.623 12650.535 975.684 3580.492 1901.468 19511.425 2117.585 6122.655 10296.438 3777.326 3827.413 1484.443 1758.734 0.000 1927.268 2128.408 3595.174 11416.658 7309.336 2772.976 1928.773 662.658 2313.018
840.626 6780.169 14043.573 1082.912 8859.926 857.277 15807.981 729.053 766.280 12068.159 465.350 1773.816 2601.464 1539.445 2992.691 707.695 9996.084 4101.906 1928.894 2835.304 599.338 1570.705 4739.940 1674.331 15620.948 7318.791 18434.407 1263.739 3345.404 783.284 12019.026 5846.313 2153.784 9704.582 13643.414 14167.049 564.870 15529.347 3233.906 646.741 1537.509 18023.135 4623.378 1433.777 10203.490 484.122 2220.055 909.191 1030.364 12420.203 11914.929 4708.068 3692.967 15776.104 839.926 1404.025 1081.515 2507.257 7780.255 1196.366 1869.688 15790.460 5590.918 14899.871 12041.678 937.170 4427.790 3134.878 664.823 12876.538 17634.711 595.815 2590.593 186.187 7345.039 11847.190 12008.695 1070.711 3062.289 14528.463 2799.107 5463.637 3704.788 17967.191 3626.623 6378.444 12165.856 2572.852 4008.586 1207.945 178.581 1927.268 0.000 4033.905 5415.813 13270.541 8856.171 1030.743 969.293 1458.588 385.788
3249.761 6161.223 10354.478 5115.819 8236.888 4836.382 18966.349 3967.378 3757.812 8572.768 3940.483 2576.223 5765.757 4685.975 1290.414 4443.474 6722.892 478.211 2117.276 1627.994 4538.479 4892.227 5673.818 2682.849 19467.810 4218.312 21844.441 5140.177 949.530 3301.378 14448.435 6472.500 3927.580 13049.468 10258.468 17317.229 4264.116 19377.794 2210.501 4555.288 4981.224 21528.725 5615.635 3548.206 7835.363 4187.799 6225.196 3239.711 5031.283 14990.352 14398.269 5557.279 876.859 19512.184 4624.018 4222.781 5107.773 1568.410 3813.542 4883.471 4065.663 19546.783 4898.997 10894.481 14109.219 3276.391 5314.331 4385.458 3374.270 15642.416 20728.476 3517.109 2020.488 3868.335 6150.879 8375.765 8588.676 4312.155 1371.987 10774.818 1587.092 1460.900 647.727 21485.043 2266.568 6924.272 8459.876 5757.583 4997.591 3516.857 3859.521 2128.408 4033.905 0.000 1572.840 9611.256 6256.828 4772.832 3800.760 2608.566 4416.980
4690.790 7325.473 9703.192 6479.017 9294.497 6160.579 19610.472 5449.474 5242.241 8158.363 5390.155 4113.693 7318.843 5789.784 2862.222 5720.228 6587.208 1850.323 3573.484 3200.795 5861.025 6016.335 7157.071 3874.240 20531.987 4463.723 23413.473 6592.059 2519.948 4644.949 14809.501 7883.092 4811.947 14617.357 9889.641 17971.950 5716.399 20443.626 3729.405 5867.278 6129.164 23091.868 7107.666 4649.967 8222.702 5488.301 7634.630 4700.382 6361.359 15403.318 14783.554 7034.911 2383.967 20491.527 5896.173 5321.867 6458.314 2913.875 3010.923 6364.441 5630.558 20540.516 6138.514 9771.212 14323.941 4750.468 6806.019 5940.693 4751.813 16133.154 22299.666 4952.175 3593.316 5238.433 7143.489 7990.184 8240.891 5495.035 2942.983 10045.295 3159.292 529.186 1712.608 23047.192 3715.566 8304.742 7836.130 7309.262 6512.382 5043.058 5237.477 3595.174 5415.813 1572.840 0.000 9007.368 6618.108 6021.454 5003.179 3957.335 5787.049
12430.501 9480.192 788.261 14303.524 9699.272 14127.457 28553.742 12906.327 12718.798 1469.398 13004.052 11507.209 13880.961 14238.303 10318.529 13837.137 3595.352 9349.617 11431.448 10437.838 13852.919 14426.223 11584.048 12246.212 28889.632 6081.353 28044.932 14052.079 10002.788 12676.804 23814.174 11379.436 13537.446 19870.315 1704.258 26907.451 13277.745 28797.825 10133.131 13887.107 14494.428 28013.027 11639.072 13127.477 5611.912 13562.285 15191.375 12364.899 14297.755 24410.684 23790.270 11459.618 9639.125 29030.404 14014.120 13788.146 14325.413 11104.795 5996.590 13699.426 12342.708 29051.242 9478.810 4038.569 23289.418 12351.949 11456.416 11671.903 12684.396 25133.493 26186.983 12679.039 10689.175 13145.551 8498.822 1704.782 1758.441 13817.437 10223.897 1404.008 10479.481 8607.985 10198.004 28006.510 9770.360 11383.119 1171.445 13894.073 11512.853 12309.596 13121.295 11416.658 13270.541 9611.256 9007.368 0.000 5571.289 14187.526 13309.426 12040.042 13645.490
8071.959 3909.339 6326.120 9751.108 4422.256 9681.902 24651.340 8316.319 8166.552 4106.123 8485.094 7132.566 8791.961 10148.202 6316.254 9525.517 2085.051 5817.196 7343.314 6272.489 9454.091 10282.168 6140.793 8356.981 24156.014 2155.972 22488.281 9325.469 6137.865 8462.753 20522.365 5828.133 9821.840 14319.579 5226.800 23006.139 8693.201 24062.707 5648.401 9502.911 10304.844 22444.824 6210.849 9195.507 1605.319 9253.474 10411.413 7973.504 9814.840 21013.048 20451.859 6025.872 5810.442 24458.559 9683.227 9763.579 9796.519 7318.459 4655.870 8948.542 7487.360 24451.058 4049.177 8913.568 20285.593 7926.851 6068.490 6552.252 8403.670 21576.800 20685.899 8272.722 6368.874 8780.806 2929.983 3867.749 3868.096 9664.358 6158.400 6974.742 6345.504 6089.218 6899.576 22437.413 5253.526 5812.852 4867.049 8811.918 6201.133 7713.770 8745.215 7309.336 8856.171 6256.828 6618.108 5571.289 0.000 9872.500 9205.820 7970.925 9186.139
1807.259 7782.164 14954.911 832.793 9841.410 463.830 14783.862 1699.746 1782.752 13014.173 1463.124 2755.063 3108.834 752.313 3870.125 352.924 10965.873 4912.223 2760.990 3761.035 473.176 654.374 5648.107 2147.278 14732.353 8289.837 18366.027 1516.793 4197.917 1512.261 11009.788 6755.121 1853.309 9745.840 14609.846 13141.605 1392.842 14641.483 4234.463 410.442 561.681 17904.904 5528.748 1462.373 11230.851 629.892 1934.802 1900.185 582.349 11400.875 10902.029 5628.625 4557.839 14842.942 190.912 957.317 748.503 3204.779 8576.186 1703.875 2818.728 14864.221 6609.816 15666.298 11066.020 1945.958 5355.815 4091.435 1509.255 11848.314 17719.564 1600.242 3557.911 1091.728 8367.475 12796.479 12966.268 599.477 3964.732 15423.339 3713.381 6142.451 4348.082 17842.270 4629.187 7282.812 13069.260 3074.215 4944.200 2233.907 1127.519 2772.976 1030.743 4772.832 6021.454 14187.526 9872.500 0.000 1025.745 2177.701 787.440
1262.250 7474.143 14069.593 1661.038 9593.303 1272.230 15469.442 1637.311 1593.636 12174.806 1374.777 2108.572 3563.219 949.314 3012.687 772.735 10169.776 3979.382 1904.461 2964.761 1007.083 1118.175 5596.240 1134.695 15669.460 7506.658 19247.564 2123.921 3308.935 767.812 11425.677 6694.503 1185.926 10561.854 13800.027 13820.600 1534.159 15579.250 3570.372 982.988 1187.717 18810.197 5483.215 500.160 10627.385 644.062 2856.902 1386.638 1468.301 11868.454 11335.711 5552.447 3673.493 15737.274 928.294 575.882 1606.942 2237.061 7613.876 2136.827 2733.345 15766.245 6232.731 14680.694 11359.555 1473.632 5266.786 3956.519 889.464 12386.849 18515.486 1197.628 2837.087 841.924 7955.459 11962.297 12144.496 512.340 3132.534 14520.815 2903.267 5139.931 3344.259 18750.606 3961.642 7228.084 12178.271 3533.657 4843.540 1942.063 885.126 1928.773 969.293 3800.760 5003.179 13309.426 9205.820 1025.745 0.000 1276.894 1124.372
826.195 6516.827 12802.532 2526.516 8666.941 2229.910 16733.462 1623.783 1442.485 10898.546 1491.719 1056.762 3696.148 2222.798 1735.801 1840.190 8894.532 2734.826 632.671 1703.602 1931.126 2394.280 4958.322 549.740 16906.406 6234.574 19759.028 2667.161 2037.256 695.164 12589.759 6009.794 1948.151 10988.131 12523.344 15083.793 1810.195 16815.718 2383.808 1946.839 2455.327 19375.376 4857.378 1232.642 9421.329 1580.144 3678.269 893.527 2426.641 13057.324 12509.198 4888.451 2401.080 16997.051 2020.978 1803.901 2511.216 1054.568 6400.647 2491.381 2319.006 17022.869 5232.119 13501.035 12452.999 983.119 4600.446 3317.981 795.753 13606.148 18859.711 1050.368 1629.249 1281.467 6899.077 10685.699 10867.602 1779.092 1858.186 13260.532 1636.883 4016.501 2247.072 19322.910 2762.721 6536.467 10912.879 3676.201 4184.953 1475.632 1280.178 662.658 1458.588 2608.566 3957.335 12040.042 7970.925 2177.701 1276.894 0.000 1831.099
1220.871 7000.330 14419.494 698.845 9054.650 496.428 15496.311 921.867 1030.319 12436.369 706.842 2141.145 2483.018 1436.046 3376.917 556.717 10356.703 4487.683 2314.390 3214.110 314.452 1409.278 4866.574 2000.808 15244.541 7680.029 18152.380 1000.025 3730.687 1143.043 11791.947 5974.105 2261.158 9447.085 14004.508 13858.355 606.214 15152.834 3584.552 378.134 1341.341 17728.471 4747.681 1621.766 10513.727 490.656 1858.511 1280.606 652.388 12176.627 11682.387 4844.864 4077.479 15408.931 612.685 1423.056 695.756 2883.660 8166.041 1041.723 2031.363 15421.521 5839.191 15285.564 11853.429 1297.453 4570.799 3303.998 1043.679 12610.729 17394.906 966.586 2959.629 550.437 7600.001 12214.481 12373.309 1040.326 3444.109 14907.047 3179.793 5843.063 4078.025 17670.881 3974.845 6502.983 12543.401 2451.270 4158.079 1487.727 557.476 2313.018 385.788 4416.980 5787.049 13645.490 9186.139 787.440 1124.372 1831.099 0.000
NODE_COORD_SECTION
1 27567.380647 -311.862562
2 21720.339235 -2409.421625
3 22724.974895 -12595.029097
4 27928.917589 1558.435457
5 19582.344490 -2694.114315
6 28200.743123 1262.487987
7 38828.231545 11856.932752
8 27135.400867 360.586110
9 27161.261737 152.459480
10 22584.043814 -10378.199568
11 27402.801306 367.908953
12 27025.604802 -1089.953107
13 25607.406415 1788.115871
14 29346.423461 859.278355
15 27143.954009 -2428.957360
16 28466.501473 834.158070
17 22938.121683 -8225.204256
18 27296.890384 -3585.715310
19 27659.217973 -1440.885063
20 26890.033004 -2188.014757
21 28207.530144 962.696282
22 29300.221989 1093.065485
23 23169.655048 -239.752488
24 28622.625663 -1009.905598
25 33394.041210 15083.952312
26 24269.040924 -5902.080330
27 17452.866744 15697.268553
28 27188.256380 1551.639428
29 27195.973045 -2801.809607
30 28090.763563 -268.882736
31 38413.278540 6220.721145
32 22085.566096 -467.379640
33 29884.551591 -242.647260
34 21746.164591 8018.739685
35 21207.560420 -11436.443538
36 37810.714651 10557.121414
37 27329.666719 685.849907
38 33343.293475 15005.216995
39 26032.660769 -2193.554119
40 28271.166305 973.048146
41 29203.365749 1216.734302
42 18427.504327 15838.949320
43 23279.790117 -188.085604
44 29085.346784 -258.005679
45 20593.141732 -6689.767955
46 28324.348286 596.453371
47 27456.368684 2662.040853
48 27442.719656 -332.324126
49 28163.397969 1461.160268
50 38435.691307 6982.582219
51 38220.163224 6354.059053
52 23223.093852 -365.756421
53 27013.995501 -3117.893236
54 34750.674426 14667.280152
55 28504.124725 1010.989400
56 29256.720582 398.914578
57 28020.816155 1546.771434
58 28087.952077 -2018.350553
59 26712.723658 -7217.901238
60 26947.750804 1258.004426
61 26021.163413 113.305687
62 34541.649341 14782.822702
63 23027.572137 -2342.406560
64 26046.351677 -14311.645379
65 39039.572497 4939.638398
66 27343.250560 -307.104312
67 23511.376911 -381.532100
68 24821.386307 -312.569542
69 27917.490358 -183.818483
70 38283.780310 8030.819467
71 15870.746383 13414.917178
72 27567.761554 -43.990793
73 26702.547130 -1842.116571
74 27934.966675 309.948962
75 21624.889938 -3412.476845
76 22594.480429 -10137.198571
77 22285.185588 -10160.870936
78 28918.378940 602.524380
79 26960.147623 -2450.593907
80 23005.436467 -13217.152176
81 26980.121485 -2180.838716
82 28094.771952 -4980.315812
83 28314.622293 -3198.103167
84 18558.110903 15853.006480
85 25772.700966 -2491.243102
86 21553.927040 -512.874100
87 23631.235394 -10931.085856
88 25644.112806 1794.057231
89 23934.174484 -356.484390
90 26833.243226 -166.377428
91 27889.072210 302.767581
92 27607.017135 -1433.201857
93 27854.927745 478.054450
94 27774.116939 -3555.040742
95 28615.144198 -4884.137884
96 22868.125693 -11819.875103
97 22149.206578 -6295.165666
98 28647.340185 1137.230541
99 28754.505777 117.099332
100 28074.817409 -963.863912
101 27910.377166 859.836616
DEMAND_SECTION
1 0
2 2
3 10
4 10
5 4
6 1
7 7
8 5
9 6
10 56
11 76
12 2
13 57
14 6
15 2
16 8
17 5
18 8
19 7
20 2
21 88
22 6
23 7
24 2
25 8
26 8
27 5
28 4
29 7
30 4
31 1
32 3
33 3
34 6
35 8
36 6
37 1
38 10
39 1
40 8
41 10
42 6
43 2
44 4
45 1
46 8
47 6
48 9
49 2
50 10
51 1
52 10
53 1
54 9
55 10
56 6
57 62
58 7
59 7
60 9
61 5
62 72
63 1
64 7
65 3
66 3
67 9
68 10
69 81
70 4
71 1
72 5
73 9
74 85
75 1
76 6
77 1
78 10
79 3
80 5
81 3
82 10
83 62
84 6
85 9
86 4
87 1
88 76
89 2
90 4
91 10
92 7
93 2
94 6
95 6
96 7
97 8
98 8
99 5
100 4
101 8
DEPOT_SECTION
1
-1
EOF
