NAME : poryos-paris-n25-poi
COMMENT : Poryos2026 fastest metric; city paris; 3-decimal seconds/meters; ENU ref in poryos-paris-n25-poi.vrp.json
TYPE : CVRP
DIMENSION : 26
EDGE_WEIGHT_TYPE : EXPLICIT
EDGE_WEIGHT_FORMAT : FULL_MATRIX
CAPACITY : 142
EDGE_WEIGHT_SECTION
0.000 331.709 57.668 193.994 172.018 248.323 260.125 344.185 331.843 280.304 266.509 159.607 296.801 339.855 166.453 69.478 579.893 231.908 318.920 291.851 172.287 69.971 305.585 178.446 233.672 300.858
347.956 0.000 389.605 445.133 370.391 499.461 511.264 532.465 166.179 531.443 517.647 362.487 523.334 532.068 417.592 401.414 831.031 483.047 250.564 107.286 316.651 258.284 556.723 493.103 428.072 279.607
98.167 429.877 0.000 230.629 270.186 274.886 286.365 442.352 430.010 316.939 303.143 206.411 355.653 438.022 203.088 109.892 616.527 268.543 354.724 390.018 222.427 168.139 342.219 190.870 244.620 362.164
322.028 575.899 309.769 0.000 416.692 242.975 254.777 460.359 498.999 189.887 224.801 409.560 277.311 372.473 140.338 321.579 481.622 139.341 541.776 536.040 425.576 314.161 207.314 246.083 377.380 565.313
133.163 322.915 190.831 248.025 0.000 302.354 314.156 373.610 323.048 334.336 320.540 184.178 326.227 369.280 220.484 202.641 633.924 285.939 343.492 283.057 196.858 61.177 359.616 280.506 258.243 298.308
266.130 532.125 243.691 187.605 372.918 0.000 80.802 490.651 475.242 189.654 287.452 316.994 339.961 429.226 144.514 240.765 493.120 211.310 430.322 492.267 333.010 270.387 218.812 141.914 265.926 458.121
321.563 587.558 299.124 243.037 428.351 124.367 0.000 546.083 530.675 256.657 342.884 346.193 395.394 490.557 199.947 296.198 563.668 266.743 463.118 547.700 362.210 325.820 289.359 197.346 298.722 490.917
400.823 520.969 437.304 385.378 434.646 473.954 485.756 0.000 427.842 492.300 361.033 466.505 317.627 348.612 384.065 449.113 690.978 342.538 619.069 481.110 479.185 332.114 478.005 477.063 540.570 568.969
314.859 152.635 356.508 412.036 337.295 466.365 478.167 430.073 0.000 498.347 439.841 329.391 422.014 392.167 384.495 368.318 734.300 435.140 287.464 70.164 283.555 225.188 523.627 460.007 394.976 309.266
286.204 552.199 273.945 207.678 392.992 194.318 206.121 475.766 495.316 0.000 240.208 367.821 292.718 346.932 98.599 281.748 410.826 154.747 493.120 512.341 383.837 290.461 136.518 197.427 328.724 520.918
289.229 535.101 276.971 221.530 383.893 313.621 325.423 375.616 441.974 268.869 0.000 380.103 163.829 213.647 219.320 288.780 449.723 119.107 528.416 495.243 396.119 281.362 224.372 316.730 401.843 535.855
126.169 369.413 167.661 260.710 239.126 302.468 286.261 464.153 374.218 344.778 333.225 0.000 385.735 459.823 233.169 164.735 644.366 298.624 230.640 329.555 108.344 170.184 370.058 218.452 103.532 233.376
349.860 560.940 337.601 282.161 444.524 374.252 386.054 362.475 467.813 329.499 198.233 440.733 0.000 282.329 279.951 349.411 579.963 179.738 589.047 521.082 456.750 341.993 346.926 377.360 462.474 582.741
401.204 532.269 388.945 333.505 464.329 425.595 437.398 350.214 396.352 368.851 189.315 492.077 213.112 0.000 331.294 400.754 382.218 231.081 630.369 454.550 508.093 361.798 247.781 428.704 513.818 598.653
187.605 453.600 175.346 109.079 294.393 163.411 175.214 412.125 396.717 113.851 201.975 269.222 254.485 349.545 0.000 183.150 413.440 116.515 417.535 413.742 285.238 191.862 139.131 166.520 290.962 424.975
140.134 414.253 104.222 140.915 255.046 195.243 207.046 416.628 401.220 227.225 213.429 236.638 265.939 361.102 113.374 0.000 526.813 178.829 384.952 374.395 252.654 152.515 252.505 178.472 258.379 392.391
594.030 851.102 581.771 500.879 700.818 496.321 513.947 669.047 715.186 419.974 409.406 675.647 501.081 389.964 406.425 589.575 0.000 446.916 800.946 773.384 691.663 598.287 285.662 505.253 636.550 828.744
257.889 511.760 245.630 120.449 352.552 210.530 222.332 366.891 433.250 157.442 131.333 348.762 183.843 279.006 107.893 257.439 449.177 0.000 497.076 471.901 364.779 250.021 174.869 213.638 344.935 504.515
279.592 254.695 331.815 424.864 386.199 443.736 402.469 617.577 284.664 504.689 497.379 211.797 549.888 613.247 397.323 328.889 808.520 462.778 0.000 240.001 234.345 317.257 534.212 367.480 219.739 133.185
303.812 103.047 345.461 400.989 326.247 455.318 467.120 488.322 94.346 487.299 473.504 318.343 479.191 486.513 373.448 357.271 786.887 438.903 270.343 0.000 272.508 214.140 512.579 448.959 383.928 292.743
158.465 315.667 211.785 304.834 254.097 346.591 342.191 496.449 320.472 388.901 377.348 90.606 429.858 492.119 277.293 208.859 688.490 342.748 217.101 275.809 0.000 185.155 414.182 262.575 159.461 181.062
116.784 298.427 158.433 213.961 139.219 268.289 280.092 323.696 273.134 300.271 273.193 171.079 276.313 319.366 186.420 170.242 599.859 240.817 330.393 258.568 183.759 0.000 325.551 261.931 245.144 307.517
373.387 639.383 361.129 280.237 480.175 275.679 293.305 517.448 563.586 199.331 256.376 455.005 348.051 295.654 185.783 368.932 326.770 226.273 580.303 599.524 471.021 377.644 0.000 284.611 415.907 608.102
200.014 481.679 168.660 236.636 328.088 190.036 151.589 526.810 486.484 250.989 323.610 212.261 376.120 471.283 193.546 165.734 557.267 260.342 353.502 441.821 228.277 259.146 282.958 0.000 189.106 368.014
213.738 424.224 254.177 347.225 326.695 319.260 277.992 551.722 429.028 380.212 419.740 163.296 472.250 547.392 319.684 251.251 686.490 385.139 219.833 384.365 195.913 257.753 412.182 243.003 0.000 247.631
281.313 278.397 334.633 427.682 336.648 461.689 420.422 576.152 305.252 511.750 500.196 213.454 532.756 575.810 400.141 331.707 811.338 465.596 142.858 260.589 167.892 267.706 537.030 385.424 237.692 0.000
NODE_COORD_SECTION
1 -500.874011 70.822412
2 -2638.609714 -4769.377340
3 -534.659987 805.225976
4 1249.268362 1692.940602
5 -340.997373 -617.360523
6 -6.643186 4104.157400
7 -540.964367 3582.452921
8 2879.533506 -1806.708002
9 -544.368886 -4717.595754
10 2428.495472 3447.215231
11 3710.670732 548.177392
12 -2704.014527 829.864944
13 3635.106014 -105.680901
14 6391.390445 -126.648250
15 1176.237289 2273.883026
16 30.630105 973.245588
17 8290.789685 4157.525942
18 2416.239014 1234.627219
19 -6104.551525 -2083.809897
20 -1834.953986 -4595.427885
21 -2848.692915 -100.454890
22 -75.965872 -880.630446
23 3777.784804 3763.072543
24 -1020.431392 2590.159626
25 -4014.327699 1400.490430
26 -4010.111381 -1656.715570
DEMAND_SECTION
1 0
2 9
3 7
4 61
5 84
6 6
7 1
8 6
9 52
10 9
11 4
12 8
13 9
14 65
15 10
16 7
17 82
18 7
19 10
20 5
21 8
22 2
23 9
24 7
25 10
26 10
DEPOT_SECTION
1
-1
EOF
