NAME : mamut-san_francisco-n10-poi
COMMENT : Mamut2026 shortest metric; city san_francisco; 3-decimal seconds/meters; ENU ref in mamut-san_francisco-n10-poi.vrp.json
TYPE : CVRP
DIMENSION : 11
EDGE_WEIGHT_TYPE : EXPLICIT
EDGE_WEIGHT_FORMAT : FULL_MATRIX
CAPACITY : 108
EDGE_WEIGHT_SECTION
0.000 2638.378 16451.922 3577.063 3260.085 1882.981 4510.723 18201.199 2539.349 3416.805 3650.355
2443.842 0.000 14464.409 2723.787 5574.632 4004.334 3563.525 16213.686 797.040 1939.815 2478.286
16225.312 14590.069 0.000 15846.130 19356.101 17479.260 11980.476 2620.865 14377.341 15080.654 12882.866
3240.651 2607.565 16032.479 0.000 5658.369 4763.628 6167.593 17744.902 3401.108 944.065 5082.353
3405.843 5505.621 19319.165 5785.948 0.000 2989.412 7377.966 21068.442 5406.592 6198.187 6517.598
2096.183 3988.921 17500.793 4895.644 3131.943 0.000 5551.103 19250.070 3889.892 4866.372 4811.988
4244.836 3565.659 11949.690 6185.364 7375.625 5498.784 0.000 13698.967 3148.935 5419.889 1121.215
18373.875 16738.632 2619.619 17969.311 21504.664 19627.823 14129.039 0.000 16525.904 17203.836 15031.429
2055.525 1025.588 14194.667 3730.500 5186.315 3489.179 2785.842 15943.944 0.000 2946.838 1694.530
3056.101 1939.815 15125.752 788.039 6227.315 4904.929 5424.737 16838.175 2733.358 0.000 4344.315
3492.178 2456.697 12863.869 5076.403 6622.967 4827.671 1202.629 14613.146 2041.090 4310.927 0.000
NODE_COORD_SECTION
1 27567.380647 -311.862562
2 26084.418944 -1698.352224
3 22059.761677 -13788.093734
4 24775.526836 -476.976999
5 27546.013525 2543.699329
6 29008.580132 518.520036
7 27190.189009 -4196.004172
8 20832.810362 -14832.780078
9 26702.547130 -1842.116571
10 24783.328017 -979.440060
11 27016.614788 -3298.735731
DEMAND_SECTION
1 0
2 74
3 8
4 5
5 9
6 2
7 4
8 55
9 8
10 55
11 80
DEPOT_SECTION
1
-1
EOF
