NAME : poryos-hong_kong-n10-hyb
COMMENT : Poryos2026 euclidean metric; city hong_kong; 3-decimal seconds/meters; ENU ref in poryos-hong_kong-n10-hyb.vrp.json
TYPE : CVRP
DIMENSION : 11
EDGE_WEIGHT_TYPE : EXPLICIT
EDGE_WEIGHT_FORMAT : FULL_MATRIX
CAPACITY : 101
EDGE_WEIGHT_SECTION
0.000 7281.166 6909.558 2821.921 12230.667 1425.723 13947.445 4657.922 3798.000 9581.237 7520.432
7281.166 0.000 2075.054 6117.885 19508.180 6348.020 19859.658 7835.257 7597.632 9098.177 14230.078
6909.558 2075.054 0.000 6586.736 18902.168 5692.757 18383.206 6272.513 6213.836 10811.451 14300.057
2821.921 6117.885 6586.736 0.000 14118.865 3370.482 16723.463 6915.554 6125.604 6803.781 8170.166
12230.667 19508.180 18902.168 14118.865 0.000 13243.795 9391.521 13754.041 13291.476 18812.601 7353.679
1425.723 6348.020 5692.757 3370.482 13243.795 0.000 14059.210 3565.261 2757.377 10120.428 8916.438
13947.445 19859.658 18383.206 16723.463 9391.521 14059.210 0.000 12110.734 12262.420 23186.803 14109.321
4657.922 7835.257 6272.513 6915.554 13754.041 3565.261 12110.734 0.000 864.477 13568.140 11237.462
3798.000 7597.632 6213.836 6125.604 13291.476 2757.377 12262.420 864.477 0.000 12834.135 10452.634
9581.237 9098.177 10811.451 6803.781 18812.601 10120.428 23186.803 13568.140 12834.135 0.000 11593.793
7520.432 14230.078 14300.057 8170.166 7353.679 8916.438 14109.321 11237.462 10452.634 11593.793 0.000
NODE_COORD_SECTION
1 1438.942575 -1211.855723
2 1341.120703 -8492.364950
3 -617.892096 -7808.174335
4 3729.564917 -2859.972289
5 1113.921911 11014.492265
6 422.107577 -2211.221152
7 -8059.341270 9001.557866
8 -3140.158798 -2065.126878
9 -2308.618708 -1828.776495
10 9962.929957 -5586.984193
11 5504.164897 5115.139735
DEMAND_SECTION
1 0
2 61
3 9
4 7
5 60
6 5
7 77
8 4
9 1
10 8
11 2
DEPOT_SECTION
1
-1
EOF
