NAME : mamut-tokyo-n10-poi
COMMENT : Mamut2026 euclidean metric; city tokyo; 3-decimal seconds/meters; ENU ref in mamut-tokyo-n10-poi.vrp.json
TYPE : CVRP
DIMENSION : 11
EDGE_WEIGHT_TYPE : EXPLICIT
EDGE_WEIGHT_FORMAT : FULL_MATRIX
CAPACITY : 81
EDGE_WEIGHT_SECTION
0.000 963.245 14624.795 12004.111 2851.600 3503.417 11407.940 3767.345 3833.634 889.456 4036.638
963.245 0.000 14275.848 11762.299 3729.745 4396.177 11120.251 3837.207 2878.652 796.738 3075.966
14624.795 14275.848 0.000 2990.547 14655.759 17382.080 3302.108 18083.125 13166.091 13773.087 13311.409
12004.111 11762.299 2990.547 0.000 11786.870 14568.452 843.995 15599.153 11064.439 11187.381 11249.975
2851.600 3729.745 14655.759 11786.870 0.000 2886.491 11353.718 5781.525 6391.502 3148.713 6635.302
3503.417 4396.177 17382.080 14568.452 2886.491 0.000 14088.577 4086.665 7243.439 4321.017 7412.155
11407.940 11120.251 3302.108 843.995 11353.718 14088.577 0.000 14951.703 10306.076 10573.950 10484.362
3767.345 3837.207 18083.125 15599.153 5781.525 4086.665 14951.703 0.000 5530.611 4464.784 5546.633
3833.634 2878.652 13166.091 11064.439 6391.502 7243.439 10306.076 5530.611 0.000 3256.170 281.787
889.456 796.738 13773.087 11187.381 3148.713 4321.017 10573.950 4464.784 3256.170 0.000 3492.396
4036.638 3075.966 13311.409 11249.975 6635.302 7412.155 10484.362 5546.633 281.787 3492.396 0.000
NODE_COORD_SECTION
1 -2164.012052 1974.697434
2 -2368.539979 2915.978558
3 9776.578345 10419.041124
4 8331.450764 7800.840154
5 -322.013761 -202.150546
6 -2927.457662 -1444.524479
7 7514.637438 8013.310529
8 -5883.661613 1377.121806
9 -2548.544214 5788.997489
10 -1610.435490 2670.890212
11 -2767.872459 5965.912599
DEMAND_SECTION
1 0
2 2
3 7
4 9
5 4
6 4
7 7
8 4
9 5
10 5
11 5
DEPOT_SECTION
1
-1
EOF
