NAME : poryos-lyon-n10-poi
COMMENT : Poryos2026 fastest metric; city lyon; 3-decimal seconds/meters; ENU ref in poryos-lyon-n10-poi.vrp.json
TYPE : CVRP
DIMENSION : 11
EDGE_WEIGHT_TYPE : EXPLICIT
EDGE_WEIGHT_FORMAT : FULL_MATRIX
CAPACITY : 96
EDGE_WEIGHT_SECTION
0.000 151.596 162.458 198.784 95.320 121.753 80.318 181.614 152.338 99.293 230.824
181.083 0.000 225.232 350.830 242.181 273.799 188.093 333.660 260.113 177.266 382.870
175.096 250.123 0.000 334.484 243.812 225.770 228.810 282.918 300.830 102.184 327.717
199.641 341.145 342.033 0.000 250.063 139.612 243.625 134.889 294.610 252.100 146.400
73.809 202.406 234.740 213.898 0.000 136.867 97.346 196.728 169.365 171.576 245.938
96.789 238.293 226.865 123.321 172.238 0.000 175.580 59.861 247.600 135.834 116.554
85.923 160.800 218.711 226.011 93.690 148.980 0.000 208.842 127.759 170.746 258.052
197.277 338.781 327.353 163.022 266.904 127.412 260.466 0.000 311.451 236.322 156.254
132.329 207.206 265.118 272.418 140.097 195.387 58.660 255.248 0.000 217.152 304.458
104.804 179.831 116.494 271.317 173.520 155.478 158.518 215.339 230.538 0.000 264.549
207.020 348.524 337.845 131.625 257.442 134.326 251.003 129.602 301.989 246.814 0.000
NODE_COORD_SECTION
1 135.757630 21.597263
2 -1164.097546 -1386.965657
3 349.607149 -2469.462390
4 2090.053894 2037.426795
5 17.803018 573.805654
6 1360.797172 644.365874
7 -270.222232 863.104159
8 1723.489106 700.884958
9 -467.891463 1204.814392
10 577.731483 -1047.951247
11 3602.380059 1263.502760
DEMAND_SECTION
1 0
2 4
3 58
4 3
5 8
6 7
7 52
8 8
9 74
10 6
11 10
DEPOT_SECTION
1
-1
EOF
