NAME : poryos-tokyo-n100-hyb
COMMENT : Poryos2026 shortest metric; city tokyo; 3-decimal seconds/meters; ENU ref in poryos-tokyo-n100-hyb.vrp.json
TYPE : CVRP
DIMENSION : 101
EDGE_WEIGHT_TYPE : EXPLICIT
EDGE_WEIGHT_FORMAT : FULL_MATRIX
CAPACITY : 177
EDGE_WEIGHT_SECTION
0.000 4819.238 4037.239 3363.429 3836.242 13638.964 17429.347 14678.247 8890.069 7565.795 4279.999 4713.116 10970.329 5237.014 5561.374 4154.043 9879.925 2939.861 5594.361 8594.844 4087.369 13040.790 1271.224 7902.708 6383.623 6710.262 13126.397 2653.217 9091.341 5785.928 5890.617 10235.552 3311.285 2746.964 3965.286 3854.718 3900.184 7549.661 12378.892 11457.680 5551.300 7623.716 3139.220 9548.904 4100.901 7208.695 5175.742 4301.905 6472.911 9562.537 4347.088 7653.892 9981.732 19120.991 4961.323 9084.575 9542.596 4464.737 6694.802 4753.553 9242.352 2688.773 7913.596 9510.752 2749.098 6721.205 4743.059 10485.891 7352.205 11340.331 6715.067 4346.426 15914.354 11733.637 12229.292 1904.633 8655.833 19541.105 11244.307 5813.755 14722.507 14159.261 10365.531 14855.482 9049.378 15701.465 13362.188 10539.218 4538.117 8975.623 7437.749 7470.847 13736.033 9083.140 1525.319 5005.477 7785.840 5073.432 2219.097 7106.870 8232.109
5055.315 0.000 5505.690 6587.174 1904.066 9348.767 20744.988 14243.837 9311.579 10633.319 9089.761 5578.786 9297.583 10151.367 7029.825 5927.764 8659.863 6223.034 1619.321 10599.581 6464.431 17626.339 3950.803 10097.008 10089.204 7627.413 12270.775 7150.382 9104.965 9748.346 10804.970 10951.164 8225.638 4230.242 5729.114 4413.023 5393.137 6024.115 12647.195 11023.269 5137.140 9818.016 4428.928 11466.326 5908.275 7705.858 8243.266 9041.180 7753.670 13172.600 5815.539 5163.594 13049.256 23088.702 3180.855 9589.005 9537.482 4994.937 3107.259 7911.713 11320.278 2841.471 4828.064 12578.276 2930.273 3400.556 5238.750 6151.809 3950.952 8448.097 11629.420 1122.595 15795.808 15650.084 9591.010 3312.317 11971.474 23508.816 6623.202 8881.279 16684.758 18958.804 13681.172 18724.113 4715.296 15969.767 17756.917 10104.808 2122.215 11706.011 3417.335 5173.087 17379.650 4749.058 5151.340 3929.650 4384.588 6541.883 2922.707 8876.306 11547.750
3978.671 5364.932 0.000 1935.733 5195.696 14340.734 15930.895 10687.684 11863.128 5580.505 5374.703 7686.176 12984.987 6604.365 1570.811 7320.954 12347.266 6688.665 6611.288 12065.251 1322.422 14783.523 3203.493 11456.546 10181.441 2719.699 9135.834 6260.518 12064.401 9583.747 7656.266 13373.767 5961.752 1731.831 7089.723 2308.863 6912.844 4696.023 8660.291 7467.117 2702.493 11177.553 1111.890 13019.312 7267.812 3218.132 3429.174 5318.327 2482.348 13360.356 361.215 5818.443 7802.591 21494.851 3714.053 12057.634 12505.874 1395.572 5352.127 8502.357 12785.948 2940.929 6078.148 7729.191 2660.781 5264.995 1701.949 9681.494 5676.547 8943.753 7962.731 5002.527 12195.752 15401.942 9632.756 3589.017 7157.382 21914.964 11318.579 4067.187 11658.621 15901.994 8867.080 18526.796 7793.457 11982.863 15736.047 6548.655 4015.454 6298.727 6095.074 5635.398 12711.608 7812.560 5323.137 2885.991 6237.077 1087.559 4137.886 3421.982 6733.658
3745.969 6758.246 2221.437 0.000 6544.235 15691.790 14526.641 11856.652 12386.660 4553.091 3787.343 8209.708 14000.057 5126.191 2892.085 7603.828 13076.320 6325.995 7962.344 12044.629 1276.326 13420.885 3822.684 11352.494 9011.568 3778.180 10713.906 5090.283 12587.933 8651.369 6367.520 13685.337 4673.006 2736.694 7415.071 3786.973 7349.969 6313.956 9366.188 9045.189 4671.618 11073.501 2505.204 12998.689 7550.687 4634.238 2163.037 3730.967 3494.579 12190.483 1998.942 7819.170 6969.027 20206.105 5292.721 12562.654 13029.866 3364.697 7026.199 8139.687 12692.137 4334.243 8078.874 6488.432 4054.095 7052.603 3671.074 11355.567 7677.273 10806.109 6306.388 6353.584 12901.650 14113.196 11250.688 4456.093 5753.128 20626.218 12807.649 2801.051 11709.802 14421.324 7462.826 17238.050 9673.617 12688.760 14447.301 8126.727 5419.975 5962.919 7769.147 7636.125 10988.221 9692.721 4975.104 4886.717 8117.238 2506.742 5152.957 4094.166 5329.404
3838.252 2488.669 5252.612 6238.030 0.000 10583.037 20395.844 14958.800 8139.483 10284.175 7977.289 4369.400 8436.711 8934.304 6776.747 4711.595 7798.990 5005.971 2538.434 9383.412 6115.287 16409.276 2811.205 8880.839 8873.035 7925.635 12988.452 5933.319 8052.403 8532.176 9587.907 9898.602 7008.575 3977.164 4512.945 4560.232 4176.968 6872.720 13362.158 11738.233 5594.028 8601.846 4175.850 10277.105 4692.106 8140.208 7894.122 8081.222 7688.285 11956.431 5562.461 6682.735 12700.112 21872.533 3870.687 8490.023 8484.920 5258.413 4949.041 6695.544 10104.109 2674.640 6483.557 12229.132 2964.862 4975.445 5504.503 8155.321 5606.444 10369.175 10412.357 1760.818 16510.771 14433.915 11258.136 2168.395 11622.330 22292.647 8188.380 8532.135 16859.867 17741.741 13332.028 17507.944 6718.808 16684.730 16539.855 10819.771 2812.047 11356.867 5420.847 6499.690 16724.225 6752.570 3934.277 4590.950 6040.080 6288.805 1705.644 8623.228 11198.606
13636.155 9371.396 14344.596 15426.080 10123.230 0.000 29583.894 20234.110 8215.728 19472.225 17775.192 10082.637 6701.427 18732.208 15868.731 11480.278 6617.610 13598.774 8616.355 11164.861 15303.337 23814.850 12609.108 12648.194 15762.409 16273.440 18049.399 15698.920 7978.498 15640.593 18956.255 8908.450 16806.478 13069.148 11710.832 13204.902 11384.387 13214.160 20676.560 18506.616 13598.519 12224.163 13267.834 11506.340 11593.401 16193.305 17082.172 17879.125 16495.257 16182.025 14654.445 11266.282 21888.162 25862.928 11624.643 8462.538 8148.375 13736.524 10515.316 13893.189 11763.111 11766.624 10930.753 21417.182 11960.057 10839.937 13980.337 8574.522 11324.209 12135.078 19995.571 9783.510 22122.979 18928.114 13850.027 11966.298 20810.380 26283.042 5157.651 17720.185 24714.124 26138.491 22520.078 21019.770 9972.522 23744.865 23660.447 16965.994 11122.566 20544.917 10272.832 11381.305 26218.556 10110.405 13438.546 12313.119 10436.923 15380.789 11503.548 17568.459 20386.656
17495.194 20637.130 15912.703 14479.040 20362.388 29570.674 0.000 14589.616 26135.886 10562.821 15456.428 21958.933 27830.570 16173.923 15076.509 21353.054 26825.545 19582.582 21841.228 25588.244 14967.592 19307.398 17631.548 24165.067 20960.500 14664.205 15831.441 17360.502 26337.158 20721.008 17464.100 27323.328 16502.505 16615.577 21164.297 17665.857 21099.194 18110.373 12484.254 14249.582 17688.917 24432.099 16384.088 26636.680 21299.710 14896.433 13073.422 15406.161 14365.251 24139.415 15690.209 19993.980 9125.899 28006.977 19171.604 26200.645 26779.091 17055.963 20553.714 20999.423 26050.735 18213.127 20253.685 8835.423 17932.978 20316.746 16992.954 24075.813 20175.769 21443.954 16316.006 20232.467 14786.259 23138.808 20577.342 18264.956 8853.432 28427.091 26686.533 12257.183 9628.486 20051.246 7506.179 25794.770 22089.822 11971.597 20392.321 15731.384 19298.858 10015.624 21296.662 19810.935 6046.574 22108.925 18724.329 18405.428 20436.638 15511.989 18968.590 13309.497 9644.353
14625.594 14096.814 10718.369 12028.189 14421.003 19961.546 14526.499 0.000 22105.565 10267.602 15061.143 18202.257 22088.137 16326.026 9721.459 17837.035 21456.031 17204.746 14643.637 22581.332 11011.672 24428.527 13719.574 21972.627 20354.764 8650.267 2414.816 16433.479 22018.485 19994.564 17616.203 23864.684 16016.201 12378.755 17605.804 11699.589 17428.926 8518.291 3370.480 3208.328 10101.866 21693.634 11758.814 23535.393 17783.893 8166.271 10261.807 15004.767 8762.788 23533.678 10437.662 9915.702 9911.928 31410.743 11210.981 22456.105 22451.002 10602.678 11933.963 19018.438 23302.029 12984.438 10220.755 10514.987 12704.290 11777.720 10137.193 12537.060 11370.427 8656.367 17506.223 14117.691 1888.869 25402.700 7776.476 14105.098 11434.053 31830.857 16085.828 11113.149 5680.124 25428.967 11879.629 28527.554 10357.600 3807.137 25513.450 5318.574 12277.646 8594.380 12508.332 10019.798 13684.580 10108.724 15896.711 10499.792 10659.675 10139.276 14653.967 7709.828 11507.022
9006.822 9154.002 11998.496 12185.581 7780.985 8037.925 26070.719 22168.372 0.000 16387.948 11732.529 4571.862 2826.278 12661.939 13522.631 5535.733 1856.988 7373.727 7877.497 3291.000 12491.301 16294.657 8833.167 5100.042 8622.565 14671.519 20198.024 9473.873 322.337 8500.749 12731.208 1787.937 10714.048 10579.945 5602.899 11637.232 5457.337 14082.292 20555.887 18947.804 13036.543 4703.403 10921.734 3406.792 5368.354 15161.279 13997.895 11836.463 14434.169 8308.164 12308.345 13198.202 18803.884 17989.067 11080.259 350.540 773.591 12247.251 11757.023 7668.141 3820.961 10321.800 12862.673 18332.905 10477.821 12094.095 12525.574 11792.943 12600.716 15150.747 13770.524 8970.390 23720.343 11054.253 16865.696 8824.544 17380.836 18409.181 9928.942 14635.908 23254.861 18575.569 19090.534 13145.909 12353.963 23878.459 15875.843 18029.343 10021.618 17732.881 11583.700 13313.225 21834.629 12387.725 7989.811 11829.054 12368.843 13034.689 8321.209 15313.586 16957.112
7594.542 10482.449 5486.976 4680.143 10268.437 19415.993 10568.708 10330.415 16225.429 0.000 6593.218 12048.476 17724.260 7710.701 4703.933 11452.401 16915.088 10111.923 11686.547 15893.202 4522.495 15613.479 7565.793 15201.066 12284.875 4462.223 9805.516 8450.839 16426.701 12011.925 9000.878 17533.910 7826.880 6460.897 11263.644 7511.176 11198.542 8016.493 7758.799 8380.856 7525.117 14922.074 6229.407 16847.262 11399.259 4732.633 2557.181 6536.842 4149.268 15463.790 5253.101 9900.100 2843.427 22795.418 9016.924 16411.227 16868.634 6617.508 10389.914 11925.615 16540.710 8058.446 10159.804 2301.157 7778.297 10152.946 6772.788 13981.933 10011.969 12592.321 8799.878 10077.786 11375.413 16787.375 12036.690 8199.202 1979.365 23215.531 16531.852 1792.769 9032.215 16613.918 3504.892 19912.229 11995.942 10265.429 16698.402 7770.124 9144.177 3285.331 11132.862 9717.055 7349.420 12015.045 8823.677 8241.628 10342.758 5089.692 8877.160 3143.920 1555.641
4383.308 9082.270 5410.998 3842.635 8132.354 17643.468 14939.941 15314.794 11995.927 6585.899 0.000 8032.236 14569.740 1388.678 6573.652 7164.173 13086.276 5364.307 9890.473 10885.600 5030.911 9805.786 5560.743 9180.283 5967.311 7236.323 14215.771 2600.980 12209.512 5727.818 2678.529 13105.053 1509.315 5529.441 6975.416 6590.179 7058.307 9979.735 12824.331 12682.963 7804.739 9787.534 5308.410 11848.902 7081.436 8092.381 5458.921 676.626 6952.722 9146.225 5603.245 10784.018 9178.859 16519.569 8091.449 11982.371 12660.767 6445.545 9824.928 6533.952 11256.235 6682.793 11043.722 7881.694 6402.645 9851.331 6853.350 14154.296 10482.331 13937.501 2726.349 8642.539 16359.792 10426.660 14826.462 6194.152 6854.381 16939.683 15289.780 5010.883 15005.686 10866.317 8564.079 13551.515 12472.346 16131.186 10760.766 11832.367 7779.234 9258.803 10567.875 10600.973 10703.850 12491.449 4937.916 7879.739 10915.966 6261.327 6515.209 7552.309 6430.657
4713.131 5580.395 7704.805 7928.751 3902.432 9611.232 21994.669 18169.663 4455.123 12096.688 7874.939 0.000 6720.042 8804.350 9228.940 1397.641 5314.107 3516.137 4471.883 5302.640 8197.609 14365.088 4539.476 5363.606 5988.042 10377.828 16319.472 5616.283 4656.396 5647.184 8873.618 6124.749 6856.459 6286.254 1628.195 7343.541 1301.750 10203.740 16262.195 14949.095 9040.123 4939.574 6628.043 6091.308 1510.764 10867.588 9706.635 7978.873 10140.478 8728.459 8014.654 9948.824 14512.625 18813.435 7201.706 4649.629 5107.650 7953.560 8280.061 3810.552 6023.337 6123.804 9613.294 14041.645 6184.130 8306.464 8231.883 10120.482 8937.464 12837.386 9912.934 5091.837 19721.634 11374.818 13980.299 4651.711 13221.156 19233.549 9337.600 10344.648 18961.170 16480.383 14930.854 14305.052 9104.585 19584.768 14495.666 14030.634 6143.066 13439.190 8180.867 9830.710 17977.039 9138.347 3711.249 7950.502 9119.465 8740.998 4148.376 11019.894 12797.432
11338.887 9417.224 13256.227 13989.613 8332.744 6246.078 28147.427 22457.404 2985.705 18035.759 14484.499 6625.757 0.000 15413.909 14780.363 8023.398 1756.431 10125.696 8140.719 6080.089 13866.870 19157.908 10496.104 7963.293 11442.489 15929.250 20272.693 12225.842 2738.009 11320.673 15483.178 2448.105 13466.018 11837.676 8253.952 12725.269 7927.506 14634.051 21123.489 19499.563 13588.302 7566.654 12179.465 5468.528 8120.323 16157.020 15645.705 14588.432 15691.900 11171.415 13566.076 13291.774 20451.695 20852.318 11632.018 3019.778 2450.576 13423.449 12020.245 10420.111 6251.930 10873.558 12956.244 19980.716 11163.780 12357.316 13669.540 11000.568 12863.938 14358.372 16522.493 9502.420 24272.102 13917.504 16073.321 9853.294 19373.914 21272.432 9136.567 16283.719 24630.431 21438.820 21083.612 15790.002 12195.816 24446.061 18739.094 18581.102 10573.377 19108.451 11832.358 13406.797 24461.813 12333.699 10337.006 12380.813 12462.415 14292.420 9337.480 16626.843 18950.190
5264.503 10083.741 6558.439 4990.076 8868.576 18376.313 15775.934 16335.586 12728.772 7577.715 1404.202 8765.081 15302.585 0.000 7608.837 7897.018 13819.121 5667.450 10626.695 10520.928 6178.352 8467.108 6535.727 8815.611 5466.919 8271.509 15250.957 3333.825 12942.357 5227.427 1339.851 13837.898 2228.334 6670.642 7708.261 7731.380 7791.152 11127.175 13845.122 13718.149 8952.179 9422.862 6449.612 11484.229 7814.281 9127.566 6471.035 1824.067 7987.907 8643.609 6750.685 11925.220 10170.676 15226.692 9232.651 12715.216 13393.612 7592.986 10966.129 6610.122 10891.563 7823.995 12184.924 8873.511 7543.847 10992.533 8000.791 15295.497 11623.532 15084.942 1478.053 9378.760 17380.584 9152.968 15973.903 7169.135 7846.198 15646.806 16276.641 6002.699 16017.800 9585.579 9555.895 12277.822 13613.547 17143.299 9467.889 12954.544 8920.435 10270.916 11709.077 11742.175 11539.843 13632.651 5670.761 9027.180 12057.168 7408.767 7251.431 8573.100 7422.473
5820.507 7148.661 1913.282 3447.999 7037.533 16182.571 14844.442 9680.592 13704.965 4645.789 6648.581 9528.013 14826.823 7913.464 0.000 9162.791 14189.103 8530.502 8453.124 13907.088 2170.734 16015.965 5045.329 13298.382 11942.202 1253.153 8432.577 8020.917 13906.237 11425.584 9203.641 15215.603 7603.639 3573.668 8931.560 3912.394 8754.681 4477.581 7190.128 6763.860 3511.262 13019.389 2953.726 14861.148 9109.649 2015.261 2725.271 6592.205 972.104 15121.116 1632.574 6063.763 6593.556 22998.181 4897.512 13899.471 14347.711 2550.260 6376.060 10344.194 14627.784 4724.658 6323.467 6741.422 4444.509 6139.092 2394.153 10145.596 5998.115 8980.879 9093.661 6844.364 10725.590 16990.138 9166.310 5430.854 6518.066 23418.295 12654.496 3548.285 10365.580 17016.405 8056.904 20114.992 8159.604 10512.700 17100.888 5845.399 5440.721 5048.407 7119.007 5880.717 11901.432 8178.707 7164.974 4069.157 6506.420 939.519 5979.723 1918.106 6094.342
4095.699 5962.729 7551.411 7273.366 4284.767 11069.684 21203.806 18016.269 5466.845 11475.733 6865.616 1458.451 8040.658 7795.026 9075.546 0.000 6557.194 2506.813 5085.944 4935.263 7997.307 13355.764 4386.082 4626.332 4978.718 10224.434 16464.418 4606.959 5680.430 4637.860 7864.295 6575.971 5847.135 6132.860 553.940 7190.147 633.808 10586.074 16108.801 14795.701 8886.729 4347.339 6474.649 5889.324 456.139 10714.194 9085.680 6969.549 9987.083 7966.863 7861.260 10396.089 13891.670 17978.217 7584.041 5453.289 6131.685 7800.166 8662.395 2801.228 5655.960 5970.410 10196.911 13420.690 6030.735 8688.799 8078.489 11155.159 9319.798 13451.447 8903.610 5474.172 19568.240 10539.599 14594.360 4606.300 12513.922 18398.330 10507.529 9723.693 18632.445 15471.059 14223.620 13543.457 9718.646 19431.373 13486.342 13877.240 6525.401 12885.561 8741.675 10213.044 16967.716 9752.409 3192.326 8287.115 9733.526 8587.604 4112.228 10866.500 12090.198
9643.462 8138.387 11852.147 12406.764 7053.906 6302.010 26472.683 21390.825 1934.809 16547.869 12789.073 4930.332 1727.048 13718.483 13376.282 6327.973 0.000 8430.271 6861.882 4615.528 12462.790 17619.185 8990.657 6424.570 9747.064 14525.170 19206.114 10530.417 1716.764 9625.248 13787.752 3029.269 11770.592 10433.595 6558.527 11432.336 6232.081 13355.214 19844.651 18220.726 12309.465 6027.931 10775.385 4957.007 6424.898 14878.183 14157.816 12893.007 14287.819 9632.693 12161.996 12164.102 18963.806 19313.595 10353.180 2200.805 1893.286 12042.355 10741.407 8724.686 5213.778 9594.721 11828.572 18492.826 9884.943 11078.479 12320.678 10057.029 11585.101 13414.833 14827.068 8223.582 22993.264 12378.781 15129.782 8449.214 17699.169 19733.709 8193.028 14795.829 23226.350 19900.097 19408.867 14470.437 11252.277 23167.223 17200.372 17302.264 9294.540 17704.370 10568.084 12279.125 22779.369 11353.625 8641.581 11101.976 11334.742 12888.339 7933.400 15222.762 17275.445
3030.511 6315.896 6775.050 6141.743 4773.393 12729.190 19612.782 17239.908 7081.649 10240.650 5274.592 3117.958 9655.462 6174.462 8299.186 2249.894 8171.997 0.000 6053.448 6455.691 6916.042 12495.113 3609.722 5578.539 4539.825 9448.074 15688.058 3015.935 7295.234 4160.833 6243.731 8190.775 4256.111 5356.499 2061.137 6413.787 2144.028 10054.938 15207.565 14019.341 8110.369 5299.546 5698.288 7504.127 2167.157 9937.833 8004.415 5378.525 9210.723 7623.221 7084.900 10159.169 12656.587 17516.440 7466.600 7068.092 7746.489 7023.806 8653.443 2263.721 6918.182 5194.050 10187.958 11950.212 5254.375 8679.846 7302.128 11982.548 9310.846 13845.609 7283.047 5588.045 18743.027 10100.706 14734.570 3911.540 10922.898 17936.554 11889.220 8488.610 17551.180 14105.501 12632.596 13174.734 10546.035 18530.138 12625.692 13100.879 6487.577 11804.296 9248.074 9976.124 15376.692 10579.797 2118.044 7510.755 9744.481 7811.243 3460.715 9935.543 10499.174
5751.028 1822.874 6796.074 7877.558 2238.103 8767.293 22035.372 14973.172 7947.017 11923.703 9890.065 4587.795 7933.350 10847.081 8320.209 5026.143 7295.630 6464.779 0.000 9480.594 7754.815 17605.964 4723.982 9236.723 9228.918 9108.675 12788.462 7846.095 7740.402 8888.060 11500.683 9586.601 8921.351 5520.626 4868.829 5894.285 4532.852 7467.969 14091.048 12467.123 6618.402 8957.730 5719.312 10211.209 5047.990 9187.120 9533.650 9993.999 9231.746 12312.315 7105.923 5746.449 14339.640 22228.417 4662.118 8224.443 8172.919 6476.199 4340.691 7051.428 10201.291 4218.102 5410.920 13868.660 4411.535 4677.763 6720.012 6338.723 5184.385 8635.011 12325.133 2177.913 16862.042 14789.799 9777.924 4081.172 13261.858 22648.531 6372.636 10171.663 18128.612 19623.832 14971.556 17863.828 4902.210 17413.620 17736.542 11498.992 3603.477 12996.395 4131.947 5861.472 18522.280 4935.972 5538.445 5387.855 4917.090 7832.267 3618.421 10166.690 12838.134
8571.951 10554.034 12160.529 11749.619 8876.072 10744.492 25416.347 22625.387 3258.599 15951.986 10864.197 5329.532 6048.562 10375.234 13684.665 5099.771 4563.556 6719.354 9603.459 0.000 12473.560 13144.708 8995.201 1950.093 5766.602 14833.553 21073.537 8819.500 3552.984 5644.786 10384.510 4048.103 9577.837 10741.978 5166.937 11799.266 5329.895 15177.380 20717.920 19404.820 13495.848 1612.206 11083.767 1256.529 4932.392 15323.312 13561.933 10968.130 14596.202 5158.216 12470.379 14924.164 18367.922 14839.119 12175.346 3245.042 3992.464 12409.285 13253.701 6280.064 720.697 10579.529 14588.634 17753.777 10639.854 13280.104 12687.607 14340.627 13911.104 17593.544 11477.005 10065.477 24177.358 7904.305 18955.639 9215.419 16726.463 15259.232 12635.509 14199.946 23108.697 15425.620 18436.161 9995.961 14079.925 24040.492 12725.895 18486.358 11116.706 17361.814 13309.661 14804.349 21180.256 14113.687 7668.579 12896.234 14094.804 13196.722 8721.347 15475.619 16302.739
4289.155 6292.286 1248.622 1599.384 6078.274 15225.830 14732.563 10958.552 12395.167 4620.894 4940.029 8218.215 13534.097 6266.074 1757.095 7852.993 12896.377 6929.608 7496.384 12587.815 0.000 14389.045 3735.531 11895.679 10108.028 2872.189 9735.805 6075.305 12596.439 9628.110 7463.980 13905.805 5769.465 2270.733 7621.762 3321.013 7444.883 5335.855 8468.088 8067.088 3693.517 11616.687 2039.244 13541.875 7799.851 3718.159 2230.841 4883.653 2588.588 13286.942 1022.189 6910.891 7036.831 21302.564 4826.760 12589.673 13038.372 2386.596 6552.933 8743.300 13235.323 3868.283 7170.596 6565.851 3588.134 6421.622 2692.973 10882.300 6830.060 9828.008 7446.271 5887.623 12003.550 15209.656 10272.587 4138.127 5959.049 21722.678 12341.688 2868.854 11137.342 15389.484 7668.747 18334.510 8950.083 11790.660 15473.967 7148.626 4954.014 5615.361 7295.880 6727.846 11513.275 8969.186 5518.290 4086.797 7353.549 1280.965 4686.997 3196.066 5535.325
13083.415 17764.119 14801.490 13343.985 16385.904 23772.106 19314.628 24539.942 16286.213 15569.839 9834.734 14807.173 19076.176 8470.759 15817.617 13978.411 17591.170 12074.263 17873.154 13148.276 14416.673 0.000 14354.639 12133.047 9048.979 16480.288 23459.736 10741.091 16580.598 9484.895 7324.816 17086.811 9999.938 14620.709 13789.654 15729.806 13951.599 19370.226 22049.478 21926.929 17195.231 12610.279 14448.037 13938.877 13860.190 17336.346 14675.391 10254.598 16196.687 8562.164 14993.736 19875.286 18187.648 9594.444 17182.717 16272.656 17020.078 15836.037 18916.196 12665.788 13378.583 15711.385 20134.990 16316.857 15493.913 18942.599 16243.842 23245.564 19573.599 23327.993 7199.951 17036.268 25584.940 5866.332 24216.954 14988.047 15761.918 10014.558 23708.926 14019.672 24100.360 2367.299 16740.870 7871.097 21563.614 25333.575 1111.102 21163.323 16870.502 18353.477 19659.143 19692.241 15078.538 21582.717 13189.712 17226.871 20007.234 15647.088 14908.939 16777.456 15414.597
1361.727 3606.725 3224.417 3534.782 2830.891 12517.306 17668.423 13689.275 8718.724 7616.300 5487.892 4541.771 10286.714 6455.192 4748.552 4176.550 9408.383 3544.260 4589.010 8920.846 3717.221 14258.968 0.000 8312.141 7448.171 5897.440 12137.424 3776.034 8919.996 6850.477 7108.795 10229.362 4529.463 1805.866 3945.319 2863.153 3768.440 6504.305 11781.807 10468.707 4559.735 8033.148 2147.655 9874.907 4123.408 6387.200 5226.247 5439.310 5660.090 10627.085 3534.266 6608.536 10032.237 20203.260 3915.967 8913.230 9361.929 3473.172 5645.613 5357.953 9641.543 1643.416 6868.240 9561.257 1703.742 5672.017 3751.495 9273.377 6303.016 10294.975 7933.245 3179.099 15241.246 12798.185 11183.936 642.810 8894.909 20623.373 10089.140 5864.260 14480.782 15377.439 10604.607 15920.030 7836.865 15104.380 14580.366 9550.246 3320.750 8958.802 6366.300 6425.490 13975.109 7870.627 2245.928 3960.121 6736.652 4260.610 1439.613 6539.507 8471.185
7900.441 10058.680 11629.964 11078.109 8380.718 12411.879 23895.963 22094.822 4925.986 15191.527 9256.397 5304.308 7715.949 8767.434 13154.100 4811.051 6230.943 5911.264 9181.895 1788.049 11802.050 11930.338 8464.635 0.000 4158.802 14302.987 20542.971 7348.103 5220.371 4036.986 8776.710 5772.086 7970.037 10211.413 4878.217 11268.700 5041.175 14682.025 20093.573 18874.255 12965.282 636.802 10553.202 2751.351 4643.672 14792.747 12890.423 9360.330 14065.637 4224.501 11939.813 14492.040 17696.413 14362.680 11679.992 4912.430 5659.851 11878.719 12758.346 5380.727 2158.684 10048.963 14292.861 16487.323 10109.289 12784.750 12157.042 14422.283 13415.749 17547.398 9869.205 9570.122 23629.035 7407.883 18690.311 8684.854 15460.010 14782.794 13395.167 13528.436 22437.188 14253.979 17169.708 9519.522 13814.597 23416.146 11775.935 17955.793 10621.351 16690.304 12837.626 14308.995 19659.872 13848.359 6997.069 12365.668 13829.477 12666.157 8190.782 14821.551 15036.286
6223.339 9894.695 10067.337 8729.657 8216.732 15239.253 20442.003 20267.871 8650.585 12033.995 5868.384 5837.252 11325.800 5313.474 11526.728 5123.167 9842.336 4057.585 9017.910 5672.754 9881.974 8777.383 7218.721 3967.437 0.000 12189.399 19104.546 4495.289 8944.970 736.691 5040.055 9656.791 4535.266 8772.988 4934.410 9830.275 5096.355 13525.219 17777.407 17435.830 11526.857 4574.688 9114.777 6636.056 5004.946 13045.457 10574.256 5978.578 11905.798 3554.384 10313.015 13629.450 14626.956 13374.968 10936.881 8637.028 9384.450 10440.294 12499.159 3910.212 6043.389 8664.330 13889.154 13329.791 8724.656 12525.563 10718.617 15087.125 13156.562 17315.889 6200.611 9406.137 21312.868 5936.350 18204.850 7757.257 12302.478 13795.082 14853.682 10458.980 20121.021 10892.678 14012.176 9010.379 13650.612 21099.979 8907.961 16517.368 10333.293 14374.138 12673.640 13446.404 16205.913 13684.374 5694.872 10981.035 13590.198 11039.359 7306.432 12505.385 11878.754
6692.955 7456.289 2785.730 3999.259 7764.513 16329.135 14561.189 8698.342 14577.412 4557.401 7032.213 10400.460 15699.271 8297.096 1312.757 10035.238 15061.551 9402.949 8858.804 14779.535 2982.742 16399.597 5917.777 14170.830 12325.834 0.000 7499.282 8404.549 14778.685 11965.634 9587.273 16088.051 7987.271 4446.115 9804.008 4286.757 9627.129 4076.573 6207.878 5830.565 3312.788 13891.837 3826.174 15733.596 9982.096 888.388 2877.940 6975.837 377.048 15504.748 2505.022 5865.288 6310.303 23381.813 4857.653 14771.919 15220.159 3046.697 6177.585 11216.641 15500.232 5571.605 6124.992 6458.169 5291.457 5940.617 2550.725 9947.121 5799.640 8652.402 9477.293 7461.201 9743.340 17373.770 8542.351 6303.301 6429.679 23801.927 12456.021 3729.282 10007.284 17400.037 7960.913 20498.624 7961.129 9530.450 17484.520 5066.959 5536.080 4765.154 6920.532 5682.243 11805.441 7980.233 8037.422 4029.298 6307.945 1841.420 6852.171 1544.065 6005.955
13085.983 12192.856 9178.758 10890.493 12584.942 17825.844 15842.118 2447.669 20223.974 10026.257 13923.447 16519.587 19952.436 15188.330 8348.064 16297.424 19320.329 15665.135 12507.935 21041.721 9757.694 23290.831 12179.963 20433.016 19217.067 7475.240 0.000 15295.782 20017.359 18674.442 16478.506 21863.558 14878.505 10839.144 16066.193 10159.978 15889.314 6382.589 3987.930 1668.717 8562.255 20154.023 10219.203 21995.782 16244.282 6657.279 9564.984 13867.070 7612.596 22395.981 8898.051 7780.000 9626.698 30273.046 9374.920 20501.400 20449.876 9063.067 9798.261 17478.827 21762.418 11293.470 8085.053 10229.756 11056.662 9776.657 8597.582 10401.358 9234.725 6520.665 16368.527 12281.630 4336.538 24265.003 5654.053 12565.487 11148.822 30693.160 13950.126 10416.326 8127.793 24291.270 11594.398 27389.858 8221.898 6254.806 24375.753 3778.963 10441.585 8309.150 10372.630 7884.096 14263.530 7973.022 14357.100 8663.731 8523.973 8599.665 13114.356 7352.614 11265.677
3194.268 7562.694 6778.794 5375.199 6324.659 15534.345 17257.905 16913.412 9886.804 8699.910 2540.558 5923.113 12460.617 3497.574 8172.270 5055.050 10977.153 3105.526 8082.778 8769.987 6527.516 10908.525 4352.643 7064.670 4418.885 8834.941 15814.389 0.000 10100.389 3821.191 4003.994 10995.930 1450.895 5607.252 4866.293 6964.197 4949.184 10659.140 14422.949 14150.012 8660.779 7671.922 6056.186 9733.289 4972.313 9690.998 7219.798 2644.492 8551.340 7597.800 7002.429 10763.371 11292.870 16941.391 8070.802 9873.248 10551.644 7574.216 9804.281 4066.302 9140.622 5798.251 11023.075 9995.706 5858.577 9830.684 7852.538 13229.347 10461.684 14449.810 4975.627 6834.843 17958.410 9768.900 15338.771 4960.547 8968.392 17361.505 13732.724 7124.894 16766.563 12026.996 10678.090 12890.745 11792.834 17745.521 11182.588 13231.551 7647.596 11019.679 10494.873 10580.326 13021.815 11826.596 2828.793 8114.956 10895.319 7728.773 4707.514 9150.927 8544.668
9225.174 8930.058 12059.038 12309.817 7557.041 7813.981 26348.022 21944.428 277.302 16450.922 12009.831 4790.215 2503.941 12939.241 13583.174 5813.035 1633.044 7651.029 7653.553 3568.302 12551.843 16571.959 8893.710 5377.344 8899.867 14732.062 19974.080 9751.175 0.000 8778.051 13008.510 1923.410 10991.350 10640.487 5880.201 11697.775 5734.639 13858.348 20347.786 18723.860 12812.599 4980.705 10982.276 3614.669 5645.656 15221.821 14060.868 12113.765 14494.711 8585.467 12368.887 12974.258 18866.858 18266.369 10856.315 524.112 565.782 12307.794 11533.079 7945.444 4028.838 10097.856 12638.729 18395.879 10291.910 11870.151 12586.116 11568.999 12376.772 14926.803 14047.826 8746.446 23496.399 11331.555 16641.752 8600.600 17602.222 18686.483 9704.998 14698.882 23315.403 18852.871 19311.920 13423.211 12130.019 23670.358 16153.145 17805.399 9797.674 17793.423 11359.756 13089.281 22111.931 12163.781 8223.293 11605.110 12144.899 13095.231 8097.265 15374.128 17178.498
5762.817 9702.371 9606.815 8423.421 8162.953 15455.268 20214.941 20006.353 8866.599 11806.933 5641.321 5898.150 11541.815 5086.412 11103.771 5069.387 10058.350 3792.275 8964.130 5888.768 9503.394 9394.906 6758.200 4183.451 1143.259 11927.882 18644.025 4034.767 9160.984 0.000 5122.161 9872.805 4308.204 8312.467 4880.630 9369.754 5042.576 13064.697 17515.889 16975.308 11066.336 4790.703 8654.256 6852.070 4951.167 12751.092 10312.739 5751.515 11644.280 4239.948 9852.493 13168.928 14399.894 14142.757 10476.359 8853.042 9600.464 9979.773 12039.918 3818.818 6259.403 8203.809 13428.632 13102.729 8264.134 12066.322 10258.096 15033.345 12697.321 16855.367 6188.183 8974.520 21051.351 6704.139 17744.329 7298.016 12075.415 14562.871 14799.902 10231.917 19859.504 11510.201 13785.113 9778.168 13596.832 20838.462 9525.485 16056.847 9874.052 14112.620 12619.861 12985.883 15978.850 13630.595 5234.350 10520.513 13130.957 10578.837 6847.191 12243.868 11651.691
5941.006 10760.244 7665.907 6230.924 9545.079 18446.620 17048.759 17614.986 12799.079 8857.115 2699.151 8835.387 15372.892 1335.176 8888.237 7967.324 13889.427 5717.430 11303.198 10402.703 7383.241 7473.738 7212.230 8697.386 5255.766 9550.909 16530.357 3835.680 13012.664 5131.183 0.000 13908.205 2857.529 7478.300 7778.567 8587.398 7861.458 12234.644 15124.522 14997.549 10059.648 9304.637 7305.629 11366.005 7884.587 10406.966 7750.435 3119.016 9267.307 7837.824 7858.154 12732.877 11450.076 14137.686 10040.308 12785.522 13463.918 8700.455 11773.787 6660.102 10773.338 8568.976 12992.581 10152.911 8351.504 11800.190 9108.260 16103.155 12431.190 16192.411 1524.936 10055.263 18659.984 8129.643 17081.372 7845.639 9125.598 14557.800 16953.144 7282.100 17297.200 8592.209 10835.295 11254.498 14421.205 18422.700 8378.883 14087.276 9728.093 11550.316 12516.734 12549.832 12812.668 14440.308 6284.301 10084.463 12864.825 8584.498 7927.934 9852.500 8701.874
10328.835 10681.850 13484.694 13506.503 9308.833 8631.417 27391.641 23696.220 1785.276 17708.869 13053.451 6152.211 2736.336 13982.861 15008.830 6856.654 2946.226 8694.648 9405.345 3957.837 13977.499 17102.545 10319.365 5907.930 9565.489 16157.717 21725.872 10794.794 1837.166 9443.673 14052.130 0.000 12034.970 12066.143 6923.820 13123.430 6778.258 15610.140 22042.085 20475.652 14564.391 5540.403 12407.932 3346.276 6689.275 16647.477 15318.816 13157.384 15920.367 9116.053 13794.543 14726.050 20124.806 18796.955 12608.107 1496.894 1595.591 13733.449 13284.871 8989.063 4129.678 11849.647 14390.520 19653.826 11964.019 13621.942 14011.772 12929.405 14128.564 16287.209 15091.445 10498.237 25248.191 11862.141 18002.159 10352.392 18701.757 19217.069 11065.404 15956.829 24741.059 19383.457 20411.455 13667.749 13881.811 25364.657 16683.732 19557.191 11549.466 19118.697 13111.547 14841.073 23155.551 13915.573 9310.732 13356.902 13896.691 14520.887 9849.057 16799.784 18278.033
3332.357 8151.595 5955.703 4520.719 6936.430 16444.168 16094.917 16058.933 10796.626 7687.251 1517.184 6832.935 13370.440 2237.806 7317.790 5964.872 11886.975 4095.208 8694.549 9376.285 5673.037 9932.936 4603.581 7670.968 4457.996 7980.462 14959.910 1401.679 11010.212 4218.503 2852.183 11905.752 0.000 5452.474 5776.115 6754.614 5859.006 10524.439 13568.469 13295.533 8349.443 8278.219 5472.845 10339.587 5882.135 8836.519 6365.319 1631.833 7696.860 7636.910 6147.949 10707.051 10280.211 15965.802 8014.482 10783.070 11461.466 6990.250 9747.961 5037.880 9746.920 6018.364 10966.756 8983.047 6078.689 9774.365 7398.055 13818.247 10405.364 14393.491 3715.858 7446.614 17103.931 9583.594 15282.452 5236.989 7955.733 16385.916 14344.495 6112.235 15912.084 11051.407 9665.431 12705.439 12381.734 16891.042 10206.999 12377.071 7702.267 10165.200 10490.909 10524.006 11858.826 12414.482 3738.615 8058.637 10839.000 6874.293 5319.285 8296.447 7532.009
2792.921 4076.588 1665.698 2806.842 3842.780 12987.818 16934.712 12306.707 10510.212 6823.043 5580.749 6333.260 11632.071 6785.425 3189.834 5968.038 10994.350 5335.749 5258.372 10712.335 2639.121 14758.292 1850.577 10103.630 8942.751 4338.721 10754.856 5181.299 10711.485 8345.056 7608.119 12020.851 5704.076 0.000 5736.807 1674.548 5559.929 5568.433 10279.313 9086.140 3371.130 9824.637 588.936 11666.396 5914.896 4837.155 4432.990 5532.167 4101.371 12121.665 1975.547 5743.101 9238.979 21342.600 3050.532 10704.718 11152.958 2284.567 4784.011 7149.441 11433.032 1652.585 6002.805 8768.000 1372.437 4810.414 2562.890 9113.379 5441.414 9429.540 8263.478 3649.611 13814.775 14292.765 10318.502 2236.101 8161.198 21762.714 10248.863 5071.003 13272.953 15876.763 9870.896 17414.610 7431.429 13601.885 15583.797 8167.678 2738.317 7880.701 5526.958 5560.056 13625.448 7450.532 4027.714 3094.686 5875.049 2701.891 2784.970 5036.314 7737.474
3986.720 5705.187 7293.869 7164.388 4027.225 11004.415 21179.347 17758.727 5570.135 11366.755 6841.156 1393.183 8038.854 7770.566 8818.004 307.261 6559.991 2482.354 4828.402 5162.190 7786.673 13512.521 4128.540 4853.259 5135.476 9966.892 16206.876 4582.500 5771.408 4794.618 7839.835 6771.571 5822.675 5875.317 0.000 6932.605 376.266 10328.532 15851.259 14538.159 8629.187 4574.266 6217.107 6116.250 347.161 10456.651 8976.702 6945.090 9729.541 8193.790 7603.718 10138.547 13782.691 18134.974 7326.499 5648.889 6222.663 7542.624 8404.853 2957.986 5882.887 5712.868 9939.369 13311.712 5773.193 8431.257 7820.947 10897.617 9062.256 13193.905 8879.151 5216.630 19310.698 10696.356 14336.818 4348.758 12456.793 18555.088 10442.261 9614.715 18523.466 15627.817 14166.491 13770.383 9461.104 19173.831 13643.100 13619.698 6267.858 12776.583 8484.133 9955.502 16943.256 9494.866 3083.348 8029.573 9475.984 8330.062 3854.686 10608.958 12033.069
3830.211 4350.218 2176.897 3570.750 4607.226 13286.718 17698.620 11694.004 11547.502 7586.951 6529.537 7370.550 12588.023 7734.213 3492.308 7005.328 11950.303 6373.039 5752.733 11749.625 3403.029 15758.388 2887.867 11140.920 9980.041 4313.484 10142.154 6307.904 11748.775 9382.346 8608.215 13058.141 6798.644 1972.786 6774.097 0.000 6597.219 4631.493 9786.537 8473.437 2564.465 10861.927 1301.961 12703.686 6952.186 4391.929 5196.898 6480.955 4349.934 13158.955 2507.332 4875.232 9948.709 22342.697 2182.663 11742.008 12190.248 1477.901 3916.142 8186.731 12470.322 2151.262 5134.936 9531.908 1863.212 3942.545 1756.224 8245.509 4573.545 8519.634 9212.266 4355.130 13245.975 15330.055 9408.595 3273.391 8925.106 22762.810 9733.134 5834.911 13804.738 16876.859 10634.804 18451.900 6563.559 13109.109 16583.893 7554.975 2430.009 8444.845 4659.089 4692.187 14389.356 6582.663 5065.004 2191.012 5007.180 3233.676 3822.260 5410.414 8501.382
3902.030 5351.440 6940.122 7079.698 3673.478 10910.703 21145.616 17404.980 5476.422 11282.064 6927.663 1299.470 7945.141 7861.700 8464.257 558.910 6466.279 2573.488 4474.655 5413.839 7432.927 13633.000 3774.793 5104.908 5255.954 9613.145 15853.129 4669.006 5677.695 4915.096 7930.969 6677.858 5909.182 5521.571 335.977 6578.858 0.000 9974.786 15497.513 14184.413 8275.440 4825.915 5863.360 6367.899 515.400 10102.905 8892.011 7031.596 9375.795 8339.351 7249.971 9784.801 13698.001 18255.453 6972.752 5555.176 6128.950 7188.877 8051.107 3078.464 6134.535 5359.121 9585.622 13227.021 5419.447 8077.510 7467.200 10543.870 8708.510 12840.158 8970.285 4862.883 18956.951 10816.835 13983.072 3995.012 12372.102 18675.566 10310.428 9530.024 18196.487 15748.295 14081.800 13890.863 9107.358 18820.085 13763.578 13265.951 5914.112 12674.507 8130.386 9601.755 17029.763 9141.120 2766.160 7675.826 9122.237 7976.315 3500.940 10255.212 11948.378
7584.108 5810.267 4815.663 6570.708 6340.223 13250.287 17989.348 8468.495 14024.785 8192.118 9931.152 10274.867 14322.013 11257.197 4255.907 10623.845 13684.292 10126.935 7072.019 15295.663 5394.599 19380.167 6641.763 14793.090 13733.937 4085.895 6283.784 10061.800 13937.705 13136.243 12318.629 15783.904 10558.121 5732.263 10425.196 4436.393 10089.219 0.000 7929.961 5840.274 2543.706 14514.097 5061.439 16162.407 10604.356 3583.811 6853.685 9874.776 4399.462 16912.852 4534.956 2041.964 9763.972 26102.174 3254.548 14375.325 14370.222 3722.347 3544.938 11940.628 16016.359 5173.098 2347.017 10059.442 4936.290 3394.068 3281.550 6628.581 2981.401 4578.078 12437.394 6036.910 10357.364 19083.951 5445.455 6784.185 10064.396 26522.288 9373.213 7656.384 12069.950 20380.607 11562.186 22205.796 4387.710 11044.296 20343.371 4589.520 4317.066 8366.427 4287.885 2146.061 15406.714 4338.147 8818.901 2543.359 2785.937 4379.965 7022.104 5186.111 9640.672
12509.817 12596.320 8713.186 9610.308 12920.509 20686.953 12439.014 3329.957 20523.361 7756.105 12643.262 16346.409 20902.299 13908.146 7303.578 15981.187 20264.579 15150.270 14008.820 20725.484 8593.791 22010.646 11863.725 20116.342 17936.883 6232.386 3994.525 14015.598 20517.991 17576.683 15198.322 22033.999 13598.320 10404.290 15749.956 9843.741 15573.077 7894.089 0.000 2516.672 8266.509 19837.349 9784.349 21679.544 15928.045 5748.391 7843.926 12586.886 6344.907 21115.797 8479.312 9901.078 7161.834 28992.862 9710.486 20717.867 20950.508 8746.829 10729.258 16963.962 21446.180 11128.590 10206.132 7764.893 10848.442 10492.290 8281.344 13407.477 10303.228 9810.772 15088.342 12617.197 4374.955 22984.819 8944.161 12249.249 8683.959 29412.976 16809.879 8695.269 4480.608 23011.086 9129.535 26109.673 11228.017 3452.586 23095.569 4310.534 10777.151 5844.286 11472.206 9800.369 10860.426 10979.141 13738.952 8999.297 10426.072 7797.972 12798.119 5291.947 8995.525
11417.267 10888.487 7510.041 9221.776 11212.675 18399.357 14260.259 3220.567 18897.238 8444.398 12254.730 14993.929 19194.466 13519.613 6679.347 14628.707 18556.745 13996.418 12300.986 19373.004 8088.977 21622.114 10511.246 18764.299 17548.350 5806.523 1668.717 13627.065 18810.157 17005.726 14809.789 20656.356 13209.788 9170.427 14397.477 8491.262 14220.598 5693.801 2406.071 0.000 6893.538 18485.306 8550.486 20327.065 14575.565 4988.562 7896.268 12198.354 5943.880 20727.265 7229.334 7700.790 7957.981 28604.329 8002.653 19247.778 19242.674 7394.350 8806.360 15810.110 20093.701 9776.111 8005.844 8561.040 9495.962 8569.392 6928.865 10974.871 8380.330 7378.167 14699.810 10909.363 4868.056 22596.287 6511.555 10896.770 9480.106 29024.443 14523.639 8747.610 6756.665 22622.553 9925.682 25721.141 8795.412 5475.023 22707.037 2110.246 9069.318 6640.433 9549.308 7804.887 12650.085 8546.535 12688.383 7291.464 8444.764 6930.948 11445.640 5683.897 9683.818
5237.882 4779.139 2493.683 4248.727 5087.363 13715.639 17376.320 10310.025 12771.925 7405.976 7511.125 8778.221 13069.153 8740.788 2858.891 8412.999 12431.433 7780.710 6181.654 13157.296 3565.335 16919.946 4295.537 12548.590 11387.711 3104.950 8758.174 7715.575 12684.845 10790.017 9792.689 14465.811 8098.175 3380.456 8181.768 2275.553 8004.889 2989.424 8481.657 7089.457 0.000 12269.597 2709.632 14111.356 8359.857 3183.395 5584.162 7454.749 3231.207 14566.626 2497.434 3868.915 9125.434 23631.273 2180.503 13122.465 13117.362 1178.641 3727.157 9594.402 13877.992 3256.700 4128.619 9273.299 3019.892 3515.949 737.845 7950.748 3770.050 6909.414 10142.191 4784.051 11861.996 16737.725 7798.375 4681.062 9278.254 24051.387 10114.035 6257.804 12519.221 18038.417 10776.044 19859.571 5964.756 11804.230 17872.470 6170.996 2858.930 7580.285 4470.104 3685.870 14620.572 5983.860 6472.675 1352.148 4311.573 2912.610 5229.931 4399.969 8854.529
7932.929 10091.167 11662.451 11110.597 8413.205 12196.566 24275.577 22127.309 4710.673 15312.963 9636.011 5336.795 7500.636 9147.048 13186.587 4843.538 6015.630 5943.751 9214.382 1572.736 11834.537 12283.524 8497.123 631.538 4538.416 14335.474 20575.459 7727.717 5005.058 4416.600 9156.324 5556.773 8349.651 10243.900 4910.704 11301.187 5073.662 14714.512 20126.061 18906.742 12997.769 0.000 10585.689 2536.038 4676.159 14825.234 12922.910 9739.945 14098.124 4448.456 11972.300 14524.527 17728.900 14586.636 11712.479 4697.117 5444.538 11911.206 12790.833 5413.214 1943.371 10081.451 14325.349 16866.938 10141.776 12817.237 12189.529 14454.771 13448.236 17579.885 10248.820 9602.610 23661.522 7631.838 18722.798 8717.341 15839.624 15006.750 13427.654 13560.923 22469.675 14607.165 17549.322 9743.478 13847.084 23448.633 12129.121 17988.280 10653.838 16722.791 12870.113 14341.482 20039.487 13880.846 7029.556 12398.155 13861.964 12698.644 8223.269 14854.039 15415.900
3074.378 4253.042 1127.645 2268.789 4134.690 13279.728 16396.658 11768.654 10802.122 6284.990 5227.575 6625.169 11923.980 6432.252 2651.781 6259.948 11286.260 5627.658 5550.281 11004.244 2101.068 14456.427 2142.486 10395.539 9234.660 3800.668 10216.803 5356.226 11003.394 8636.966 7306.254 12312.760 5496.682 670.824 6028.717 1281.769 5851.838 5175.654 9741.260 8548.087 2978.351 10116.546 0.000 11958.305 6206.806 4299.102 3894.936 5178.994 3563.318 12413.575 1437.494 5480.086 8700.926 21040.735 2787.517 10996.628 11444.868 1891.788 4520.995 7441.351 11724.941 1829.039 5739.790 8229.947 1548.891 4547.399 2170.111 8850.363 5178.398 9063.795 7910.305 3941.521 13276.722 14584.674 9952.756 2528.010 7623.145 21460.849 10302.445 4532.950 12734.900 15574.898 9332.843 17706.519 7168.413 13063.832 15281.932 7629.625 2914.771 7342.648 5263.943 5297.040 13087.395 7187.517 4319.624 2795.866 5612.034 2163.838 3076.880 4498.261 7199.421
9356.630 11338.713 12945.208 12534.298 9660.751 11100.898 26360.707 23410.066 3237.490 16736.665 11984.471 6080.403 5733.197 11495.508 14469.344 5884.450 4919.962 7663.714 10255.590 1211.852 13258.239 14178.861 9779.879 3070.368 6886.876 15618.231 21858.216 9763.861 3427.239 6765.060 11504.784 3371.122 10698.111 11526.657 5951.616 12583.944 6114.574 15962.059 21502.599 20189.499 14280.526 2804.582 11868.446 0.000 5717.071 16107.991 14346.611 12088.405 15380.881 6268.375 13255.057 15576.295 19152.601 15873.271 12960.025 3031.013 3586.613 13193.963 14038.380 7384.174 966.555 11364.208 15240.765 18681.622 11424.533 14064.783 13472.286 14747.055 14695.783 18101.555 12597.279 10850.156 24962.037 8938.457 19607.770 10000.098 17670.824 16293.385 12991.915 14984.625 23893.376 16459.773 19380.522 10555.859 14732.056 24825.171 13760.048 19271.037 11901.385 18146.493 13961.792 15589.028 22124.617 14765.818 8453.257 13680.912 14746.935 13981.401 9506.026 16260.298 17247.100
3714.263 5713.893 7290.910 6891.931 4035.931 11221.110 20906.889 17755.768 5625.702 11094.297 6568.699 1609.878 8199.515 7498.109 8815.046 423.302 6716.051 2209.896 4837.109 5094.120 7615.872 13240.064 4125.582 4785.189 4863.019 9963.934 16203.918 4310.043 5839.287 4522.160 7567.378 6734.828 5550.218 5872.359 234.545 6929.647 397.503 10337.239 15848.301 14535.201 8626.229 4506.196 6214.148 6048.181 0.000 10453.693 8704.244 6672.633 9726.583 7946.415 7600.759 10147.254 13510.234 17862.517 7335.205 5612.145 6290.542 7539.666 8413.560 2685.528 5814.817 5709.910 9948.075 13039.254 5770.235 8439.963 7817.988 10906.324 9070.963 13202.612 8606.693 5225.336 19307.739 10423.899 14345.525 4345.800 12184.336 18282.631 10658.956 9342.258 18251.009 15355.359 13894.033 13497.928 9469.811 19170.873 13370.642 13616.739 6276.565 12504.126 8492.839 9964.209 16670.799 9503.573 2810.890 8026.615 9484.691 8327.103 3851.728 10606.000 11760.611
7176.198 7637.641 3268.972 4915.404 7945.865 16039.117 14969.777 8217.296 15060.655 4999.433 7948.358 10883.703 15927.655 9213.241 2005.506 10518.481 15289.935 9886.192 9040.156 15262.778 3847.520 17315.742 6401.020 14654.073 13241.978 973.472 6679.398 9320.693 15261.928 12781.274 10503.417 16571.294 8903.416 4929.358 10287.250 4468.301 10110.371 3451.971 5726.833 5010.681 3270.535 14375.080 4309.417 16216.839 10465.339 0.000 3819.082 7891.982 1318.191 16420.892 2988.265 5335.578 6718.891 24297.957 4857.857 15255.161 15703.401 3371.390 6081.422 11699.884 15983.475 5753.150 5595.282 6866.756 5473.002 5844.454 2905.904 9417.411 5655.392 8027.799 10393.438 7642.553 9262.294 18289.914 7799.510 6786.544 6871.711 24718.071 12162.043 4670.424 9764.396 18316.181 8369.501 21414.769 7431.419 9049.405 18400.665 4247.075 5717.432 5173.742 6824.369 5152.533 12214.029 7450.523 8520.664 4029.502 5778.235 2616.304 7335.413 1993.426 6447.986
5293.080 8180.987 3453.553 2393.571 7966.976 17114.531 13072.449 10234.550 13923.967 2606.666 5405.399 9747.015 15422.798 6523.621 2837.293 9150.940 14613.626 7933.533 9385.085 13591.740 2221.033 14626.121 5264.331 12899.605 10720.146 2810.744 9161.943 6798.861 14125.239 10359.946 7813.797 15232.448 6381.583 4159.435 8962.183 5209.714 8897.080 6831.634 7744.086 7956.123 5898.447 12620.612 3927.945 14545.801 9097.798 3699.132 0.000 5349.023 2491.765 13899.060 3227.119 8575.570 5022.603 21608.337 6715.462 14109.765 14567.172 4591.526 8448.940 9747.225 14239.248 5756.984 8835.274 4794.258 5476.836 8475.344 4885.724 12657.403 8509.922 11407.463 7703.817 7776.324 11279.548 15600.294 11206.980 5897.740 4413.877 22028.451 14230.390 1216.975 9656.003 15626.561 6008.634 18725.148 10671.412 10817.872 15711.044 7192.518 6842.715 3909.120 9191.888 8392.525 9853.162 10690.515 6522.215 6279.221 9018.228 3089.005 6575.698 2472.064 3990.153
4113.027 8811.990 5140.717 3572.354 7862.074 17373.865 15082.238 15044.514 11726.324 6461.763 255.684 7762.633 14300.137 1462.598 6303.371 6894.570 12816.673 5094.704 9620.193 10787.174 4760.630 9879.706 5290.463 9081.857 5910.638 6966.042 13945.490 2331.377 11939.909 5671.146 2752.449 12835.450 1452.643 5259.160 6705.813 6319.898 6788.704 9709.454 12554.050 12412.683 7534.458 9689.109 5038.129 11750.476 6811.833 7822.100 5188.641 0.000 6682.441 9089.553 5332.964 10513.738 9054.724 16591.315 7821.169 11712.768 12391.164 6175.264 9554.647 6264.349 11157.809 6412.513 10773.442 7757.559 6132.364 9581.051 6583.069 13884.015 10212.050 13667.221 2940.650 8372.258 16089.512 10498.406 14556.182 5923.871 6730.245 17011.429 15019.500 4886.747 14735.405 10998.177 8439.943 13623.260 12202.065 15860.905 10832.512 11562.086 7508.953 8988.522 10297.595 10330.692 10846.148 12221.169 4668.313 7609.458 10645.686 5991.046 6244.929 7282.028 6306.521
6482.844 7732.634 2547.939 3733.854 7699.870 16653.110 14248.773 8798.478 14367.302 4218.835 6766.808 10190.349 15489.160 8031.691 1047.351 9825.127 14851.440 9192.838 9115.461 14569.424 2717.337 16134.192 5707.666 13960.719 12060.428 368.167 7828.740 8139.143 14568.574 11700.229 9321.868 15877.940 7721.866 4236.004 9593.897 4370.748 9417.018 4400.548 6308.014 6160.023 3636.763 13681.726 3616.063 15523.485 9771.986 1233.106 2500.891 6710.432 0.000 15239.343 2294.911 6189.263 5997.887 23116.408 5138.074 14561.808 15010.048 3130.688 6501.560 11006.531 15290.121 5386.994 6448.967 6145.753 5106.846 6264.592 2634.716 10271.096 6123.615 8976.377 9211.888 7506.701 9843.476 17108.365 8866.326 6093.190 6091.113 23536.521 12779.996 3352.233 9769.911 17134.631 7629.950 20233.219 8285.104 9630.587 17219.115 5396.418 5812.425 4452.739 7244.507 6006.218 11474.478 8304.208 7827.311 4309.720 6631.920 1576.015 6642.060 1205.498 5667.388
9578.964 13154.502 13422.962 12085.278 11476.540 15749.286 23797.624 23623.492 8263.393 15389.617 9224.005 8638.424 11053.356 8286.414 14882.349 8084.697 9568.350 7317.393 12277.717 5125.455 13237.595 8243.473 10574.346 4219.462 3468.901 15545.020 22460.171 7850.914 8557.778 4058.523 7461.774 9109.492 7890.887 12128.613 8151.863 13185.900 8314.821 16880.844 21133.028 20791.455 14882.482 4407.430 12470.402 6048.500 7917.318 16401.078 13929.877 9334.199 15261.419 0.000 13668.640 16985.075 17982.577 10633.466 14292.506 8249.836 8997.258 13795.919 15758.966 7170.019 5488.207 12019.955 17244.779 16685.413 12080.281 15785.370 14074.242 18229.596 16416.369 20643.220 8622.330 12665.945 24668.490 3293.123 21560.475 11017.064 15658.099 11053.580 17202.480 13814.601 23476.642 10567.114 17367.797 5994.408 16910.419 24455.600 8071.834 19872.993 13593.101 17729.759 15933.448 16802.029 19561.534 16944.182 9050.497 14336.660 16850.005 14394.984 10566.239 15861.006 15234.375
4341.665 5727.927 403.722 2153.430 5558.691 14703.729 15713.969 10445.062 12226.123 5343.632 5639.254 8049.171 13347.982 6881.065 1327.361 7683.949 12710.261 7051.660 6974.283 12428.246 1105.496 15060.223 3566.488 11819.541 10544.436 2477.076 8893.211 6544.292 12427.396 9946.742 7932.966 13736.761 6238.452 2094.826 7452.718 2681.805 7275.839 4493.261 8417.668 7224.494 2692.046 11540.548 1474.885 13382.306 7630.807 2975.509 3212.247 5582.878 2238.898 13723.351 0.000 5927.455 7565.718 21771.550 3913.681 12420.629 12868.869 1385.125 5551.462 8865.352 13148.943 3303.924 6187.159 7492.318 3023.775 5420.151 1691.502 9880.830 5828.590 8985.414 8148.290 5365.522 11953.130 15678.642 9429.994 3952.012 6940.455 22191.664 11578.711 3850.260 11421.748 16091.503 8650.153 18803.496 7948.612 11740.240 16012.747 6306.033 4275.586 6061.854 6294.409 5744.409 12494.681 7967.716 5686.132 3085.326 6370.112 850.686 4500.881 3185.108 6516.731
7725.767 5385.536 5825.679 7589.483 6214.998 11287.003 19871.003 9817.134 13319.300 10073.773 10677.216 10040.968 13106.234 11881.893 5879.130 10479.315 12468.514 10233.085 5603.261 14852.877 7017.822 19906.067 6783.422 14667.865 13875.596 5838.076 7632.423 10203.459 13112.685 13277.902 12755.894 14958.884 10880.304 5892.801 10299.971 4824.594 9963.994 2047.690 9895.888 7806.201 3526.856 14388.872 5449.641 15583.492 10479.132 5465.466 8584.372 10628.634 6151.643 17054.510 6024.291 0.000 11645.627 26490.376 3180.024 13596.726 13545.202 4675.992 3043.639 12046.777 15573.573 5314.757 393.189 11941.097 5077.949 3148.312 4264.701 4665.297 2480.102 4345.714 13359.945 5911.685 11706.003 19225.610 5488.627 6925.844 11946.051 26910.490 7409.929 9279.607 13951.605 21024.538 13443.841 22347.455 2398.072 13010.223 20731.573 5938.159 4191.841 10248.082 3467.956 277.324 17288.369 2400.456 8960.560 2996.975 834.912 6003.188 6896.879 7067.766 11522.327
10034.308 12922.215 7739.567 7119.909 12708.204 21855.759 9218.774 10103.845 18665.195 2792.931 9032.984 14488.243 20164.026 10150.468 6665.740 13892.168 19354.854 12551.689 14126.313 18332.968 6962.261 17779.375 10005.559 17640.833 14724.641 6253.436 9602.441 10890.605 18866.467 14451.691 11440.644 19973.676 10266.646 8900.663 13703.411 9950.942 13638.308 9742.213 7088.553 7933.724 9278.148 17361.840 8669.173 19287.029 13839.026 6485.664 4959.937 8976.608 5954.482 17903.556 7505.693 11625.821 0.000 25235.184 10823.014 18850.993 19308.400 8765.272 12142.945 14365.381 18980.476 10498.212 11885.525 1822.235 10218.064 11905.977 8582.185 15707.654 11765.000 14089.848 11239.644 12517.552 11053.335 19227.141 13416.420 10638.968 2891.896 25655.298 18421.382 4487.459 6604.338 18523.224 2562.086 22351.995 13721.662 8659.797 18864.298 8013.222 11501.440 1604.855 12885.893 11442.775 6289.101 13740.766 11263.443 9994.659 12068.478 7101.220 11316.926 4898.728 3605.433
19192.160 23051.343 21496.017 20061.034 21373.381 25468.636 28010.079 31400.085 17982.743 22642.214 16529.261 18819.525 20772.706 15196.316 22673.336 18265.799 19287.700 17214.234 22174.558 14844.805 21213.351 9771.964 20187.542 14338.795 13156.648 23336.007 30315.455 16792.031 18277.128 13893.340 13890.215 18783.341 16119.948 21186.108 18091.058 22295.205 18253.003 26064.754 28909.621 28782.648 23889.758 14526.762 21013.436 15635.406 18098.419 24192.065 21535.534 16949.126 23052.406 10836.349 21688.264 26440.685 25235.175 0.000 23748.116 17969.186 18716.608 22530.565 25469.260 17066.860 15075.113 21633.151 26700.389 23938.010 21693.476 25495.664 22938.370 28243.773 26126.663 30022.521 14987.370 22403.862 32445.083 7669.462 30911.482 20727.358 22910.696 820.776 27359.653 21067.198 31082.298 11689.608 24620.394 5585.274 26807.260 32207.798 8778.282 27917.386 23303.394 25335.415 25830.289 26257.640 23773.989 26841.023 18663.692 23792.271 26560.299 22414.608 20276.533 23637.599 22486.972
5022.826 3069.042 3654.828 5048.682 3377.266 11998.673 19157.190 11241.406 11061.829 9064.882 8007.468 7311.911 11359.056 9212.145 4639.760 7660.889 10721.336 7395.353 4471.557 12332.706 4880.960 17236.319 4080.481 11830.133 11172.655 4885.820 9271.058 7500.519 10974.748 10574.961 10086.146 12820.947 8177.363 3189.860 7462.240 2154.846 7126.262 3245.704 9644.763 8020.838 2289.372 11551.141 2779.893 13199.451 7641.400 4884.158 6674.829 7958.886 5012.077 14351.570 3985.263 3142.716 10906.303 23820.628 0.000 11412.368 11407.265 2554.990 2020.687 9209.046 13053.403 2611.817 3402.420 11009.839 2375.009 2047.091 2518.715 6350.055 2678.090 6829.155 10690.197 3073.954 12793.377 16522.669 7718.117 4222.904 10403.037 24240.742 8407.566 7312.842 13682.327 18354.790 12112.735 19644.515 4668.105 12967.336 18061.825 7102.377 1150.318 9361.155 2763.635 2959.671 15867.288 4687.209 6257.619 818.686 3111.726 4637.146 4059.148 6180.839 9979.313
8979.935 9388.708 12111.700 12157.603 8015.691 8257.529 26042.742 22403.078 388.233 16359.970 11704.551 4685.066 2909.432 12633.961 13635.835 5507.755 2076.593 7345.749 8112.203 3263.022 12604.504 16266.679 8946.371 5072.064 8594.587 14784.723 20432.730 9445.895 473.208 8472.771 12703.230 1520.154 10686.070 10693.148 5574.921 11750.436 5429.359 14316.998 20669.090 19182.510 13271.249 4675.425 11034.938 3200.315 5340.376 15274.482 13969.917 11808.485 14547.372 8280.187 12421.549 13432.908 18775.907 17961.089 11314.965 0.000 835.656 12360.455 11991.729 7640.164 3614.484 10530.699 13097.379 18304.927 10591.024 12328.800 12638.778 12012.548 12835.422 15370.351 13742.546 9205.096 23955.049 11026.275 17085.301 9059.250 17352.858 18381.203 10148.546 14607.930 23368.065 18547.591 19062.556 13117.931 12588.669 23991.662 15847.865 18264.049 10256.324 17769.798 11818.406 13547.931 21806.651 12622.431 7961.833 12063.760 12603.549 13147.893 8555.915 15426.789 16929.134
9521.144 9116.338 12245.318 12496.096 7743.320 7820.951 26562.015 22130.707 573.272 16637.201 12305.801 5019.664 2450.548 13235.211 13769.453 6109.005 1682.683 7946.998 7839.832 3864.271 12738.122 16867.928 9079.989 5673.313 9195.836 14918.341 20160.359 10047.144 325.576 9074.020 13304.480 1729.675 11287.320 10826.767 6176.171 11884.054 6030.609 14044.628 20534.065 18910.140 12998.878 5276.674 11168.556 3746.204 5941.625 15408.101 14247.148 12409.735 14680.990 8881.436 12555.167 13160.537 19053.138 18562.338 11042.594 677.959 0.000 12494.073 11719.358 8241.413 4259.299 10284.135 12825.008 18582.158 10478.189 12056.430 12772.396 11638.138 12563.052 14995.942 14343.795 8932.725 23682.678 11627.524 16710.892 8786.879 17788.501 18982.452 9774.137 14885.161 23501.683 19148.840 19498.199 13719.180 12316.298 23856.637 16449.115 17991.678 9983.954 17979.702 11546.035 13275.560 22407.901 12350.060 8519.263 11791.389 12331.178 13281.511 8283.544 15560.407 17364.777
4423.226 4854.857 1413.430 3177.234 5163.081 13791.357 17135.120 10576.039 12140.517 6810.670 6388.782 7963.564 13144.871 7618.444 2290.678 7598.342 12507.151 6966.053 6257.372 12342.639 2572.534 15797.602 3480.881 11733.934 10573.055 3137.166 9024.188 6900.918 12341.789 9975.361 8670.345 13651.155 6975.831 2565.800 7367.112 1460.897 7190.233 3729.175 8668.571 7355.471 1446.499 11454.941 1894.976 13296.700 7545.201 3273.964 4679.285 6332.405 3088.820 13751.969 1504.633 4542.329 8884.234 22508.929 2528.556 12335.023 12783.263 0.000 4166.337 8779.746 13063.336 2745.746 4802.034 8959.356 2465.597 4035.026 495.110 8495.704 4443.464 7617.317 9019.847 4859.769 12128.010 15923.069 8506.278 3866.405 8407.493 22929.043 10237.773 5317.298 12656.258 16916.073 10117.191 19044.914 6563.487 11991.143 16750.126 6437.010 2934.648 7339.085 4909.284 4359.284 13961.719 6582.590 5658.019 1700.201 4984.987 2082.156 4415.275 4208.784 7983.769
6821.992 2822.732 5410.667 6847.847 4299.310 10263.952 20671.037 12531.299 11243.120 10700.693 9806.634 7964.788 11205.343 11011.311 6327.025 8403.136 10567.623 8537.634 3527.081 12776.697 6680.126 19035.485 5879.647 12613.716 12605.911 6399.667 10346.588 9299.685 11036.506 12065.383 11885.312 12882.705 9976.529 4989.026 8245.822 3954.012 7909.845 4218.373 11080.138 9352.867 3724.746 12334.723 4579.058 13507.313 8424.982 6319.532 8473.995 9758.052 6699.342 15689.308 5741.103 2802.301 12420.150 25418.166 2064.935 11520.546 11469.023 4260.981 0.000 10351.326 13497.394 4410.983 2466.771 12568.016 4174.175 1083.037 4205.980 4329.368 1589.659 6440.288 12489.363 3465.122 14125.405 18013.091 7583.201 5474.717 12202.203 25838.280 6386.878 9112.008 15117.701 20153.956 13911.901 21134.936 2707.487 14402.710 19860.991 8434.405 2542.105 10875.002 742.947 2811.794 17666.453 2741.250 7465.940 2565.602 2023.295 6343.136 5237.308 7694.686 11778.479
4927.480 7740.447 8672.020 8038.713 6062.485 13380.036 21104.021 19136.878 7732.494 12137.620 6485.691 3768.803 10306.308 6646.964 10196.156 2936.224 8822.843 2108.839 6863.662 6415.201 8813.012 12422.008 5506.691 5367.822 4075.682 11345.043 17585.028 4302.231 7946.080 3704.104 6716.233 8841.620 5328.530 7253.469 2747.467 8310.756 2909.412 11951.908 17104.535 15916.311 10007.338 5088.829 7595.258 7438.910 2818.003 11834.803 9901.385 6589.625 11107.693 7159.079 8981.869 12056.139 14553.557 17075.181 9361.759 7718.938 8397.334 8920.775 10440.114 0.000 6846.243 7091.020 11974.629 13441.451 7151.345 10466.517 9199.098 12932.877 11097.516 15229.165 7755.548 7251.890 20639.997 9636.563 16372.078 5808.510 12414.138 17495.295 12699.434 10385.580 19448.149 14389.227 14123.836 12710.592 11496.364 20427.107 12552.586 14997.849 8303.119 13701.266 10519.393 11873.094 16867.931 11530.127 4015.014 9407.724 11511.244 9708.213 5357.685 11832.513 11990.414
9382.832 11403.939 13010.433 12560.500 9725.976 11484.836 25952.113 23475.292 3951.524 16762.867 11312.547 6179.436 6577.498 10823.584 14534.569 5949.675 5303.900 7446.115 10392.368 849.904 13284.441 13469.261 9845.105 2398.444 6214.952 15683.457 21923.441 9404.253 4141.273 6093.136 10832.860 4310.555 10026.187 11591.882 6016.841 12649.170 6179.799 16027.284 21567.824 20254.724 14345.752 2132.658 11933.671 1032.781 5782.296 16173.216 14372.814 11416.481 15446.106 5558.775 13320.283 15713.073 19178.804 15163.671 13025.250 3745.047 4503.722 13259.189 14103.605 6915.578 0.000 11429.433 15377.544 18481.538 11489.758 14130.008 13537.511 15129.536 14761.008 18382.454 11925.356 10915.381 25027.263 8228.857 19744.548 10065.323 17454.224 15583.785 13375.853 15010.827 23919.579 15750.173 19163.922 9846.259 14868.834 24890.396 13050.448 19336.262 11966.610 18172.695 14098.571 15654.254 21716.023 14902.596 8479.460 13746.138 14883.714 14046.626 9571.251 16303.942 17030.500
2688.010 2741.846 2951.537 4033.021 2587.975 11733.013 18190.835 12904.211 10124.002 8079.166 6535.608 6115.641 10568.772 7740.285 4475.672 5808.070 9931.051 5175.781 4003.566 10552.367 3910.278 15572.052 1690.609 9943.662 8837.390 5523.691 10944.284 5165.253 10036.922 8239.696 8421.879 11860.883 5842.547 1676.089 5576.840 2040.448 5399.961 4918.930 10996.743 9683.643 3271.268 9664.669 1874.775 11506.428 5754.929 5602.136 5689.113 6487.027 5387.210 12016.304 3261.386 5023.161 10495.103 21592.478 2330.592 10474.542 10469.439 2688.108 4064.070 6989.474 11273.064 0.000 5282.865 10024.123 290.222 4090.474 2966.431 8230.689 4721.473 8709.600 9218.337 2394.806 14456.182 14187.404 9598.561 1725.171 9417.321 22012.592 9046.451 6327.126 14558.792 16690.523 11127.019 17309.249 6711.488 14319.316 15893.450 8765.182 1867.207 9151.858 4807.018 4840.116 14825.497 6730.592 3867.746 2374.746 5155.109 3987.730 2134.470 6322.153 8993.597
7975.497 5050.905 6075.409 7839.213 6464.728 10992.568 20130.708 10122.187 12984.669 10333.478 10926.946 9706.337 12811.800 12131.623 6138.834 10144.685 12174.080 10482.815 5268.630 14518.246 7277.526 20155.797 7033.152 14355.265 14125.326 6097.780 7937.476 10453.189 12778.055 13527.632 13005.624 14624.254 11130.034 6142.531 9987.371 5074.324 9651.394 2352.743 10173.746 8111.254 3786.560 14076.272 5699.371 15248.862 10166.531 5725.171 8844.076 10878.364 6411.348 17304.240 6283.995 393.189 11905.331 26740.106 3429.754 13262.095 13210.572 4925.722 3095.346 12169.970 15238.943 5564.487 0.000 12200.801 5327.679 3200.019 4524.405 4370.862 2395.228 4712.178 13609.675 5796.505 12011.056 19475.340 5852.241 7175.574 12205.755 27160.220 7115.494 9539.311 14211.309 21274.269 13703.545 22597.185 2166.991 13315.276 20981.303 6243.212 4441.571 10507.787 3133.326 582.378 17548.073 2169.375 9210.290 3246.705 499.383 6262.892 7146.609 7327.471 11782.031
9718.715 12606.622 7726.745 6572.541 12392.610 21540.166 8815.777 10726.450 18349.602 2252.751 7803.794 14172.649 19848.433 8921.277 6877.627 13576.574 19039.261 11883.494 13810.720 17889.157 6728.834 16115.423 9689.966 16465.980 13495.451 6465.323 10225.046 9661.414 18550.874 13222.500 10211.453 19624.240 9037.455 8585.069 13387.817 9635.349 13322.715 9981.410 7711.158 8556.329 9490.034 16733.011 8353.580 18937.593 13523.432 6697.550 4763.519 7747.417 6166.368 16674.365 7492.871 11865.017 1956.813 24005.993 11034.900 18501.557 18992.807 8857.278 12354.832 13300.335 18351.648 10182.619 12124.721 0.000 9902.470 12117.863 8794.071 15946.850 11976.886 14557.239 9974.546 12201.959 11771.448 17997.950 14001.607 10323.375 1154.344 24426.107 18633.268 3947.280 8329.357 16859.271 1793.284 21122.805 13960.859 9803.827 17200.346 8635.828 11268.350 2748.885 13097.779 11681.972 5596.489 13979.962 10947.850 10206.545 12307.675 7313.107 11001.333 5110.615 1945.265
2810.734 2830.648 2722.108 3803.592 2855.753 11962.610 17961.406 12674.782 10391.780 7849.737 6306.179 6296.017 10836.550 7510.856 4246.243 5930.795 10198.829 5298.505 4233.163 10675.091 3680.849 15483.722 1813.333 10066.386 8960.114 5294.262 10987.520 5287.977 10304.700 8362.420 8333.549 11983.607 5965.271 1446.660 5699.564 1752.399 5522.685 4962.166 10767.314 9454.214 3314.503 9787.393 1645.346 11629.152 5877.653 5372.707 5459.684 6257.597 5157.781 12139.028 3031.957 5066.397 10265.674 21715.203 2373.828 10667.475 10737.217 2458.679 4107.306 7112.198 11395.788 290.222 5326.101 9794.694 0.000 4133.710 2737.002 8319.490 4764.709 8752.836 8988.908 2662.584 14226.753 14310.128 9641.797 1847.895 9187.892 22135.316 9135.253 6097.697 14329.363 16602.194 10897.590 17431.973 6754.724 14089.886 16016.174 8535.753 1910.443 8922.429 4850.254 4883.351 14596.068 6773.828 3990.471 2417.982 5198.345 3758.301 2396.764 6092.724 8764.168
6783.598 3345.246 5291.574 6809.454 4490.306 10786.466 19987.665 11572.639 11765.634 10017.321 9768.240 8424.950 11727.857 10972.917 5757.349 8773.928 11090.137 8535.222 4049.595 13299.211 6574.261 18997.092 5841.254 12943.173 12625.019 5716.295 9387.929 9261.291 11559.019 12062.971 11846.919 13405.218 9938.136 4950.632 8575.279 3915.619 8239.301 3345.400 10396.766 8586.087 3041.375 12664.180 4540.665 14029.826 8754.439 5636.160 8435.602 9719.659 6029.862 15708.415 5538.809 1843.641 11736.779 25415.754 2026.541 12043.060 11991.536 4141.887 522.514 10348.915 14019.908 4372.589 1508.112 11884.645 4135.781 0.000 3779.219 4607.006 630.999 6060.223 12450.970 3793.492 13358.625 18010.680 7203.136 5436.323 11889.599 25835.868 6909.392 9073.615 14434.330 20115.563 13387.389 21132.525 2621.014 13719.338 19822.597 7667.625 2503.711 10191.630 1265.461 1853.135 17231.917 2640.118 7463.529 2462.871 1064.635 5881.407 5199.017 7011.314 11465.875
4698.361 5097.918 1761.858 3516.903 5406.143 14034.419 16842.483 10112.113 12415.652 6812.544 6828.456 8238.700 13387.933 8058.119 2221.393 7873.478 12750.213 7241.188 6500.434 12617.774 2833.510 16237.277 3756.016 12009.069 10848.190 2642.055 8560.262 7176.053 12616.924 10250.496 9110.020 13926.290 7415.505 2840.935 7642.247 1736.032 7465.368 3385.853 8204.645 6891.545 1168.018 11730.076 2170.111 13571.835 7820.336 2810.038 4940.261 6772.080 2593.709 14027.105 1765.610 4414.097 8591.596 22948.604 2503.359 12610.158 13058.398 495.972 4122.414 9054.881 13338.471 3020.881 4673.802 8739.462 2740.732 3971.273 0.000 8451.782 4315.232 7489.085 9459.521 5102.831 11664.084 16198.204 8372.396 4141.540 8668.470 23368.718 10480.835 5578.275 12242.209 17355.748 10223.660 19320.049 6499.734 11527.218 17189.801 5973.084 3177.710 7046.448 4865.362 4231.052 14068.188 6518.838 5933.154 1675.004 4856.755 2275.112 4690.410 3799.208 8244.746
10697.142 6046.750 9745.657 11182.837 7593.971 8545.701 23972.424 12780.749 12011.900 14175.194 14115.441 9860.620 11065.208 15320.118 9980.551 10882.086 10560.410 11864.861 6082.333 14250.612 11015.115 23268.167 9592.631 14573.910 15161.163 9939.497 10596.038 12792.209 11793.855 14820.305 16142.812 13227.159 13867.465 9216.504 10801.074 8289.001 10465.096 6553.062 13372.468 11053.255 7628.277 14149.879 8914.048 14981.227 10980.234 9566.887 12685.793 14066.860 10253.064 18199.253 10076.092 4605.184 15747.048 28160.661 6399.924 12277.896 12091.175 8595.970 4580.273 12983.673 14971.308 8194.604 4269.655 16042.517 8283.406 4904.894 8366.122 0.000 4663.111 4653.827 16798.171 6792.349 14669.618 20722.044 6368.776 8954.144 16047.472 28580.775 3731.182 13381.027 17723.062 24411.456 17545.262 23625.523 2632.670 16291.504 23398.745 9512.633 6526.808 14349.503 4337.788 4720.207 21389.790 2773.723 10793.167 6900.591 3775.825 10104.609 8564.535 11169.187 15623.748
7576.635 3846.831 5676.547 7440.351 5307.514 10777.636 20216.756 11280.688 12267.219 10272.031 10528.084 8988.887 12229.443 11732.761 6012.058 9427.235 11591.722 9352.431 4551.180 13800.797 6959.234 19756.935 6634.290 13637.815 13442.227 5971.005 9095.978 10054.327 12060.605 12880.180 12606.762 13906.804 10731.172 5743.669 9269.921 4675.462 8933.944 2962.052 10259.794 8408.486 3659.785 13358.822 5300.508 14531.412 9449.082 5811.219 8717.300 10479.502 6284.572 16525.624 6006.982 1556.672 11991.379 26232.963 2843.750 12544.645 12493.122 4526.860 1024.099 11166.123 14521.493 5165.625 1221.142 12139.354 4928.817 1128.772 4397.629 4320.036 0.000 5773.253 13210.813 4489.221 13169.558 18827.889 6916.166 6253.532 12144.308 26653.077 6900.562 9412.535 14297.357 20875.406 13642.098 21949.734 2334.045 13582.366 20582.441 7401.713 3320.920 10446.340 1767.047 1566.165 17486.626 2353.148 8280.737 2847.843 777.665 6136.116 6016.226 7266.024 11720.584
11165.699 8237.297 8618.980 10374.024 9678.740 12243.457 21007.742 8322.812 15316.741 12418.437 13618.657 12892.729 14370.049 14848.319 8477.570 13331.077 13865.251 13696.827 8455.022 17486.626 9616.262 23027.477 10223.354 17541.657 17315.528 8341.366 6138.101 13643.392 15098.696 16717.834 15900.220 16532.000 14139.713 9313.855 13173.763 8017.984 12837.786 4255.471 9272.644 6953.431 6125.297 17262.664 8643.030 18217.241 13352.923 7839.282 11109.155 13562.280 8654.933 20494.443 8622.731 4352.514 13733.011 29683.766 6643.766 15582.737 15396.016 7303.938 6562.202 15356.362 18207.322 8754.690 4656.783 14285.761 8517.882 6732.585 6863.142 4823.987 6102.564 0.000 16249.722 8982.897 10211.681 22665.543 1716.180 10365.777 14290.715 30103.879 8367.739 11878.047 13623.238 24145.948 15700.712 25787.388 4168.986 12129.949 23924.962 6188.495 7655.583 12415.463 6319.718 4556.773 19130.341 3920.110 12400.492 6124.950 5080.523 8601.629 10360.622 9412.430 13866.991
6682.019 11501.257 7916.469 6219.611 10286.092 19468.265 15811.294 17550.154 13820.723 8649.716 2821.718 9857.032 16394.536 1417.516 8823.406 8988.969 14911.072 6739.075 12044.211 11515.416 7421.420 7139.530 7953.243 9810.099 6368.478 9486.077 16465.525 4751.341 14034.309 6243.895 1511.013 14929.849 3645.851 8088.158 8800.212 9148.897 8883.103 12456.583 15059.691 14932.717 10310.210 10417.350 7867.128 12478.717 8906.232 10342.135 7685.603 3176.692 9202.476 8797.202 8108.716 13317.663 11284.193 14826.657 10650.167 13807.167 14485.563 8951.016 12383.646 7681.747 11886.050 9241.511 13577.367 9945.512 8961.363 12410.049 9358.821 16713.013 13041.049 16442.973 0.000 10796.276 18595.152 8930.875 17331.934 8586.652 8918.198 15246.771 17694.157 7116.217 17196.905 8139.969 10627.896 12055.729 15031.064 18357.868 8224.452 14169.112 10337.952 11450.022 13126.593 13134.618 11575.204 15050.167 7088.277 10385.210 13474.684 8651.836 8668.947 9787.669 8494.474
4578.834 1309.862 5647.691 6729.175 1065.909 9782.165 20886.989 14668.348 8490.546 10775.320 8717.871 4740.628 8734.447 9674.887 7171.826 5089.606 8096.727 5746.553 1877.455 9761.424 6606.432 17149.858 3551.787 9258.851 9251.046 8026.792 12698.000 6673.901 8403.466 8910.188 10328.489 10249.665 7749.157 4372.243 4890.957 4812.402 4554.980 6562.517 13071.706 11447.780 5536.519 8979.858 4570.929 10628.169 5070.117 8105.237 8385.267 8821.805 8083.363 12334.443 5957.540 5997.262 13191.257 22250.545 3580.235 8841.086 8835.983 5394.316 3983.897 7073.556 10482.120 3069.719 5661.733 12720.277 3329.652 4153.621 5638.129 6992.411 4784.620 9288.699 11152.939 0.000 16220.319 14811.927 10431.613 2908.978 12113.475 22670.659 7387.508 9023.280 17109.269 18482.323 13823.173 17885.956 5555.898 16394.278 17280.437 10529.319 2521.594 11848.012 4273.750 6006.755 17350.086 5589.661 4674.859 4329.030 5218.256 6683.884 2446.227 9018.307 11689.751
15952.336 15618.198 12155.706 13052.828 15942.386 21762.795 14741.079 1801.250 23626.949 11292.241 16085.782 19723.640 23889.387 17350.665 10746.097 19358.418 23257.281 18592.789 16444.886 24102.715 12036.310 25453.166 15240.957 23494.010 21379.402 9674.905 4216.066 17458.117 23539.868 21019.203 18640.841 25386.067 17040.840 13846.810 19127.188 13220.973 18950.309 10319.541 4395.118 4825.228 11623.249 23215.017 13226.869 25056.776 19305.277 9190.910 11286.446 16029.406 9787.426 24558.317 11921.832 11716.951 10744.502 32435.381 12732.364 23977.489 23972.385 12124.061 13536.071 20406.482 24823.412 14505.822 12022.005 11539.625 14225.673 13299.103 11658.576 14338.309 13110.041 10457.617 18530.862 15639.074 0.000 26427.339 9577.726 15626.481 12458.692 32855.495 17887.077 12137.788 5344.074 26453.605 12712.203 29552.193 12158.850 3015.290 26538.089 6839.957 13799.029 9426.954 14279.019 11821.048 14108.865 11909.973 17181.472 12021.175 12460.924 11240.491 16175.351 8734.466 12531.661
11733.971 15596.746 15291.730 13856.747 13918.784 18868.754 23230.416 25285.915 11382.860 16528.044 10324.974 11364.928 14172.823 9034.946 16559.166 10811.202 12687.817 9759.637 14719.961 8244.923 15009.064 5967.739 12729.353 7502.731 5702.051 17221.837 24201.285 9831.743 11677.245 6438.743 7776.045 12183.458 9792.160 14283.620 10636.461 15340.907 10798.406 19035.851 22795.451 22631.561 17037.489 7706.926 14625.409 9035.524 10643.822 18077.895 15421.363 10744.839 16938.236 3658.811 15483.977 19140.082 19121.005 7876.040 16447.513 11369.304 12116.725 15950.926 18011.072 9612.263 8475.231 14174.962 19399.786 17823.840 14235.288 18037.475 16229.249 20789.176 18668.475 22826.521 8936.601 14945.674 26330.912 0.000 23715.482 13269.169 16796.526 8296.154 20208.978 14953.028 24968.128 8248.651 18506.224 4016.490 19352.663 26093.628 5548.926 21713.099 15845.206 19221.245 18375.692 18957.036 18994.326 19386.426 11205.504 16491.667 19102.110 16210.321 12818.344 17523.429 16372.802
12356.608 9433.867 9779.444 11534.488 10869.649 13875.755 20542.222 7755.667 16949.038 12103.830 14809.565 14089.299 16002.346 16039.228 9035.814 14527.647 15497.549 14887.736 9651.592 18901.208 10358.379 24218.386 11414.263 18738.227 18506.437 8524.985 5672.580 14834.300 16730.994 17908.743 17091.129 18164.298 15330.621 10504.763 14370.333 9208.893 14034.355 5432.667 8807.124 6487.910 7316.206 18459.234 9833.939 19631.823 14549.493 7818.841 11242.739 14753.189 8838.552 21685.351 9498.736 5549.084 13418.404 30874.674 7834.674 17215.034 17028.314 8494.847 7758.772 16552.932 19621.905 9945.598 5853.353 13971.154 9708.790 7923.494 8054.050 6456.284 7293.473 2101.268 17401.174 10179.466 9644.536 23856.451 0.000 11556.685 13976.108 31294.788 10000.037 12094.081 13157.718 25336.857 15386.105 26978.296 5365.556 11562.804 25115.871 5873.888 8846.492 12100.856 7516.287 5753.343 18664.821 5116.679 13591.401 7315.859 6277.092 9287.415 11551.530 9097.823 13552.384
1995.135 3101.988 3603.922 4168.191 2188.478 11991.201 18301.832 14010.233 8819.752 8249.709 6121.301 4768.209 9644.301 7088.601 5128.057 4402.987 9006.581 3770.697 3946.597 9147.283 4214.565 14892.377 642.810 8538.578 7843.299 6276.945 12458.383 4331.762 8732.671 7245.605 7742.204 10455.799 5162.872 2185.371 4171.756 3184.111 3994.877 6524.406 12102.766 10789.666 4876.743 8259.585 2527.160 10101.344 4349.845 6708.158 5859.656 6072.719 6039.595 10943.890 3913.771 6628.637 10665.646 20598.388 3882.131 9139.667 9165.188 3794.130 5262.174 5584.390 9867.980 1689.870 6796.689 10194.666 1795.529 5288.577 4072.453 8768.640 5919.577 10315.076 8566.654 2674.361 15562.204 13193.313 11204.037 0.000 9528.318 21018.502 9584.403 6497.669 14978.125 16010.848 11238.016 16315.158 7332.127 15425.338 15168.093 9871.204 3023.233 9456.145 5945.261 6445.591 14608.518 7365.889 2522.697 3980.222 6353.212 4640.115 797.200 6974.538 9104.594
9071.368 12213.303 7488.877 6055.214 11938.562 21146.848 8902.426 11722.365 17712.059 2310.001 7079.055 13535.107 19406.744 8196.538 7008.428 12929.227 18401.719 11158.755 13417.401 17164.418 6543.766 15556.791 9207.721 15741.241 12770.712 6766.718 11220.961 8936.676 17913.332 12497.762 9486.714 18899.501 8312.716 8191.751 12740.470 9242.030 12675.367 10291.696 8707.073 9552.244 9800.321 16008.272 7960.261 18212.854 12875.884 7007.837 4758.879 7022.679 6453.763 15949.626 7266.382 12175.304 3109.343 23281.254 10747.778 17776.819 18355.265 8632.137 12481.257 12575.597 17626.909 9789.300 12435.008 1156.226 9509.152 12428.150 8938.514 16257.137 12287.173 14867.525 9249.808 11808.641 12767.362 17273.212 14311.894 9841.130 0.000 23701.368 18262.706 3853.289 9481.888 16300.639 1798.779 20398.066 14271.145 10956.358 16641.713 9529.628 10875.032 3901.415 13224.204 11992.258 5624.490 14290.249 10300.503 10311.537 12617.961 7353.009 10544.764 5420.901 1220.526
19607.600 23466.783 21911.457 20476.474 21788.821 25884.076 28425.520 31815.525 18398.183 23057.654 16944.701 19234.966 21188.146 15611.756 23088.776 18681.239 19703.140 17629.674 22589.998 15260.246 21628.791 10187.404 20602.982 14754.235 13572.089 23751.448 30730.896 17207.472 18692.568 14308.780 14305.655 19198.781 16535.388 21601.548 18506.498 22710.646 18668.444 26480.194 29325.061 29198.088 24305.198 14942.202 21428.877 16050.847 18513.860 24607.505 21950.974 17364.566 23467.846 11251.789 22103.704 26856.125 25650.615 725.029 24163.556 18384.626 19132.048 22946.005 25884.701 17482.300 15490.553 22048.591 27115.830 24353.450 22108.916 25911.104 23353.810 28659.213 26542.103 30437.961 15402.810 22819.302 32860.523 8084.902 31326.922 21142.798 23326.137 0.000 27775.093 21482.638 31497.739 12105.048 25035.834 6000.714 27222.700 32623.238 9193.723 28332.826 23718.835 25750.855 26245.729 26673.080 24189.429 27256.463 19079.132 24207.711 26975.739 22830.048 20691.973 24053.039 22902.412
11182.605 6683.499 11229.604 12623.458 7669.679 5122.011 26596.389 16277.863 9991.544 16626.045 15285.699 9066.912 9044.852 16278.657 12366.072 10233.164 8540.054 12198.349 6162.805 12672.263 12455.736 23339.534 10155.558 13592.330 14962.488 12325.019 14093.152 13277.671 9773.499 14621.630 16932.259 11206.803 14352.927 10386.762 10387.707 9765.165 10051.729 9265.739 16728.139 14550.369 9650.098 13168.299 10354.669 13013.742 10458.933 12244.884 14249.605 15237.118 12638.586 17217.673 11560.039 7317.861 18345.502 27370.330 8184.906 10257.540 10070.819 10296.788 6566.895 12784.998 13270.513 9126.326 6982.331 18493.368 9215.128 6891.516 10387.943 3714.330 7375.788 8150.942 17756.709 7329.959 18166.732 20249.171 9865.891 9512.748 17977.813 27790.444 0.000 14887.618 20765.702 25086.094 19687.511 22527.172 6024.101 19788.618 23470.112 13009.747 7697.066 16800.354 6324.410 7432.884 23442.064 6161.984 11272.015 8873.383 6488.501 12286.383 9049.997 13620.038 17554.089
5903.235 8791.142 4063.708 2988.836 8577.131 17724.686 12337.631 11007.163 14534.122 1871.848 4901.911 10357.170 16032.953 6019.394 3447.448 9761.095 15223.781 8420.616 9995.240 14201.895 2831.188 13922.172 5874.486 13509.760 10593.568 3672.222 9934.556 6759.532 14735.394 10320.618 7309.571 15842.603 6135.573 4769.590 9572.338 5819.869 9507.235 7610.689 8516.699 8728.736 6508.602 13230.767 4538.100 15155.955 9707.953 4475.516 1119.732 4845.535 3353.244 13772.483 3837.274 9185.725 4382.894 21104.111 7325.617 14719.920 15177.327 5201.681 9059.095 10234.308 14849.403 6367.139 9445.429 4070.081 6086.991 9085.499 5495.879 13267.558 9120.077 12102.841 7108.571 8386.479 12052.160 15096.068 11979.592 6507.895 3592.329 21524.225 14840.545 0.000 10295.606 14922.612 5273.815 18220.922 11281.567 11528.820 15007.095 7965.131 7452.870 4548.722 9802.043 9002.680 9118.344 11300.670 7132.370 6889.376 9628.383 3699.160 7185.853 3244.677 3168.605
14912.124 16753.282 11632.477 12012.616 16787.446 24843.915 9660.803 5677.764 23223.736 9056.393 15024.443 19046.783 24362.666 16142.665 10479.359 18681.561 23724.945 17552.577 18165.781 23210.784 11205.941 24121.659 14564.100 22518.649 20339.190 10029.093 8043.395 16417.905 23425.008 19978.991 17432.841 24734.374 16000.628 13099.302 18450.331 13910.560 18273.452 12136.010 4482.302 6758.593 12423.471 22239.656 12703.639 24164.845 18628.420 9905.352 9743.774 14968.067 9768.101 23518.104 11398.603 14140.376 6716.155 31227.381 13867.448 23418.242 23866.941 12578.891 14886.220 19366.269 23858.293 14532.678 14400.080 8485.810 14252.530 14649.252 12395.804 17649.398 14460.190 14052.693 17308.057 16594.277 5421.571 25219.338 13186.082 14966.696 9555.471 31647.495 20966.841 10561.039 0.000 25122.098 8674.479 28344.193 15469.938 2606.910 25206.582 8552.455 14934.113 6237.983 15629.168 13957.331 9127.896 15221.062 16141.259 13156.259 14583.034 10914.839 15515.565 8712.347 10196.879
12072.334 16891.572 13734.655 11928.801 15676.407 24312.941 17887.399 23083.563 17387.279 14110.102 8695.719 14701.708 20177.242 7291.517 14361.238 13869.129 18692.236 11687.168 17434.526 14249.341 12960.294 3322.343 13343.558 12740.430 9490.519 15023.909 22003.357 9948.852 17681.664 9728.025 6313.735 18233.378 8988.857 13609.628 13680.372 14718.725 13831.196 17995.456 20593.099 20470.550 16150.223 13347.681 13436.956 15212.643 13750.908 15879.967 13219.012 9044.761 14740.308 9497.218 13682.910 18864.205 16727.911 12565.235 16171.636 17373.722 18121.144 14791.030 17905.115 12434.916 14619.976 14700.304 19123.909 14882.382 14482.832 17931.518 15198.835 22234.482 18562.518 22282.986 5880.933 16186.591 24128.561 8227.117 22932.188 13976.966 14337.601 12985.349 23084.472 12559.935 22640.623 0.000 15306.394 10468.610 20552.533 23873.838 4348.529 19706.944 15859.421 16893.740 18648.062 18681.160 13651.308 20571.636 12397.473 16215.790 18996.153 14190.709 14059.262 15321.077 13954.860
10422.597 13564.533 8840.106 7406.443 13289.791 22498.077 7497.398 12077.884 19063.288 3490.224 8430.284 14886.336 20757.973 9547.767 8191.299 14280.457 19752.948 12509.985 14768.631 18515.647 7894.995 16399.959 10558.950 17092.470 14121.941 7949.589 11576.480 10287.905 19264.561 13848.991 10837.944 20250.731 9663.946 9542.980 14091.700 10593.259 14026.597 11471.919 9062.592 9907.763 10980.543 17359.502 9311.490 19564.083 14227.113 8188.060 6000.825 8373.908 7636.634 17300.856 8617.612 13355.526 2786.822 24632.484 12099.007 19128.048 19706.494 9983.366 13832.486 13926.826 18978.138 11140.529 13615.231 1795.564 10860.381 13608.373 10260.154 17437.359 13467.396 16047.748 10601.037 13159.870 13027.375 18624.441 15390.459 11192.359 1780.835 25052.598 19613.935 5184.586 8586.516 17143.807 0.000 21749.295 15451.368 10633.837 17484.882 9987.262 12226.261 3578.894 14575.433 13172.481 4278.110 15470.471 11651.732 11662.766 13798.184 8577.058 11895.993 6601.124 2571.756
14865.815 18600.490 18487.807 17052.824 16922.528 20606.165 25599.745 28481.991 13120.272 19724.121 13521.051 14368.672 15910.235 12231.023 19755.243 13814.945 14425.229 12763.380 17723.705 9982.335 18205.141 7918.107 15861.197 9519.395 8705.795 20417.914 27397.362 12963.587 13414.657 9442.486 10972.122 13613.612 12930.992 17415.464 13640.205 18472.751 13802.150 22167.695 25991.527 25827.637 20169.333 9707.362 17757.253 10465.677 13647.566 21273.972 18617.440 13940.916 20134.313 6052.313 18680.054 22271.926 22317.081 5562.991 19579.357 13106.716 13854.137 19082.770 21142.916 12616.007 9905.384 17306.806 22531.630 21019.917 17367.132 21169.319 19361.093 23711.167 21800.319 25958.365 12132.678 18077.517 29526.989 3770.180 26847.326 16401.013 19992.603 5983.105 22497.182 18149.105 28164.205 10031.697 21702.301 0.000 22356.407 29289.705 7138.455 24909.176 18977.050 22417.321 21379.435 22088.880 21363.654 22390.169 14337.348 19623.511 22233.954 19406.398 15950.188 20719.506 19568.879
9280.966 4630.574 7954.565 9558.042 6196.400 9923.575 22016.139 10463.802 12549.194 12218.909 12516.829 9286.006 12050.167 13721.505 8024.266 9724.354 11545.369 10448.685 4848.299 14082.771 9162.958 21745.680 8176.454 13934.933 13927.129 7983.212 8279.091 11376.033 12342.580 13586.271 14595.507 14188.779 12451.289 7699.221 9567.039 6664.207 9231.062 4465.610 11055.522 8736.308 5671.992 13655.941 7289.253 14813.387 9746.200 7610.602 10729.508 12468.247 8296.780 17010.525 8169.427 2418.954 13790.763 26926.627 4775.130 12826.620 12775.097 6804.878 2955.479 11749.638 14803.468 6778.428 2175.491 14086.233 6867.229 3280.100 6409.837 2633.469 2748.864 4125.641 15199.558 5376.173 12352.671 19488.009 5268.554 7537.968 14091.187 27346.741 6046.501 11424.743 15406.116 22864.151 15588.977 22562.038 0.000 13974.557 21982.568 7195.686 5110.631 12393.218 2712.994 2696.278 19433.505 180.053 9376.991 5125.862 1734.269 8148.324 7148.358 9212.902 13667.463
15693.922 15780.425 11897.291 12794.413 16104.613 23678.998 12003.914 3801.314 23707.465 10155.544 15827.367 19530.513 24086.403 17092.250 10487.682 19165.291 23448.683 18334.374 17192.924 23909.588 11777.896 25194.751 15047.830 23300.446 21120.987 9416.490 6216.130 17199.702 23702.095 20760.788 18382.426 25218.104 16782.425 13588.395 18934.060 13027.845 18757.182 10775.611 3456.159 5363.707 11450.614 23021.453 12968.454 24863.649 19112.149 8932.495 10826.628 15770.991 9529.011 24299.902 11663.417 12782.600 8549.065 32176.966 12894.591 23901.971 24134.612 11930.934 13888.170 20148.067 24630.285 14312.694 13087.654 9776.915 14032.546 13651.202 11465.449 16254.512 13462.140 12457.681 18272.447 15801.301 3094.911 26168.924 11577.790 15433.354 10773.816 32597.080 19803.280 11643.893 2606.910 26195.190 10516.766 29293.778 14075.052 0.000 26279.674 7192.056 13961.256 7231.517 14631.118 12886.697 11420.310 13826.176 16923.057 12183.402 13526.573 10982.076 15982.223 8476.051 11300.413
13627.205 17936.383 15792.008 14334.503 16558.167 23330.066 20321.056 25554.688 15844.172 16584.585 10825.251 14801.687 18634.135 9461.277 16832.363 13972.925 17149.129 12246.526 17867.668 12706.235 15431.419 1183.703 14866.670 11763.106 9043.493 17495.034 24474.482 11225.936 16138.557 9479.409 8285.606 16644.770 10553.853 15581.498 13784.168 16690.596 13946.113 20360.744 23064.224 22941.675 18185.748 12168.238 15408.827 13496.836 13854.704 18351.092 15690.137 11245.116 17211.433 8120.123 15984.254 20836.076 19202.394 8657.881 18143.507 15830.616 16578.037 16826.555 19876.986 12722.356 12936.543 16312.279 21095.780 17323.285 16372.604 19903.389 17234.360 23603.035 20534.389 24318.511 8192.702 17208.532 26599.686 5424.292 25207.472 15500.079 16768.345 9077.995 23703.440 15034.418 25115.106 3045.702 17747.297 7085.802 22166.522 26348.321 0.000 22178.069 17831.292 19368.223 20619.933 20653.031 16084.965 22200.284 13388.726 18187.661 20968.024 16661.834 15081.202 17792.202 16429.343
10336.741 9807.961 6429.515 8184.560 10132.149 17137.738 15765.533 5342.624 17816.712 7936.701 11545.004 13913.403 18113.939 12865.394 5598.821 13548.181 17476.219 12915.892 11220.460 18292.478 7008.451 20967.895 9430.720 17683.773 16522.894 4976.355 3790.773 12570.085 17729.631 15925.200 13958.759 19575.830 12264.245 8089.901 13316.951 7410.736 13140.072 4616.452 4211.743 2122.056 5813.012 17404.780 7469.960 19246.539 13495.039 4270.211 7242.048 11488.627 5289.661 19701.808 6148.808 6150.461 8074.330 27797.344 6922.127 18167.252 18162.148 6313.824 7725.834 14729.584 19013.175 8695.585 6455.515 8677.388 8415.436 7488.866 5848.339 9713.252 7299.804 6769.589 14045.591 9828.837 6894.595 21704.435 5902.977 9816.244 9391.074 28217.458 13262.020 8093.391 8562.337 21968.334 10042.030 24829.290 7533.792 7326.078 22038.541 0.000 7988.792 6756.782 8468.782 6254.558 13429.925 7284.916 11607.857 6210.938 6894.434 5850.422 10365.114 5036.539 9202.868
4676.660 2010.340 3863.181 5240.044 2318.564 11057.567 19377.630 12304.152 10003.126 9265.961 7742.631 6253.208 10300.354 8947.308 5178.592 6602.187 9662.634 6336.651 3412.855 11274.004 5082.039 16920.175 3681.642 10771.431 10426.447 5570.544 10333.804 7128.050 9916.046 9864.400 9770.001 11762.245 7831.198 2843.694 6403.537 2398.742 6067.560 4308.450 10707.509 9083.584 3080.271 10492.438 2980.972 12140.749 6582.698 5648.989 6875.908 7694.050 5696.802 13509.844 4193.616 4178.291 11591.028 23217.183 1132.637 10353.666 10348.563 2938.068 2476.567 8150.343 11994.701 2162.497 4011.083 11210.918 2028.843 2502.971 3181.881 6636.213 3133.970 7864.730 10425.360 2015.252 13856.123 15812.109 8753.691 3237.752 10604.117 23637.297 7619.406 7513.922 14745.073 18038.646 12313.814 18933.954 5070.886 14030.082 17745.680 8165.123 0.000 10045.879 3219.515 3995.246 16032.520 5104.648 5264.957 1881.432 3567.606 4919.960 3000.445 6865.563 10180.392
9077.715 11531.561 6207.356 6178.206 11362.325 20507.363 10244.190 8592.884 17691.845 3238.281 9190.034 13514.893 18830.775 10308.255 5133.529 12935.575 18193.055 11718.168 12777.916 17376.375 5674.050 18287.249 9032.209 16684.240 14504.781 4721.225 8091.481 10583.496 17893.117 14144.581 11598.432 19017.083 10166.218 7567.411 12746.818 8485.439 12681.715 8231.253 5577.592 6422.764 7745.936 16405.247 7278.518 18330.435 12882.433 4953.452 3909.365 9133.658 4422.270 17683.695 5973.482 10114.860 1824.475 25392.972 9290.802 17886.351 18335.050 7233.061 10610.734 13531.860 18023.883 9107.557 10374.565 2937.486 8827.409 10373.766 7049.973 14196.693 10232.788 12578.888 11473.648 11169.156 9542.375 19384.929 11905.460 9434.805 3856.552 25813.086 16889.170 4726.630 6298.646 19287.689 3792.176 22509.783 12210.702 7148.837 19372.172 6502.262 9969.229 0.000 11353.681 9931.815 7519.191 12229.805 10306.850 8462.447 10557.518 5569.009 9983.674 3366.517 4383.150
7077.546 3323.570 5666.221 7103.401 4784.253 10764.790 20530.331 12273.720 11743.958 10559.987 10062.188 8465.626 11706.181 11266.864 6300.015 8903.974 11068.461 8829.169 4027.919 13277.535 6935.680 19291.039 6135.201 13114.553 12918.966 6258.961 10089.009 9555.238 11537.343 12356.919 12140.866 13383.542 10232.083 5244.580 8746.659 4209.566 8410.682 3994.259 10939.432 9128.753 3584.041 12835.561 4834.612 14008.150 8925.820 6178.826 8729.549 10013.606 6572.528 16002.362 5996.656 2544.722 12279.445 25709.701 2320.488 12021.384 11969.860 4516.534 500.838 10642.862 13998.232 4666.536 2209.193 12427.311 4429.728 825.458 4321.885 4830.205 1332.080 6761.303 12744.917 3965.960 13901.291 18304.627 7904.217 5730.271 12432.265 26129.815 6887.716 9367.562 14976.996 20409.510 13930.055 21426.472 3208.325 14262.004 20116.544 8210.291 2797.658 10734.296 0.000 2554.215 17774.583 3242.087 7757.476 2821.156 1765.716 6424.073 5492.964 7553.980 12008.541
7542.721 5403.068 5642.634 7406.438 6031.952 11344.731 19687.958 9956.543 13336.832 9890.728 10494.171 9966.597 13163.962 11698.847 5696.084 10315.575 12526.242 10050.040 5620.793 14870.409 6834.776 19723.022 6600.377 14484.820 13692.551 5655.031 7771.832 10020.414 13130.217 13094.856 12572.849 14976.416 10697.259 5709.755 10116.926 4641.549 9780.948 2125.635 9730.996 7879.688 3343.811 14205.827 5266.595 15601.024 10296.086 5282.421 8401.327 10445.589 5968.598 16871.465 5841.245 277.324 11462.581 26307.331 2996.978 13614.258 13562.734 4492.947 2860.594 11863.732 15591.106 5131.712 582.378 11758.051 4894.904 2965.267 4081.656 4723.025 2297.057 4596.314 13176.900 5728.640 11845.412 19042.565 5686.597 6742.799 11763.006 26727.444 7467.657 9096.561 13768.560 20841.493 13260.796 22164.410 2675.396 13053.568 20548.527 6077.568 4008.796 10065.037 3485.488 0.000 17105.324 2677.780 8777.514 2813.930 975.573 5820.143 6713.834 6884.721 11339.282
13547.063 17004.981 12281.883 10750.118 16414.257 25915.562 5622.446 13690.351 22187.755 7063.165 11554.750 18010.802 23882.439 12672.234 11764.241 17404.923 22877.414 15634.451 18082.815 21640.113 11336.772 18706.192 13683.417 20216.936 17246.407 11522.531 13990.909 13412.371 22389.027 16973.457 13962.410 23375.197 12788.412 12984.757 17216.166 14035.036 17151.063 15044.861 10897.343 12322.192 14553.485 20483.968 12753.267 22688.549 17351.579 11761.001 9573.767 11498.374 11209.576 20425.322 12059.389 16928.468 6203.334 27405.771 15540.784 22252.514 22830.960 13425.143 17274.263 17051.292 22102.604 14582.306 17188.172 5394.385 14302.158 17181.314 13731.520 21010.301 17040.337 19245.892 13725.503 16577.355 14354.446 21748.907 18379.280 14316.825 5353.776 27825.885 23055.712 8757.527 9116.052 19450.040 3811.743 24873.761 19024.309 11429.575 19791.115 13139.249 15668.038 7207.681 18017.210 16745.423 0.000 19043.413 14776.198 15104.543 17371.126 12149.999 15020.459 10174.065 6144.697
9236.680 4586.288 7815.074 9513.757 6152.114 10090.468 21876.648 10324.311 12520.052 12079.418 12472.543 9241.720 12217.060 13677.220 7884.775 9680.068 11616.408 10404.399 4804.013 14053.629 9023.467 21701.394 8132.169 13890.648 13882.843 7843.721 8139.600 11331.747 12313.438 13541.985 14551.221 14159.637 12407.003 7654.935 9522.754 6619.921 9186.776 4326.119 10916.031 8596.817 5532.501 13611.655 7244.968 14784.245 9701.914 7471.111 10590.017 12423.961 8157.288 16966.240 8029.936 2279.463 13651.272 26882.342 4730.844 12797.478 12745.955 6665.387 2911.193 11705.353 14774.326 6734.142 2036.000 13946.742 6822.944 3235.814 6270.346 2815.367 2704.579 3986.150 15155.272 5331.887 12213.180 19443.724 5129.063 7493.682 13951.696 27302.455 6213.394 11285.252 15266.625 22819.865 15449.486 22517.752 273.231 13835.066 21938.283 7056.195 5066.345 12253.727 2668.708 2556.787 19294.014 0.000 9332.705 4986.371 1594.777 8008.833 7104.073 9073.411 13527.972
1514.297 5254.411 5369.292 4691.965 3956.822 13028.158 18757.883 15876.115 8043.162 8894.331 4738.164 3866.209 10353.683 5695.180 6893.428 3104.689 9033.018 1889.074 5630.287 7545.489 5415.906 13035.327 2245.928 6853.354 5841.111 8042.315 14324.264 2479.508 8244.434 5243.417 6272.782 9186.197 3719.684 3992.706 2915.932 5049.993 2850.829 8691.145 13707.429 12655.547 6746.575 6574.361 4334.495 8499.549 3051.547 8540.748 6504.278 4842.098 7804.965 9020.026 5679.141 8795.375 11310.268 18596.200 6102.806 8063.514 8695.689 5660.012 7591.684 3702.766 8192.997 3830.256 9055.080 10839.288 3890.581 7618.088 5938.335 10921.063 8249.087 12481.815 7173.233 4526.560 17242.890 11191.126 13370.776 2652.264 9984.370 19016.314 11314.978 7142.291 16051.043 14295.784 11694.067 14312.971 9484.551 17030.001 13165.905 11737.086 5425.818 10304.159 8186.589 8612.330 14840.264 9518.313 0.000 6146.961 8682.723 6405.485 2399.231 8435.407 9560.645
5070.117 3813.744 2885.991 4649.795 4121.968 12543.846 18338.503 10539.885 11806.531 8368.159 7861.342 8056.613 12103.758 9081.724 3821.074 8245.233 11466.038 7612.944 5216.259 12989.530 4168.678 17105.899 4127.772 12380.825 11219.946 4067.133 8569.538 7547.809 11719.450 10622.252 9955.726 13565.649 8146.155 3237.151 8014.003 2024.426 7837.124 2544.184 8943.243 7319.318 1474.125 12101.832 2649.472 13943.591 8192.091 4145.578 6275.429 7804.966 4193.391 14398.860 3216.426 2973.986 10087.617 23690.208 828.355 12157.070 12151.967 1736.304 2492.351 9426.636 13710.227 2659.107 3233.690 10235.483 2422.299 2420.538 1700.028 6821.719 2832.089 6432.325 10492.407 3818.656 12091.856 16569.960 7321.287 4270.194 10003.638 24110.321 8879.230 6913.443 12980.807 18224.370 11713.336 19691.805 4948.999 12265.815 17931.404 6400.856 1895.020 8542.468 3235.299 2790.941 15468.401 4968.103 6304.909 0.000 3392.620 3818.459 4781.810 5362.152 9579.914
8153.839 4562.338 6253.751 8017.555 6128.163 10504.000 20315.325 10563.910 12496.101 10518.095 11105.288 9217.769 12323.232 12309.964 6323.451 9656.117 11685.512 10380.448 4780.062 14029.679 7462.143 20334.139 7211.494 13866.697 13858.893 6282.398 8379.200 10631.531 12289.487 13518.034 13183.966 14135.686 11308.376 6320.872 9498.803 5252.666 9162.826 2794.466 10358.363 8507.055 3971.178 13587.704 5877.712 14760.294 9677.964 5909.788 9028.693 11056.706 6595.965 16942.289 6468.612 834.912 12089.948 26858.391 3608.095 12773.527 12722.004 5104.064 2625.294 11681.402 14750.375 5742.829 499.383 12385.418 5506.021 2729.967 4709.022 3882.295 1925.176 5116.159 13788.017 5307.937 12452.780 19419.773 6259.073 7353.916 12390.372 27278.505 6626.926 9723.928 14395.926 21452.610 13888.162 22493.802 1713.387 13680.935 21159.644 6684.935 4619.913 10692.404 2644.758 975.573 17732.690 1715.771 9308.755 3425.047 0.000 6447.509 7080.122 7512.088 11966.648
5072.982 6459.243 1135.038 2836.400 6290.007 15435.045 15468.984 10052.542 12957.439 5130.885 6177.045 8780.487 14079.298 7503.090 624.541 8415.265 13441.578 7782.976 7705.599 13159.562 1563.195 15626.061 4297.804 12550.857 11275.753 1839.494 8500.691 7275.608 13158.712 10678.058 8664.282 14468.078 6969.768 2826.142 8184.034 3265.506 8007.156 4220.824 7814.669 6831.975 3207.251 12271.864 2206.201 14113.623 8362.123 2466.519 3098.970 6120.669 1571.770 14454.667 901.164 5795.860 7218.097 22502.867 4431.928 13151.945 13600.185 1903.372 6069.709 9596.668 13880.259 4035.240 6055.564 7279.571 3755.092 5871.189 2039.233 9877.693 5730.212 8712.976 8683.287 6096.838 11350.131 16409.958 9157.556 4683.328 6883.633 22922.981 12096.958 3758.683 10990.122 16626.500 8540.166 19534.813 7891.701 11137.242 16710.984 5913.513 4793.833 5672.949 6812.656 5612.815 12384.695 7910.805 6417.449 3603.573 6238.518 0.000 5232.197 2542.647 6459.909
2159.831 2945.654 4119.736 4684.005 1707.619 11510.341 18817.646 14526.047 8268.460 8765.523 6298.868 4260.098 9093.009 7255.883 5643.871 3938.922 8455.288 3453.220 3465.738 8683.219 4730.379 14856.526 1158.624 8074.513 7543.017 6792.759 12887.096 4254.898 8181.379 6980.969 7909.486 9991.734 5330.154 2701.185 3707.691 3699.925 3530.812 6861.743 12618.580 11305.480 5214.080 7795.521 3042.974 9637.279 3885.780 7223.972 6375.470 6402.801 6555.409 10626.413 4429.585 6965.974 11181.460 20333.752 4136.102 8618.999 8613.896 4309.944 5266.761 5266.913 9403.915 2113.335 6801.276 10710.480 2236.060 5293.165 4588.267 8612.306 5924.164 10652.413 8733.936 2217.803 16078.018 12928.678 11541.374 515.814 10044.132 20753.866 9115.684 7013.483 15493.939 16063.320 11753.830 16050.523 7175.794 15941.152 14987.104 10387.018 3100.895 9971.959 5877.832 6782.928 15124.332 7209.556 2381.527 4317.559 6357.800 5155.929 0.000 7490.352 9620.408
7217.870 8736.198 3421.240 4318.362 8576.209 17609.044 13198.112 7762.486 15243.641 3189.076 7351.316 11066.689 16365.499 8616.199 2016.620 10701.467 15727.779 9858.323 9991.800 15445.764 3301.844 16718.700 6584.005 14824.395 12644.936 1530.105 6940.952 8723.651 15444.913 12284.737 9906.375 16754.279 8306.374 5112.343 10470.236 5532.211 10293.357 5084.072 5272.022 5669.165 4592.696 14545.402 4492.402 16399.824 10648.325 1800.213 2551.980 7294.940 1217.150 15823.850 3187.366 6967.679 4947.225 23700.915 6137.562 15438.147 15886.387 4170.077 7457.494 11672.015 16164.039 6321.441 7227.384 5095.091 6041.293 7220.526 3844.853 11049.512 7079.548 9659.901 9796.396 8383.040 8807.484 17692.872 9104.269 6969.529 5061.353 24121.029 13735.930 3403.322 8719.250 17719.139 6597.836 20817.727 9063.521 8594.594 17803.623 4905.560 6815.989 3402.077 8200.441 6784.634 10442.364 9082.624 8447.005 5309.207 7410.337 2506.025 7518.399 0.000 4637.629
8009.344 11153.490 6429.064 4993.191 10876.539 20087.035 9826.934 11575.097 16650.036 1489.328 6017.032 12473.084 18344.720 7134.515 5948.615 11867.204 17339.695 10096.732 12357.588 16102.395 5483.953 14869.144 8145.698 14679.218 11708.689 5706.905 11050.198 7874.653 16851.308 11435.738 8424.691 17837.478 7250.693 7131.938 11678.447 8182.217 11613.344 9261.174 9084.633 9625.537 8769.799 14946.249 6900.448 17150.831 11813.861 5977.315 3699.066 5960.655 5393.950 14887.603 6206.569 11144.782 3967.100 22219.231 9687.965 16714.795 17293.241 7572.324 11421.444 11513.573 16564.886 8729.487 11404.486 2080.734 8449.339 11397.628 7878.701 15226.615 11256.651 13837.003 8187.784 10748.828 12620.095 16211.188 13281.372 8779.107 1053.420 22639.345 17202.893 2793.476 10253.700 15612.992 2763.118 19336.043 13240.623 11542.534 15954.066 9014.806 9815.219 4553.892 12164.391 10961.736 6607.646 13259.726 9238.479 9251.724 11587.439 6293.196 9482.740 4388.601 0.000
NODE_COORD_SECTION
1 -2164.012052 1974.697434
2 -3261.241105 5981.580209
3 743.638847 3490.599941
4 759.225770 1751.716619
5 -3657.168894 4645.217194
6 -10782.804191 10510.167579
7 11226.683960 -3383.077759
8 8044.780193 9581.494137
9 -10225.782234 3153.303468
10 4384.984484 1070.624713
11 -666.347884 -1225.061698
12 -6239.692877 2930.667729
13 -11355.148934 5116.004061
14 -1013.046561 -2437.586789
15 1991.560331 3764.958280
16 -5734.279999 2069.195460
17 -10045.510430 4681.385623
18 -4237.895353 1023.120904
19 -4540.807800 6162.098120
20 -9691.970864 272.811020
21 1215.503948 2700.873647
22 -3273.849433 -9713.759909
23 -2059.465750 2982.418218
24 -8643.124368 -596.555397
25 -5714.283701 -2266.351279
26 2703.061805 4266.778796
27 5726.373021 9440.715680
28 -2496.353346 -48.258176
29 -10278.633049 3387.964757
30 -5399.365487 -1995.135541
31 -1659.138693 -3221.103177
32 -11652.570886 3017.154758
33 -1914.437896 -833.361312
34 -668.293612 3243.156408
35 -5573.687984 2014.448806
36 -258.533759 4426.011804
37 -5440.420576 2223.269308
38 1153.097953 7403.088491
39 7431.610440 6798.280921
40 5749.859244 7989.181118
41 418.193697 5404.730317
42 -8749.204791 -347.229061
43 -300.950770 3427.363678
44 -10681.848998 349.637095
45 -5515.936599 1864.137561
46 3013.513300 5037.297233
47 2716.784870 2000.235272
48 -685.286519 -1070.303253
49 2698.926879 3938.188196
50 -8060.090251 -4047.142884
51 1022.877510 3493.434809
52 -552.300112 8242.133380
53 6843.459674 1198.208600
54 -11628.294188 -9912.472137
55 -1005.152354 5947.419666
56 -10422.392185 2973.221091
57 -10517.471674 3477.428645
58 372.994060 4502.940096
59 -1752.585033 7500.737424
60 -4931.253368 1145.504705
61 -10210.127957 31.069178
62 -1654.367139 4217.591190
63 -861.336066 8245.297970
64 5838.762570 279.021854
65 -1421.721452 4125.004463
66 -1338.985403 7502.296504
67 613.003410 4765.802874
68 -3217.499315 10967.519386
69 -1212.333989 7753.966860
70 468.857797 11258.171855
71 -995.079426 -3643.575960
72 -3328.784490 5284.248744
73 9602.936086 9860.938536
74 -7724.681188 -6893.162319
75 1634.084401 11901.481293
76 -2387.324113 3401.427500
77 5224.997560 -168.922327
78 -11964.965071 -10098.235675
79 -6354.033152 11100.524155
80 2833.143019 1123.429973
81 10787.620895 5164.727143
82 -1989.744003 -9007.911965
83 6603.052909 -593.599466
84 -9991.941108 -8824.971475
85 -1833.293481 9529.620425
86 10316.482104 7386.666941
87 -4014.612134 -10013.069492
88 4295.588642 8008.719199
89 -1805.735984 5542.653163
90 6282.892164 2426.492229
91 -1864.501466 7681.881852
92 -490.212958 8004.321421
93 7861.246625 -2996.867263
94 -1684.418333 9552.680580
95 -3332.209827 1747.748381
96 -365.250422 5778.542802
97 -1296.948302 8267.164491
98 1496.994339 3720.047074
99 -2895.028816 3490.529819
100 3649.049920 3704.681516
101 4504.055624 -166.953344
DEMAND_SECTION
1 0
2 6
3 7
4 92
5 9
6 2
7 9
8 82
9 10
10 9
11 9
12 4
13 4
14 5
15 5
16 7
17 10
18 8
19 8
20 9
21 75
22 4
23 5
24 90
25 6
26 1
27 2
28 5
29 8
30 8
31 10
32 7
33 8
34 3
35 4
36 6
37 9
38 5
39 10
40 3
41 2
42 8
43 9
44 7
45 7
46 6
47 2
48 63
49 3
50 3
51 10
52 7
53 8
54 4
55 6
56 6
57 7
58 71
59 7
60 9
61 3
62 3
63 1
64 51
65 7
66 9
67 8
68 5
69 5
70 8
71 4
72 55
73 4
74 8
75 1
76 4
77 8
78 3
79 8
80 10
81 4
82 5
83 2
84 9
85 9
86 7
87 3
88 2
89 1
90 75
91 6
92 74
93 10
94 10
95 4
96 2
97 4
98 2
99 7
100 7
101 4
DEPOT_SECTION
1
-1
EOF
